
     Program PWSCF v.7.5 starts on  4Oct2026 at 20: 2:38 

     This program is part of the open-source Quantum ESPRESSO suite
     for quantum simulation of materials; please cite
         "P. Giannozzi et al., J. Phys.:Condens. Matter 21 395502 (2009);
         "P. Giannozzi et al., J. Phys.:Condens. Matter 29 465901 (2017);
         "P. Giannozzi et al., J. Chem. Phys. 152 154105 (2020);
          URL http://www.quantum-espresso.org", 
     in publications or presentations arising from this work. More details at
     http://www.quantum-espresso.org/quote

     Parallel version (MPI & OpenMP), running on      64 processor cores
     Number of MPI processes:                64
     Threads/MPI process:                     1

     MPI processes distributed on     1 nodes
     408931 MiB available memory on the printing compute node when the environment starts

     Reading input from /tmp/work/materials/KV_Cr_CN6/runs/C_hse06_ideal_LCM/hse_lcm.repro.in

     Current dimensions of program PWSCF are:
     Max number of different atomic species (ntypx) = 10
     Max number of k-points (npk) =  40000
     Max angular momentum in pseudopotentials (lmaxx) =  4

     IMPORTANT: XC functional enforced from input :
     Exchange-correlation= HSE
                           (   1   4  12   4   0   0   0)
     EXX-fraction              =        0.25
     Any further DFT definition will be discarded
     Please, verify this is what you really want

     Message from routine setup :
     BEWARE: nonlinear core correction is not consistent with hybrid XC
     Message from routine setup:
     using ibrav=0 with symmetry is DISCOURAGED, use correct ibrav instead

     K-points division:     npool     =       8
     R & G space division:  proc/nbgrp/npool/nimage =       8
     Subspace diagonalization in iterative solution of the eigenvalue problem:
     a serial algorithm will be used

     EXX: q-point mesh:     2    2    2
     EXX: setup a grid of 40 q-points centered on each k-point
     (k+q)-points:
   0.0000000   0.0000000   0.0000000         1    1
  -0.3535534  -0.3535534   0.3535534         3    1
  -0.3535534   0.3535534  -0.3535534         3    4
  -0.7071068   0.0000000   0.0000000         7    1
   0.3535534  -0.3535534  -0.3535534         3    3
   0.0000000  -0.7071068   0.0000000         7    5
   0.0000000   0.0000000  -0.7071068         7    9
   0.3535534   0.3535534   0.3535534         3    2
   0.1767767   0.1767767  -0.1767767         2    1
  -0.1767767  -0.1767767   0.1767767         2   -1
  -0.1767767   0.5303301  -0.5303301         5    4
   0.1767767  -0.5303301   0.5303301         5   -4
   0.5303301  -0.1767767  -0.5303301         5    5
  -0.5303301   0.1767767   0.5303301         5   -5
  -0.5303301  -0.5303301  -0.1767767         5  -11
   0.5303301   0.5303301   0.1767767         5   11
   0.3535534   0.0000000   0.0000000         4    1
   0.0000000  -0.3535534   0.3535534         6    1
   0.0000000   0.3535534  -0.3535534         6   -1
  -0.3535534   0.0000000   0.0000000         4   -1
   0.0000000   0.3535534   0.3535534         6    2
  -0.3535534   0.0000000   0.7071068         8   -9
   0.3535534   0.0000000  -0.7071068         8    9
   0.0000000  -0.3535534  -0.3535534         6   -2
  -0.1767767  -0.5303301   0.5303301         5    1
   0.1767767  -0.1767767   0.1767767         2    4
   0.1767767   0.5303301  -0.5303301         5   -1
  -0.1767767   0.1767767  -0.1767767         2   -4
  -0.5303301  -0.1767767  -0.5303301         5   -8
   0.5303301  -0.5303301  -0.1767767         5   10
   0.5303301   0.1767767   0.5303301         5    8
  -0.5303301   0.5303301   0.1767767         5  -10
  -0.7071068   0.3535534   0.0000000         8    1
   0.3535534   0.0000000   0.3535534         6   -6
  -0.3535534   0.0000000   0.3535534         6   -5
   0.0000000   0.3535534   0.0000000         4    5
  -0.3535534   0.0000000  -0.3535534         6    6
   0.7071068  -0.3535534   0.0000000         8   -1
   0.0000000  -0.3535534   0.0000000         4   -5
   0.3535534   0.0000000  -0.3535534         6    5

     Parallelization info
     --------------------
     sticks:   dense  smooth     PW     G-vecs:    dense   smooth      PW
     Min         630     630    171                29575    29575    4134
     Max         631     631    172                29578    29578    4136
     Sum        5041    5041   1369               236609   236609   33079

     Using Slab Decomposition



     bravais-lattice index     =            0
     lattice parameter (alat)  =      14.2709  a.u.
     unit-cell volume          =    2055.1352 (a.u.)^3
     number of atoms/cell      =           15
     number of atomic types    =            5
     number of electrons       =        90.00
     number of Kohn-Sham states=           54
     kinetic-energy cutoff     =      90.0000  Ry
     charge density cutoff     =     360.0000  Ry
     cutoff for Fock operator  =     180.0000  Ry
     scf convergence threshold =      1.5E-07
     mixing beta               =       0.3000
     number of iterations used =            8  local-TF  mixing
     Exchange-correlation= HSE
                           (   1   4  12   4   0   0   0)
     EXX-fraction              =        0.25

     celldm(1)=  14.270914  celldm(2)=   0.000000  celldm(3)=   0.000000
     celldm(4)=   0.000000  celldm(5)=   0.000000  celldm(6)=   0.000000

     crystal axes: (cart. coord. in units of alat)
               a(1) = (   0.000000   0.707107   0.707107 )  
               a(2) = (   0.707107   0.000000   0.707107 )  
               a(3) = (   0.707107   0.707107   0.000000 )  

     reciprocal axes: (cart. coord. in units 2 pi/alat)
               b(1) = ( -0.707107  0.707107  0.707107 )  
               b(2) = (  0.707107 -0.707107  0.707107 )  
               b(3) = (  0.707107  0.707107 -0.707107 )  


     PseudoPot. # 1 for K  read from file:
     /tmp/pseudo/K.upf
     MD5 check sum: 0aa97b2c023445f040759afc9fdb6c80
     Pseudo is Norm-conserving + core correction, Zval =  9.0
     Generated using ONCVPSP code by D. R. Hamann
     Using radial grid of 2222 points,  6 beta functions with: 
                l(1) =   0
                l(2) =   0
                l(3) =   1
                l(4) =   1
                l(5) =   2
                l(6) =   2

     PseudoPot. # 2 for V  read from file:
     /tmp/pseudo/V.upf
     MD5 check sum: 40fb93c06b4f9d8c28c5ccd071294a04
     Pseudo is Norm-conserving + core correction, Zval = 13.0
     Generated using ONCVPSP code by D. R. Hamann
     Using radial grid of 1536 points,  6 beta functions with: 
                l(1) =   0
                l(2) =   0
                l(3) =   1
                l(4) =   1
                l(5) =   2
                l(6) =   2

     PseudoPot. # 3 for Cr read from file:
     /tmp/pseudo/Cr.upf
     MD5 check sum: 41892f80c335c8b1e803fd21ab4016b0
     Pseudo is Norm-conserving + core correction, Zval = 14.0
     Generated using ONCVPSP code by D. R. Hamann
     Using radial grid of 1638 points,  6 beta functions with: 
                l(1) =   0
                l(2) =   0
                l(3) =   1
                l(4) =   1
                l(5) =   2
                l(6) =   2

     PseudoPot. # 4 for C  read from file:
     /tmp/pseudo/C.upf
     MD5 check sum: 34a24e64c0a39f27c6c36b90a16ac686
     Pseudo is Norm-conserving + core correction, Zval =  4.0
     Generated using ONCVPSP code by D. R. Hamann
     Using radial grid of 1248 points,  4 beta functions with: 
                l(1) =   0
                l(2) =   0
                l(3) =   1
                l(4) =   1

     PseudoPot. # 5 for N  read from file:
     /tmp/pseudo/N.upf
     MD5 check sum: d34365f73bb0e2ee98afc20ec3e87676
     Pseudo is Norm-conserving + core correction, Zval =  5.0
     Generated using ONCVPSP code by D. R. Hamann
     Using radial grid of 1058 points,  4 beta functions with: 
                l(1) =   0
                l(2) =   0
                l(3) =   1
                l(4) =   1

     atomic species   valence    mass     pseudopotential
     K                 9.00    39.09830     K ( 1.00)
     V                13.00    50.94150     V ( 1.00)
     Cr               14.00    51.99610     Cr( 1.00)
     C                 4.00    12.01100     C ( 1.00)
     N                 5.00    14.00700     N ( 1.00)

     Starting magnetic structure 
     atomic species   magnetization
     K               0.000
     V              -0.231
     Cr              0.214
     C               0.000
     N               0.000

     24 Sym. Ops. (no inversion) found


                                    s                        frac. trans.

      isym =  1     identity                                     

 cryst.   s( 1) = (     1          0          0      )
                  (     0          1          0      )
                  (     0          0          1      )

 cart.    s( 1) = (  1.0000000  0.0000000  0.0000000 )
                  (  0.0000000  1.0000000  0.0000000 )
                  (  0.0000000  0.0000000  1.0000000 )


      isym =  2     180 deg rotation - cart. axis [0,0,1]        

 cryst.   s( 2) = (     0          1         -1      )
                  (     1          0         -1      )
                  (     0          0         -1      )

 cart.    s( 2) = ( -1.0000000  0.0000000  0.0000000 )
                  (  0.0000000 -1.0000000  0.0000000 )
                  (  0.0000000  0.0000000  1.0000000 )


      isym =  3     180 deg rotation - cart. axis [0,1,0]        

 cryst.   s( 3) = (     0         -1          1      )
                  (     0         -1          0      )
                  (     1         -1          0      )

 cart.    s( 3) = ( -1.0000000  0.0000000  0.0000000 )
                  (  0.0000000  1.0000000  0.0000000 )
                  (  0.0000000  0.0000000 -1.0000000 )


      isym =  4     180 deg rotation - cart. axis [1,0,0]        

 cryst.   s( 4) = (    -1          0          0      )
                  (    -1          0          1      )
                  (    -1          1          0      )

 cart.    s( 4) = (  1.0000000  0.0000000  0.0000000 )
                  (  0.0000000 -1.0000000  0.0000000 )
                  (  0.0000000  0.0000000 -1.0000000 )


      isym =  5     120 deg rotation - cart. axis [-1,-1,-1]     

 cryst.   s( 5) = (     0          0          1      )
                  (     1          0          0      )
                  (     0          1          0      )

 cart.    s( 5) = (  0.0000000  1.0000000  0.0000000 )
                  (  0.0000000  0.0000000  1.0000000 )
                  (  1.0000000  0.0000000  0.0000000 )


      isym =  6     120 deg rotation - cart. axis [-1,1,1]       

 cryst.   s( 6) = (     1         -1          0      )
                  (     0         -1          1      )
                  (     0         -1          0      )

 cart.    s( 6) = (  0.0000000 -1.0000000  0.0000000 )
                  (  0.0000000  0.0000000  1.0000000 )
                  ( -1.0000000  0.0000000  0.0000000 )


      isym =  7     120 deg rotation - cart. axis [1,1,-1]       

 cryst.   s( 7) = (    -1          1          0      )
                  (    -1          0          0      )
                  (    -1          0          1      )

 cart.    s( 7) = (  0.0000000  1.0000000  0.0000000 )
                  (  0.0000000  0.0000000 -1.0000000 )
                  ( -1.0000000  0.0000000  0.0000000 )


      isym =  8     120 deg rotation - cart. axis [1,-1,1]       

 cryst.   s( 8) = (     0          0         -1      )
                  (     0          1         -1      )
                  (     1          0         -1      )

 cart.    s( 8) = (  0.0000000 -1.0000000  0.0000000 )
                  (  0.0000000  0.0000000 -1.0000000 )
                  (  1.0000000  0.0000000  0.0000000 )


      isym =  9     120 deg rotation - cart. axis [1,1,1]        

 cryst.   s( 9) = (     0          1          0      )
                  (     0          0          1      )
                  (     1          0          0      )

 cart.    s( 9) = (  0.0000000  0.0000000  1.0000000 )
                  (  1.0000000  0.0000000  0.0000000 )
                  (  0.0000000  1.0000000  0.0000000 )


      isym = 10     120 deg rotation - cart. axis [-1,1,-1]      

 cryst.   s(10) = (    -1          0          1      )
                  (    -1          1          0      )
                  (    -1          0          0      )

 cart.    s(10) = (  0.0000000  0.0000000  1.0000000 )
                  ( -1.0000000  0.0000000  0.0000000 )
                  (  0.0000000 -1.0000000  0.0000000 )


      isym = 11     120 deg rotation - cart. axis [1,-1,-1]      

 cryst.   s(11) = (     1          0         -1      )
                  (     0          0         -1      )
                  (     0          1         -1      )

 cart.    s(11) = (  0.0000000  0.0000000 -1.0000000 )
                  ( -1.0000000  0.0000000  0.0000000 )
                  (  0.0000000  1.0000000  0.0000000 )


      isym = 12     120 deg rotation - cart. axis [-1,-1,1]      

 cryst.   s(12) = (     0         -1          0      )
                  (     1         -1          0      )
                  (     0         -1          1      )

 cart.    s(12) = (  0.0000000  0.0000000 -1.0000000 )
                  (  1.0000000  0.0000000  0.0000000 )
                  (  0.0000000 -1.0000000  0.0000000 )


      isym = 13     inv. 180 deg rotation - cart. axis [1,1,0]   

 cryst.   s(13) = (     1          0         -1      )
                  (     0          1         -1      )
                  (     0          0         -1      )

 cart.    s(13) = (  0.0000000 -1.0000000  0.0000000 )
                  ( -1.0000000  0.0000000  0.0000000 )
                  (  0.0000000  0.0000000  1.0000000 )


      isym = 14     inv. 180 deg rotation - cart. axis [1,-1,0]  

 cryst.   s(14) = (     0          1          0      )
                  (     1          0          0      )
                  (     0          0          1      )

 cart.    s(14) = (  0.0000000  1.0000000  0.0000000 )
                  (  1.0000000  0.0000000  0.0000000 )
                  (  0.0000000  0.0000000  1.0000000 )


      isym = 15     inv.  90 deg rotation - cart. axis [0,0,-1]  

 cryst.   s(15) = (     0         -1          0      )
                  (     0         -1          1      )
                  (     1         -1          0      )

 cart.    s(15) = (  0.0000000 -1.0000000  0.0000000 )
                  (  1.0000000  0.0000000  0.0000000 )
                  (  0.0000000  0.0000000 -1.0000000 )


      isym = 16     inv.  90 deg rotation - cart. axis [0,0,1]   

 cryst.   s(16) = (    -1          0          1      )
                  (    -1          0          0      )
                  (    -1          1          0      )

 cart.    s(16) = (  0.0000000  1.0000000  0.0000000 )
                  ( -1.0000000  0.0000000  0.0000000 )
                  (  0.0000000  0.0000000 -1.0000000 )


      isym = 17     inv. 180 deg rotation - cart. axis [1,0,1]   

 cryst.   s(17) = (     1         -1          0      )
                  (     0         -1          0      )
                  (     0         -1          1      )

 cart.    s(17) = (  0.0000000  0.0000000 -1.0000000 )
                  (  0.0000000  1.0000000  0.0000000 )
                  ( -1.0000000  0.0000000  0.0000000 )


      isym = 18     inv. 180 deg rotation - cart. axis [-1,0,1]  

 cryst.   s(18) = (     0          0          1      )
                  (     0          1          0      )
                  (     1          0          0      )

 cart.    s(18) = (  0.0000000  0.0000000  1.0000000 )
                  (  0.0000000  1.0000000  0.0000000 )
                  (  1.0000000  0.0000000  0.0000000 )


      isym = 19     inv.  90 deg rotation - cart. axis [0,1,0]   

 cryst.   s(19) = (     0          0         -1      )
                  (     1          0         -1      )
                  (     0          1         -1      )

 cart.    s(19) = (  0.0000000  0.0000000 -1.0000000 )
                  (  0.0000000 -1.0000000  0.0000000 )
                  (  1.0000000  0.0000000  0.0000000 )


      isym = 20     inv.  90 deg rotation - cart. axis [0,-1,0]  

 cryst.   s(20) = (    -1          1          0      )
                  (    -1          0          1      )
                  (    -1          0          0      )

 cart.    s(20) = (  0.0000000  0.0000000  1.0000000 )
                  (  0.0000000 -1.0000000  0.0000000 )
                  ( -1.0000000  0.0000000  0.0000000 )


      isym = 21     inv. 180 deg rotation - cart. axis [0,1,1]   

 cryst.   s(21) = (    -1          0          0      )
                  (    -1          1          0      )
                  (    -1          0          1      )

 cart.    s(21) = (  1.0000000  0.0000000  0.0000000 )
                  (  0.0000000  0.0000000 -1.0000000 )
                  (  0.0000000 -1.0000000  0.0000000 )


      isym = 22     inv. 180 deg rotation - cart. axis [0,1,-1]  

 cryst.   s(22) = (     1          0          0      )
                  (     0          0          1      )
                  (     0          1          0      )

 cart.    s(22) = (  1.0000000  0.0000000  0.0000000 )
                  (  0.0000000  0.0000000  1.0000000 )
                  (  0.0000000  1.0000000  0.0000000 )


      isym = 23     inv.  90 deg rotation - cart. axis [-1,0,0]  

 cryst.   s(23) = (     0          1         -1      )
                  (     0          0         -1      )
                  (     1          0         -1      )

 cart.    s(23) = ( -1.0000000  0.0000000  0.0000000 )
                  (  0.0000000  0.0000000 -1.0000000 )
                  (  0.0000000  1.0000000  0.0000000 )


      isym = 24     inv.  90 deg rotation - cart. axis [1,0,0]   

 cryst.   s(24) = (     0         -1          1      )
                  (     1         -1          0      )
                  (     0         -1          0      )

 cart.    s(24) = ( -1.0000000  0.0000000  0.0000000 )
                  (  0.0000000  0.0000000  1.0000000 )
                  (  0.0000000 -1.0000000  0.0000000 )


   Cartesian axes

     site n.     atom                  positions (alat units)
         1        K      tau(   1) = (   0.3535534   0.3535534   0.3535534  )
         2        V      tau(   2) = (   0.0000000   0.0000000   0.0000000  )
         3        Cr     tau(   3) = (   0.7071068   0.7071068   0.7071068  )
         4        C      tau(   4) = (   0.4343911   0.7071068   0.7071068  )
         5        C      tau(   5) = (   0.9798225   0.7071068   0.7071068  )
         6        C      tau(   6) = (   0.7071068   0.4343911   0.7071068  )
         7        C      tau(   7) = (   0.7071068   0.9798225   0.7071068  )
         8        C      tau(   8) = (   0.7071068   0.7071068   0.4343911  )
         9        C      tau(   9) = (   0.7071068   0.7071068   0.9798225  )
        10        N      tau(  10) = (   0.2796732   0.7071068   0.7071068  )
        11        N      tau(  11) = (   1.1345404   0.7071068   0.7071068  )
        12        N      tau(  12) = (   0.7071068   0.2796732   0.7071068  )
        13        N      tau(  13) = (   0.7071068   1.1345404   0.7071068  )
        14        N      tau(  14) = (   0.7071068   0.7071068   0.2796732  )
        15        N      tau(  15) = (   0.7071068   0.7071068   1.1345404  )

   Crystallographic axes

     site n.     atom                  positions (cryst. coord.)
         1        K      tau(   1) = (  0.2500000  0.2500000  0.2500000  )
         2        V      tau(   2) = (  0.0000000  0.0000000  0.0000000  )
         3        Cr     tau(   3) = (  0.5000000  0.5000000  0.5000000  )
         4        C      tau(   4) = (  0.6928391  0.3071609  0.3071609  )
         5        C      tau(   5) = (  0.3071609  0.6928391  0.6928391  )
         6        C      tau(   6) = (  0.3071609  0.6928391  0.3071609  )
         7        C      tau(   7) = (  0.6928391  0.3071609  0.6928391  )
         8        C      tau(   8) = (  0.3071609  0.3071609  0.6928391  )
         9        C      tau(   9) = (  0.6928391  0.6928391  0.3071609  )
        10        N      tau(  10) = (  0.8022412  0.1977588  0.1977588  )
        11        N      tau(  11) = (  0.1977588  0.8022412  0.8022412  )
        12        N      tau(  12) = (  0.1977588  0.8022412  0.1977588  )
        13        N      tau(  13) = (  0.8022412  0.1977588  0.8022412  )
        14        N      tau(  14) = (  0.1977588  0.1977588  0.8022412  )
        15        N      tau(  15) = (  0.8022412  0.8022412  0.1977588  )

     number of k points=     8  Gaussian smearing, width (Ry)=  0.0050
                       cart. coord. in units 2pi/alat
        k(    1) = (   0.0000000   0.0000000   0.0000000), wk =   0.0156250
        k(    2) = (   0.1767767   0.1767767  -0.1767767), wk =   0.1250000
        k(    3) = (  -0.3535534  -0.3535534   0.3535534), wk =   0.0625000
        k(    4) = (   0.3535534   0.0000000   0.0000000), wk =   0.0937500
        k(    5) = (  -0.1767767  -0.5303301   0.5303301), wk =   0.3750000
        k(    6) = (   0.0000000  -0.3535534   0.3535534), wk =   0.1875000
        k(    7) = (  -0.7071068   0.0000000   0.0000000), wk =   0.0468750
        k(    8) = (  -0.7071068   0.3535534   0.0000000), wk =   0.0937500

                       cryst. coord.
        k(    1) = (   0.0000000   0.0000000   0.0000000), wk =   0.0156250
        k(    2) = (   0.0000000   0.0000000   0.2500000), wk =   0.1250000
        k(    3) = (   0.0000000   0.0000000  -0.5000000), wk =   0.0625000
        k(    4) = (   0.0000000   0.2500000   0.2500000), wk =   0.0937500
        k(    5) = (   0.0000000   0.2500000  -0.5000000), wk =   0.3750000
        k(    6) = (   0.0000000   0.2500000  -0.2500000), wk =   0.1875000
        k(    7) = (   0.0000000  -0.5000000  -0.5000000), wk =   0.0468750
        k(    8) = (   0.2500000  -0.5000000  -0.2500000), wk =   0.0937500

     Dense  grid:   236609 G-vectors     FFT dimensions: (  90,  90,  90)

     Dynamical RAM for                 wfc:       3.05 MB

     Dynamical RAM for     wfc (w. buffer):       9.15 MB

     Dynamical RAM for                 EXX:    1392.97 MB

     Dynamical RAM for           str. fact:       2.26 MB

     Dynamical RAM for           local pot:       0.00 MB

     Dynamical RAM for          nlocal pot:       8.48 MB

     Dynamical RAM for                qrad:       7.80 MB

     Dynamical RAM for          rho,v,vnew:       7.16 MB

     Dynamical RAM for               rhoin:       2.39 MB

     Dynamical RAM for            rho*nmix:      14.44 MB

     Dynamical RAM for           G-vectors:       1.92 MB

     Dynamical RAM for          h,s,v(r/c):       0.53 MB

     Dynamical RAM for          <psi|beta>:       0.12 MB

     Dynamical RAM for                 psi:       6.10 MB

     Dynamical RAM for                hpsi:       6.10 MB

     Dynamical RAM for      wfcinit/wfcrot:       6.17 MB

     Estimated static dynamical RAM per process >       1.41 GB

     Estimated max dynamical RAM per process >       1.43 GB

     Estimated total dynamical RAM >      90.88 GB
     EXX: ACE will be initialized later
     Generating pointlists ...
     new r_m :   0.2085 (alat units)  2.9753 (a.u.) for type    1
     new r_m :   0.1154 (alat units)  1.6464 (a.u.) for type    2
     new r_m :   0.1125 (alat units)  1.6054 (a.u.) for type    3
     new r_m :   0.0638 (alat units)  0.9108 (a.u.) for type    4
     new r_m :   0.0638 (alat units)  0.9108 (a.u.) for type    5

     Initial potential from superposition of free atoms

     starting charge      89.9780, renormalised to      90.0000
     Starting wfcs are   73 randomized atomic wfcs

     total cpu time spent up to now is        4.4 secs

     per-process dynamical memory:    47.9 Mb

     Self-consistent Calculation

     iteration #  1     ecut=    90.00 Ry     beta= 0.30
     Davidson diagonalization with overlap

---- Real-time Memory Report at c_bands before calling an iterative solver
           204 MiB given to the printing process from OS
            49 MiB allocation reported by mallinfo(arena+hblkhd)
        405508 MiB available memory on the node where the printing process lives
------------------
     ethr =  1.00E-02,  avg # of iterations =  2.0

     total cpu time spent up to now is       11.1 secs

     total energy              =    -582.85175982 Ry
     estimated scf accuracy    <       5.45117355 Ry

     total magnetization       =    -0.00 Bohr mag/cell
     absolute magnetization    =     4.47 Bohr mag/cell

     iteration #  2     ecut=    90.00 Ry     beta= 0.30
     Davidson diagonalization with overlap

---- Real-time Memory Report at c_bands before calling an iterative solver
           223 MiB given to the printing process from OS
            73 MiB allocation reported by mallinfo(arena+hblkhd)
        404522 MiB available memory on the node where the printing process lives
------------------
     ethr =  6.06E-03,  avg # of iterations =  1.4

     total cpu time spent up to now is       16.4 secs

     total energy              =    -581.87558365 Ry
     estimated scf accuracy    <       2.64478307 Ry

     total magnetization       =     0.00 Bohr mag/cell
     absolute magnetization    =     5.11 Bohr mag/cell

     iteration #  3     ecut=    90.00 Ry     beta= 0.30
     Davidson diagonalization with overlap

---- Real-time Memory Report at c_bands before calling an iterative solver
           225 MiB given to the printing process from OS
            75 MiB allocation reported by mallinfo(arena+hblkhd)
        404522 MiB available memory on the node where the printing process lives
------------------
     ethr =  2.94E-03,  avg # of iterations =  6.7

     total cpu time spent up to now is       23.7 secs

     total energy              =    -583.20427120 Ry
     estimated scf accuracy    <      10.10744919 Ry

     total magnetization       =    -0.00 Bohr mag/cell
     absolute magnetization    =     1.39 Bohr mag/cell

     iteration #  4     ecut=    90.00 Ry     beta= 0.30
     Davidson diagonalization with overlap

---- Real-time Memory Report at c_bands before calling an iterative solver
           227 MiB given to the printing process from OS
            77 MiB allocation reported by mallinfo(arena+hblkhd)
        404636 MiB available memory on the node where the printing process lives
------------------
     ethr =  2.94E-03,  avg # of iterations =  1.1

     total cpu time spent up to now is       29.1 secs

     total energy              =    -583.21609801 Ry
     estimated scf accuracy    <      10.83660245 Ry

     total magnetization       =     0.00 Bohr mag/cell
     absolute magnetization    =     1.38 Bohr mag/cell

     iteration #  5     ecut=    90.00 Ry     beta= 0.30
     Davidson diagonalization with overlap

---- Real-time Memory Report at c_bands before calling an iterative solver
           229 MiB given to the printing process from OS
            79 MiB allocation reported by mallinfo(arena+hblkhd)
        404568 MiB available memory on the node where the printing process lives
------------------
     ethr =  2.94E-03,  avg # of iterations =  1.0

     total cpu time spent up to now is       34.3 secs

     total energy              =    -583.29024924 Ry
     estimated scf accuracy    <      10.94983644 Ry

     total magnetization       =    -0.00 Bohr mag/cell
     absolute magnetization    =     1.37 Bohr mag/cell

     iteration #  6     ecut=    90.00 Ry     beta= 0.30
     Davidson diagonalization with overlap

---- Real-time Memory Report at c_bands before calling an iterative solver
           230 MiB given to the printing process from OS
            81 MiB allocation reported by mallinfo(arena+hblkhd)
        404643 MiB available memory on the node where the printing process lives
------------------
     ethr =  2.94E-03,  avg # of iterations =  1.2

     total cpu time spent up to now is       39.4 secs

     total energy              =    -582.20663667 Ry
     estimated scf accuracy    <      11.75744265 Ry

     total magnetization       =    -0.00 Bohr mag/cell
     absolute magnetization    =     1.92 Bohr mag/cell

     iteration #  7     ecut=    90.00 Ry     beta= 0.30
     Davidson diagonalization with overlap

---- Real-time Memory Report at c_bands before calling an iterative solver
           232 MiB given to the printing process from OS
            82 MiB allocation reported by mallinfo(arena+hblkhd)
        404576 MiB available memory on the node where the printing process lives
------------------
     ethr =  2.94E-03,  avg # of iterations =  2.4

     total cpu time spent up to now is       44.8 secs

     total energy              =    -583.15734902 Ry
     estimated scf accuracy    <       5.84216007 Ry

     total magnetization       =     0.00 Bohr mag/cell
     absolute magnetization    =     3.53 Bohr mag/cell

     iteration #  8     ecut=    90.00 Ry     beta= 0.30
     Davidson diagonalization with overlap

---- Real-time Memory Report at c_bands before calling an iterative solver
           234 MiB given to the printing process from OS
            84 MiB allocation reported by mallinfo(arena+hblkhd)
        404641 MiB available memory on the node where the printing process lives
------------------
     ethr =  2.94E-03,  avg # of iterations =  1.7

     total cpu time spent up to now is       49.9 secs

     total energy              =    -583.19662861 Ry
     estimated scf accuracy    <      10.18922100 Ry

     total magnetization       =    -0.00 Bohr mag/cell
     absolute magnetization    =     2.02 Bohr mag/cell

     iteration #  9     ecut=    90.00 Ry     beta= 0.30
     Davidson diagonalization with overlap

---- Real-time Memory Report at c_bands before calling an iterative solver
           236 MiB given to the printing process from OS
            86 MiB allocation reported by mallinfo(arena+hblkhd)
        404537 MiB available memory on the node where the printing process lives
------------------
     ethr =  2.94E-03,  avg # of iterations =  1.3

     total cpu time spent up to now is       54.9 secs

     total energy              =    -582.71951933 Ry
     estimated scf accuracy    <       7.79445832 Ry

     total magnetization       =    -0.00 Bohr mag/cell
     absolute magnetization    =     3.02 Bohr mag/cell

     iteration # 10     ecut=    90.00 Ry     beta= 0.30
     Davidson diagonalization with overlap

---- Real-time Memory Report at c_bands before calling an iterative solver
           238 MiB given to the printing process from OS
            88 MiB allocation reported by mallinfo(arena+hblkhd)
        404393 MiB available memory on the node where the printing process lives
------------------
     ethr =  2.94E-03,  avg # of iterations =  1.8

     total cpu time spent up to now is       60.3 secs

     total energy              =    -582.31599532 Ry
     estimated scf accuracy    <      11.40409017 Ry

     total magnetization       =     0.00 Bohr mag/cell
     absolute magnetization    =     1.11 Bohr mag/cell

     iteration # 11     ecut=    90.00 Ry     beta= 0.30
     Davidson diagonalization with overlap

---- Real-time Memory Report at c_bands before calling an iterative solver
           238 MiB given to the printing process from OS
            88 MiB allocation reported by mallinfo(arena+hblkhd)
        404416 MiB available memory on the node where the printing process lives
------------------
     ethr =  2.94E-03,  avg # of iterations =  2.8

     total cpu time spent up to now is       68.0 secs

     total energy              =    -582.59686046 Ry
     estimated scf accuracy    <       2.40707300 Ry

     total magnetization       =    -0.00 Bohr mag/cell
     absolute magnetization    =     4.85 Bohr mag/cell

     iteration # 12     ecut=    90.00 Ry     beta= 0.30
     Davidson diagonalization with overlap

---- Real-time Memory Report at c_bands before calling an iterative solver
           238 MiB given to the printing process from OS
            88 MiB allocation reported by mallinfo(arena+hblkhd)
        404483 MiB available memory on the node where the printing process lives
------------------
     ethr =  2.67E-03,  avg # of iterations =  1.2

     total cpu time spent up to now is       74.5 secs

     total energy              =    -582.57529998 Ry
     estimated scf accuracy    <       0.88360468 Ry

     total magnetization       =     0.00 Bohr mag/cell
     absolute magnetization    =     5.34 Bohr mag/cell

     iteration # 13     ecut=    90.00 Ry     beta= 0.30
     Davidson diagonalization with overlap

---- Real-time Memory Report at c_bands before calling an iterative solver
           238 MiB given to the printing process from OS
            88 MiB allocation reported by mallinfo(arena+hblkhd)
        404494 MiB available memory on the node where the printing process lives
------------------
     ethr =  9.82E-04,  avg # of iterations =  2.1

     total cpu time spent up to now is       80.1 secs

     total energy              =    -582.49099856 Ry
     estimated scf accuracy    <       0.33114039 Ry

     total magnetization       =    -0.00 Bohr mag/cell
     absolute magnetization    =     5.51 Bohr mag/cell

     iteration # 14     ecut=    90.00 Ry     beta= 0.30
     Davidson diagonalization with overlap

---- Real-time Memory Report at c_bands before calling an iterative solver
           238 MiB given to the printing process from OS
            88 MiB allocation reported by mallinfo(arena+hblkhd)
        404536 MiB available memory on the node where the printing process lives
------------------
     ethr =  3.68E-04,  avg # of iterations =  4.3

     total cpu time spent up to now is       89.0 secs

     total energy              =    -582.56107211 Ry
     estimated scf accuracy    <       0.16702543 Ry

     total magnetization       =    -0.00 Bohr mag/cell
     absolute magnetization    =     6.38 Bohr mag/cell

     iteration # 15     ecut=    90.00 Ry     beta= 0.30
     Davidson diagonalization with overlap

---- Real-time Memory Report at c_bands before calling an iterative solver
           238 MiB given to the printing process from OS
            88 MiB allocation reported by mallinfo(arena+hblkhd)
        404418 MiB available memory on the node where the printing process lives
------------------
     ethr =  1.86E-04,  avg # of iterations =  1.3

     total cpu time spent up to now is       95.1 secs

     total energy              =    -582.54453649 Ry
     estimated scf accuracy    <       0.16743244 Ry

     total magnetization       =    -0.00 Bohr mag/cell
     absolute magnetization    =     6.19 Bohr mag/cell

     iteration # 16     ecut=    90.00 Ry     beta= 0.30
     Davidson diagonalization with overlap

---- Real-time Memory Report at c_bands before calling an iterative solver
           238 MiB given to the printing process from OS
            88 MiB allocation reported by mallinfo(arena+hblkhd)
        404496 MiB available memory on the node where the printing process lives
------------------
     ethr =  1.86E-04,  avg # of iterations =  2.4

     negative rho (up, down):  8.075E-04 7.278E-04

     total cpu time spent up to now is      101.3 secs

     total energy              =    -582.55258813 Ry
     estimated scf accuracy    <       0.03304991 Ry

     total magnetization       =     0.00 Bohr mag/cell
     absolute magnetization    =     6.38 Bohr mag/cell

     iteration # 17     ecut=    90.00 Ry     beta= 0.30
     Davidson diagonalization with overlap

---- Real-time Memory Report at c_bands before calling an iterative solver
           238 MiB given to the printing process from OS
            88 MiB allocation reported by mallinfo(arena+hblkhd)
        404381 MiB available memory on the node where the printing process lives
------------------
     ethr =  3.67E-05,  avg # of iterations = 11.3

     negative rho (up, down):  1.512E-05 7.209E-06

     total cpu time spent up to now is      111.4 secs

     total energy              =    -582.55498713 Ry
     estimated scf accuracy    <       0.01157148 Ry

     total magnetization       =    -0.00 Bohr mag/cell
     absolute magnetization    =     6.50 Bohr mag/cell

     iteration # 18     ecut=    90.00 Ry     beta= 0.30
     Davidson diagonalization with overlap

---- Real-time Memory Report at c_bands before calling an iterative solver
           238 MiB given to the printing process from OS
            88 MiB allocation reported by mallinfo(arena+hblkhd)
        404500 MiB available memory on the node where the printing process lives
------------------
     ethr =  1.29E-05,  avg # of iterations =  8.2

     negative rho (up, down):  9.499E-05 7.883E-05

     total cpu time spent up to now is      121.1 secs

     total energy              =    -582.55987793 Ry
     estimated scf accuracy    <       0.01293842 Ry

     total magnetization       =    -0.00 Bohr mag/cell
     absolute magnetization    =     6.43 Bohr mag/cell

     iteration # 19     ecut=    90.00 Ry     beta= 0.30
     Davidson diagonalization with overlap

---- Real-time Memory Report at c_bands before calling an iterative solver
           238 MiB given to the printing process from OS
            88 MiB allocation reported by mallinfo(arena+hblkhd)
        404535 MiB available memory on the node where the printing process lives
------------------
     ethr =  1.29E-05,  avg # of iterations =  3.0

     negative rho (up, down):  3.714E-06 1.981E-06

     total cpu time spent up to now is      127.8 secs

     total energy              =    -582.55611967 Ry
     estimated scf accuracy    <       0.02636382 Ry

     total magnetization       =     0.00 Bohr mag/cell
     absolute magnetization    =     6.52 Bohr mag/cell

     iteration # 20     ecut=    90.00 Ry     beta= 0.30
     Davidson diagonalization with overlap

---- Real-time Memory Report at c_bands before calling an iterative solver
           238 MiB given to the printing process from OS
            88 MiB allocation reported by mallinfo(arena+hblkhd)
        404504 MiB available memory on the node where the printing process lives
------------------
     ethr =  1.29E-05,  avg # of iterations =  2.7

     total cpu time spent up to now is      134.3 secs

     total energy              =    -582.55828716 Ry
     estimated scf accuracy    <       0.00210407 Ry

     total magnetization       =     0.00 Bohr mag/cell
     absolute magnetization    =     6.47 Bohr mag/cell

     iteration # 21     ecut=    90.00 Ry     beta= 0.30
     Davidson diagonalization with overlap

---- Real-time Memory Report at c_bands before calling an iterative solver
           238 MiB given to the printing process from OS
            88 MiB allocation reported by mallinfo(arena+hblkhd)
        404345 MiB available memory on the node where the printing process lives
------------------
     ethr =  2.34E-06,  avg # of iterations = 11.1

     total cpu time spent up to now is      143.9 secs

     total energy              =    -582.55847145 Ry
     estimated scf accuracy    <       0.00201107 Ry

     total magnetization       =    -0.00 Bohr mag/cell
     absolute magnetization    =     6.36 Bohr mag/cell

     iteration # 22     ecut=    90.00 Ry     beta= 0.30
     Davidson diagonalization with overlap

---- Real-time Memory Report at c_bands before calling an iterative solver
           238 MiB given to the printing process from OS
            88 MiB allocation reported by mallinfo(arena+hblkhd)
        404369 MiB available memory on the node where the printing process lives
------------------
     ethr =  2.23E-06,  avg # of iterations =  6.6

     total cpu time spent up to now is      151.7 secs

     total energy              =    -582.55882982 Ry
     estimated scf accuracy    <       0.00103967 Ry

     total magnetization       =     0.00 Bohr mag/cell
     absolute magnetization    =     6.32 Bohr mag/cell

     iteration # 23     ecut=    90.00 Ry     beta= 0.30
     Davidson diagonalization with overlap

---- Real-time Memory Report at c_bands before calling an iterative solver
           238 MiB given to the printing process from OS
            88 MiB allocation reported by mallinfo(arena+hblkhd)
        404487 MiB available memory on the node where the printing process lives
------------------
     ethr =  1.16E-06,  avg # of iterations =  1.8

     total cpu time spent up to now is      159.7 secs

     total energy              =    -582.55899049 Ry
     estimated scf accuracy    <       0.00016643 Ry

     total magnetization       =     0.00 Bohr mag/cell
     absolute magnetization    =     6.30 Bohr mag/cell

     iteration # 24     ecut=    90.00 Ry     beta= 0.30
     Davidson diagonalization with overlap

---- Real-time Memory Report at c_bands before calling an iterative solver
           238 MiB given to the printing process from OS
            88 MiB allocation reported by mallinfo(arena+hblkhd)
        404536 MiB available memory on the node where the printing process lives
------------------
     ethr =  1.85E-07,  avg # of iterations =  1.8

     total cpu time spent up to now is      166.2 secs

     total energy              =    -582.55899173 Ry
     estimated scf accuracy    <       0.00005899 Ry

     total magnetization       =     0.00 Bohr mag/cell
     absolute magnetization    =     6.30 Bohr mag/cell

     iteration # 25     ecut=    90.00 Ry     beta= 0.30
     Davidson diagonalization with overlap

---- Real-time Memory Report at c_bands before calling an iterative solver
           238 MiB given to the printing process from OS
            88 MiB allocation reported by mallinfo(arena+hblkhd)
        404509 MiB available memory on the node where the printing process lives
------------------
     ethr =  6.55E-08,  avg # of iterations =  2.9

     total cpu time spent up to now is      174.4 secs

     total energy              =    -582.55900004 Ry
     estimated scf accuracy    <       0.00001577 Ry

     total magnetization       =    -0.00 Bohr mag/cell
     absolute magnetization    =     6.31 Bohr mag/cell

     iteration # 26     ecut=    90.00 Ry     beta= 0.30
     Davidson diagonalization with overlap

---- Real-time Memory Report at c_bands before calling an iterative solver
           238 MiB given to the printing process from OS
            88 MiB allocation reported by mallinfo(arena+hblkhd)
        404428 MiB available memory on the node where the printing process lives
------------------
     ethr =  1.75E-08,  avg # of iterations =  3.9

     total cpu time spent up to now is      181.2 secs

     total energy              =    -582.55899975 Ry
     estimated scf accuracy    <       0.00001333 Ry

     total magnetization       =    -0.00 Bohr mag/cell
     absolute magnetization    =     6.29 Bohr mag/cell

     iteration # 27     ecut=    90.00 Ry     beta= 0.30
     Davidson diagonalization with overlap

---- Real-time Memory Report at c_bands before calling an iterative solver
           238 MiB given to the printing process from OS
            88 MiB allocation reported by mallinfo(arena+hblkhd)
        404472 MiB available memory on the node where the printing process lives
------------------
     ethr =  1.48E-08,  avg # of iterations =  2.4

     total cpu time spent up to now is      187.3 secs

     total energy              =    -582.55900238 Ry
     estimated scf accuracy    <       0.00000111 Ry

     total magnetization       =     0.00 Bohr mag/cell
     absolute magnetization    =     6.30 Bohr mag/cell

     iteration # 28     ecut=    90.00 Ry     beta= 0.30
     Davidson diagonalization with overlap

---- Real-time Memory Report at c_bands before calling an iterative solver
           238 MiB given to the printing process from OS
            88 MiB allocation reported by mallinfo(arena+hblkhd)
        404496 MiB available memory on the node where the printing process lives
------------------
     ethr =  1.23E-09,  avg # of iterations =  5.8

     total cpu time spent up to now is      194.7 secs

     total energy              =    -582.55900270 Ry
     estimated scf accuracy    <       0.00000071 Ry

     total magnetization       =     0.00 Bohr mag/cell
     absolute magnetization    =     6.29 Bohr mag/cell

     iteration # 29     ecut=    90.00 Ry     beta= 0.30
     Davidson diagonalization with overlap

---- Real-time Memory Report at c_bands before calling an iterative solver
           238 MiB given to the printing process from OS
            88 MiB allocation reported by mallinfo(arena+hblkhd)
        404488 MiB available memory on the node where the printing process lives
------------------
     ethr =  7.85E-10,  avg # of iterations =  4.1

     total cpu time spent up to now is      202.7 secs

     total energy              =    -582.55900289 Ry
     estimated scf accuracy    <       0.00000092 Ry

     total magnetization       =    -0.00 Bohr mag/cell
     absolute magnetization    =     6.29 Bohr mag/cell

     iteration # 30     ecut=    90.00 Ry     beta= 0.30
     Davidson diagonalization with overlap

---- Real-time Memory Report at c_bands before calling an iterative solver
           238 MiB given to the printing process from OS
            88 MiB allocation reported by mallinfo(arena+hblkhd)
        404386 MiB available memory on the node where the printing process lives
------------------
     ethr =  7.85E-10,  avg # of iterations =  2.0

     total cpu time spent up to now is      208.9 secs

     total energy              =    -582.55900292 Ry
     estimated scf accuracy    <       0.00000015 Ry

     total magnetization       =    -0.00 Bohr mag/cell
     absolute magnetization    =     6.29 Bohr mag/cell

     iteration # 31     ecut=    90.00 Ry     beta= 0.30
     Davidson diagonalization with overlap

---- Real-time Memory Report at c_bands before calling an iterative solver
           238 MiB given to the printing process from OS
            88 MiB allocation reported by mallinfo(arena+hblkhd)
        404450 MiB available memory on the node where the printing process lives
------------------
     ethr =  1.71E-10,  avg # of iterations =  4.0

     Magnetic moment per site  (integrated on atomic sphere of radius R)
     atom   1 (R=0.208)  charge=  7.9796  magn= -0.0015
     atom   2 (R=0.115)  charge= 10.0749  magn= -1.7838
     atom   3 (R=0.112)  charge= 11.0629  magn=  1.9890
     atom   4 (R=0.064)  charge=  1.0250  magn= -0.0393
     atom   5 (R=0.064)  charge=  1.0250  magn= -0.0393
     atom   6 (R=0.064)  charge=  1.0250  magn= -0.0393
     atom   7 (R=0.064)  charge=  1.0250  magn= -0.0393
     atom   8 (R=0.064)  charge=  1.0250  magn= -0.0393
     atom   9 (R=0.064)  charge=  1.0250  magn= -0.0393
     atom  10 (R=0.064)  charge=  1.8378  magn=  0.0483
     atom  11 (R=0.064)  charge=  1.8378  magn=  0.0483
     atom  12 (R=0.064)  charge=  1.8378  magn=  0.0483
     atom  13 (R=0.064)  charge=  1.8378  magn=  0.0483
     atom  14 (R=0.064)  charge=  1.8378  magn=  0.0483
     atom  15 (R=0.064)  charge=  1.8378  magn=  0.0483

     total cpu time spent up to now is      215.6 secs

     End of self-consistent calculation

 ------ SPIN UP ------------


          k = 0.0000 0.0000 0.0000 ( 29627 PWs)   bands (ev):

   -71.0921 -60.7383 -42.4569 -42.4569 -42.4569 -34.5794 -34.5794 -34.5794
   -29.1549 -16.3432 -16.1548 -16.1548 -16.1548 -16.1145 -16.1145 -12.6020
   -12.6020 -12.6020  -6.8723  -5.0773  -5.0773  -5.0583  -5.0583  -5.0583
    -4.5739  -3.2063  -3.2063  -3.2063  -2.9107  -2.9107  -2.4132  -2.4132
    -2.4132  -2.0806  -2.0806  -2.0806  -1.8485  -1.8485  -1.8485  -1.5906
    -1.5906  -1.5906   0.1920   0.1920   0.1920   3.8985   3.8985   3.8985
     4.5790   4.5790   5.1962   5.7822   5.7822   5.7822

     occupation numbers 
     1.0000   1.0000   1.0000   1.0000   1.0000   1.0000   1.0000   1.0000
     1.0000   1.0000   1.0000   1.0000   1.0000   1.0000   1.0000   1.0000
     1.0000   1.0000   1.0000   1.0000   1.0000   1.0000   1.0000   1.0000
     1.0000   1.0000   1.0000   1.0000   1.0000   1.0000   1.0000   1.0000
     1.0000   1.0000   1.0000   1.0000   1.0000   1.0000   1.0000   1.0000
     1.0000   1.0000   1.0000   1.0000   1.0000   0.0000   0.0000   0.0000
     0.0000   0.0000   0.0000   0.0000   0.0000   0.0000

          k = 0.1768 0.1768-0.1768 ( 29651 PWs)   bands (ev):

   -71.0921 -60.7383 -42.4569 -42.4569 -42.4569 -34.5794 -34.5794 -34.5794
   -29.1549 -16.3224 -16.1778 -16.1491 -16.1491 -16.1205 -16.1205 -12.6015
   -12.6015 -12.6001  -6.7146  -5.6044  -5.1074  -5.1074  -4.9951  -4.9951
    -4.0712  -3.2177  -3.1203  -3.1203  -2.9358  -2.9358  -2.5310  -2.5094
    -2.5094  -2.2428  -2.2428  -2.0233  -1.9167  -1.9021  -1.9021  -1.6593
    -1.4752  -1.4752   0.2997   0.3206   0.3206   3.8768   3.9151   3.9151
     4.6556   4.6556   5.4745   5.7474   5.8496   5.8500

     occupation numbers 
     1.0000   1.0000   1.0000   1.0000   1.0000   1.0000   1.0000   1.0000
     1.0000   1.0000   1.0000   1.0000   1.0000   1.0000   1.0000   1.0000
     1.0000   1.0000   1.0000   1.0000   1.0000   1.0000   1.0000   1.0000
     1.0000   1.0000   1.0000   1.0000   1.0000   1.0000   1.0000   1.0000
     1.0000   1.0000   1.0000   1.0000   1.0000   1.0000   1.0000   1.0000
     1.0000   1.0000   1.0000   1.0000   1.0000   0.0000   0.0000   0.0000
     0.0000   0.0000   0.0000   0.0000   0.0000   0.0000

          k =-0.3536-0.3536 0.3536 ( 29580 PWs)   bands (ev):

   -71.0921 -60.7383 -42.4569 -42.4569 -42.4569 -34.5794 -34.5794 -34.5794
   -29.1549 -16.2910 -16.2114 -16.1366 -16.1366 -16.1333 -16.1333 -12.6010
   -12.6010 -12.5982  -6.3543  -6.1599  -5.1146  -5.1146  -4.9539  -4.9539
    -3.6881  -3.2868  -3.0083  -3.0083  -2.9075  -2.9075  -2.6636  -2.6636
    -2.6597  -2.4520  -2.4520  -1.9844  -1.9274  -1.8575  -1.8575  -1.7666
    -1.4242  -1.4242   0.4042   0.4400   0.4400   3.8528   3.9327   3.9327
     4.7560   4.7560   5.6123   5.8137   5.8140   6.0105

     occupation numbers 
     1.0000   1.0000   1.0000   1.0000   1.0000   1.0000   1.0000   1.0000
     1.0000   1.0000   1.0000   1.0000   1.0000   1.0000   1.0000   1.0000
     1.0000   1.0000   1.0000   1.0000   1.0000   1.0000   1.0000   1.0000
     1.0000   1.0000   1.0000   1.0000   1.0000   1.0000   1.0000   1.0000
     1.0000   1.0000   1.0000   1.0000   1.0000   1.0000   1.0000   1.0000
     1.0000   1.0000   1.0000   1.0000   1.0000   0.0000   0.0000   0.0000
     0.0000   0.0000   0.0000   0.0000   0.0000   0.0000

          k = 0.3536 0.0000 0.0000 ( 29706 PWs)   bands (ev):

   -71.0921 -60.7383 -42.4569 -42.4569 -42.4569 -34.5794 -34.5794 -34.5794
   -29.1549 -16.3171 -16.1669 -16.1556 -16.1556 -16.1310 -16.1141 -12.6010
   -12.6010 -12.6001  -6.6924  -5.6583  -5.0785  -5.0232  -5.0232  -5.0159
    -4.0498  -3.2341  -3.0806  -3.0806  -3.0115  -2.9083  -2.7316  -2.4725
    -2.4725  -2.2745  -2.2745  -2.1053  -2.0274  -2.0274  -1.5921  -1.5810
    -1.4741  -1.4741   0.1939   0.4055   0.4055   3.9009   3.9736   3.9736
     4.5959   4.6914   5.5625   5.7705   5.8893   5.8893

     occupation numbers 
     1.0000   1.0000   1.0000   1.0000   1.0000   1.0000   1.0000   1.0000
     1.0000   1.0000   1.0000   1.0000   1.0000   1.0000   1.0000   1.0000
     1.0000   1.0000   1.0000   1.0000   1.0000   1.0000   1.0000   1.0000
     1.0000   1.0000   1.0000   1.0000   1.0000   1.0000   1.0000   1.0000
     1.0000   1.0000   1.0000   1.0000   1.0000   1.0000   1.0000   1.0000
     1.0000   1.0000   1.0000   1.0000   1.0000   0.0000   0.0000   0.0000
     0.0000   0.0000   0.0000   0.0000   0.0000   0.0000

          k =-0.1768-0.5303 0.5303 ( 29607 PWs)   bands (ev):

   -71.0921 -60.7383 -42.4569 -42.4569 -42.4569 -34.5794 -34.5794 -34.5794
   -29.1549 -16.2885 -16.1977 -16.1502 -16.1479 -16.1390 -16.1198 -12.6005
   -12.6000 -12.5986  -6.4511  -6.0406  -5.0993  -5.0457  -4.9674  -4.9428
    -3.7473  -3.2704  -3.0981  -3.0249  -2.9660  -2.8904  -2.8253  -2.6468
    -2.5465  -2.4607  -2.4122  -2.1935  -2.0091  -1.9822  -1.7216  -1.5381
    -1.3868  -1.3338   0.3145   0.4870   0.4988   3.9014   4.0389   4.0714
     4.6792   4.7047   5.7051   5.8627   5.8964   6.0525

     occupation numbers 
     1.0000   1.0000   1.0000   1.0000   1.0000   1.0000   1.0000   1.0000
     1.0000   1.0000   1.0000   1.0000   1.0000   1.0000   1.0000   1.0000
     1.0000   1.0000   1.0000   1.0000   1.0000   1.0000   1.0000   1.0000
     1.0000   1.0000   1.0000   1.0000   1.0000   1.0000   1.0000   1.0000
     1.0000   1.0000   1.0000   1.0000   1.0000   1.0000   1.0000   1.0000
     1.0000   1.0000   1.0000   1.0000   1.0000   0.0000   0.0000   0.0000
     0.0000   0.0000   0.0000   0.0000   0.0000   0.0000

          k = 0.0000-0.3536 0.3536 ( 29650 PWs)   bands (ev):

   -71.0921 -60.7383 -42.4569 -42.4569 -42.4569 -34.5794 -34.5794 -34.5794
   -29.1549 -16.2967 -16.1958 -16.1562 -16.1368 -16.1332 -16.1236 -12.6010
   -12.6000 -12.5991  -6.5022  -5.9744  -5.1160  -5.0505  -4.9874  -4.9516
    -3.7919  -3.2278  -3.1021  -3.0132  -2.9892  -2.9105  -2.7225  -2.6789
    -2.4866  -2.4274  -2.3363  -2.2177  -1.9815  -1.8662  -1.7376  -1.7047
    -1.4357  -1.3424   0.3916   0.4198   0.4281   3.9016   3.9480   4.0062
     4.6582   4.7534   5.6870   5.8382   5.8421   6.0411

     occupation numbers 
     1.0000   1.0000   1.0000   1.0000   1.0000   1.0000   1.0000   1.0000
     1.0000   1.0000   1.0000   1.0000   1.0000   1.0000   1.0000   1.0000
     1.0000   1.0000   1.0000   1.0000   1.0000   1.0000   1.0000   1.0000
     1.0000   1.0000   1.0000   1.0000   1.0000   1.0000   1.0000   1.0000
     1.0000   1.0000   1.0000   1.0000   1.0000   1.0000   1.0000   1.0000
     1.0000   1.0000   1.0000   1.0000   1.0000   0.0000   0.0000   0.0000
     0.0000   0.0000   0.0000   0.0000   0.0000   0.0000

          k =-0.7071 0.0000 0.0000 ( 29554 PWs)   bands (ev):

   -71.0921 -60.7383 -42.4569 -42.4569 -42.4569 -34.5794 -34.5794 -34.5794
   -29.1549 -16.2856 -16.1746 -16.1571 -16.1565 -16.1565 -16.1137 -12.6000
   -12.6000 -12.5982  -6.5101  -5.9578  -5.0797  -4.9855  -4.9855  -4.9098
    -3.8371  -3.3001  -3.1087  -3.1042  -2.9058  -2.8852  -2.8852  -2.5673
    -2.5673  -2.5175  -2.5175  -2.1299  -2.1054  -2.1054  -1.5936  -1.4121
    -1.4121  -1.2145   0.1959   0.5543   0.5543   3.9047   4.2299   4.2299
     4.6115   4.6549   5.6982   5.9898   5.9903   6.0315

     occupation numbers 
     1.0000   1.0000   1.0000   1.0000   1.0000   1.0000   1.0000   1.0000
     1.0000   1.0000   1.0000   1.0000   1.0000   1.0000   1.0000   1.0000
     1.0000   1.0000   1.0000   1.0000   1.0000   1.0000   1.0000   1.0000
     1.0000   1.0000   1.0000   1.0000   1.0000   1.0000   1.0000   1.0000
     1.0000   1.0000   1.0000   1.0000   1.0000   1.0000   1.0000   1.0000
     1.0000   1.0000   1.0000   1.0000   1.0000   0.0000   0.0000   0.0000
     0.0000   0.0000   0.0000   0.0000   0.0000   0.0000

          k =-0.7071 0.3536 0.0000 ( 29596 PWs)   bands (ev):

   -71.0921 -60.7383 -42.4569 -42.4569 -42.4569 -34.5794 -34.5794 -34.5794
   -29.1549 -16.2792 -16.1981 -16.1571 -16.1565 -16.1270 -16.1260 -12.6000
   -12.5991 -12.5990  -6.3745  -6.1332  -5.1030  -4.9983  -4.9527  -4.9454
    -3.7074  -3.2919  -3.1216  -3.1102  -2.9057  -2.8729  -2.8219  -2.6924
    -2.5588  -2.5196  -2.4201  -2.2529  -2.0357  -1.9309  -1.7845  -1.5599
    -1.2832  -1.2761   0.4050   0.4072   0.5543   3.9594   3.9927   4.2298
     4.6441   4.7075   5.8560   5.8986   5.9851   6.0585

     occupation numbers 
     1.0000   1.0000   1.0000   1.0000   1.0000   1.0000   1.0000   1.0000
     1.0000   1.0000   1.0000   1.0000   1.0000   1.0000   1.0000   1.0000
     1.0000   1.0000   1.0000   1.0000   1.0000   1.0000   1.0000   1.0000
     1.0000   1.0000   1.0000   1.0000   1.0000   1.0000   1.0000   1.0000
     1.0000   1.0000   1.0000   1.0000   1.0000   1.0000   1.0000   1.0000
     1.0000   1.0000   1.0000   1.0000   1.0000   0.0000   0.0000   0.0000
     0.0000   0.0000   0.0000   0.0000   0.0000   0.0000

 ------ SPIN DOWN ----------


          k = 0.0000 0.0000 0.0000 ( 29627 PWs)   bands (ev):

   -68.6136 -62.9871 -39.9469 -39.9469 -39.9469 -36.8340 -36.8340 -36.8340
   -29.1555 -16.2996 -16.1083 -16.1083 -16.1083 -16.0658 -16.0658 -12.6025
   -12.6025 -12.6025  -6.8997  -5.1104  -5.1104  -5.0862  -5.0862  -5.0862
    -4.5479  -3.1753  -3.1753  -3.1753  -2.6994  -2.6994  -2.3885  -2.3885
    -2.3885  -2.0480  -2.0480  -2.0480  -1.8538  -1.8538  -1.8538  -1.5481
    -1.5481  -1.5481   1.2013   1.2013   1.2013   3.1023   3.1023   3.1023
     4.7425   4.7425   5.2189   5.6859   5.6859   5.6859

     occupation numbers 
     1.0000   1.0000   1.0000   1.0000   1.0000   1.0000   1.0000   1.0000
     1.0000   1.0000   1.0000   1.0000   1.0000   1.0000   1.0000   1.0000
     1.0000   1.0000   1.0000   1.0000   1.0000   1.0000   1.0000   1.0000
     1.0000   1.0000   1.0000   1.0000   1.0000   1.0000   1.0000   1.0000
     1.0000   1.0000   1.0000   1.0000   1.0000   1.0000   1.0000   1.0000
     1.0000   1.0000   1.0000   1.0000   1.0000   0.0000   0.0000   0.0000
     0.0000   0.0000   0.0000   0.0000   0.0000   0.0000

          k = 0.1768 0.1768-0.1768 ( 29651 PWs)   bands (ev):

   -68.6136 -62.9871 -39.9469 -39.9469 -39.9469 -36.8340 -36.8340 -36.8340
   -29.1555 -16.2781 -16.1322 -16.1023 -16.1023 -16.0721 -16.0721 -12.6020
   -12.6020 -12.6005  -6.7369  -5.6305  -5.1661  -5.1661  -4.9920  -4.9920
    -4.0466  -3.2031  -3.0934  -3.0934  -2.7840  -2.7840  -2.4615  -2.4285
    -2.4285  -2.2152  -2.2152  -1.9891  -1.9549  -1.8670  -1.8670  -1.6191
    -1.4615  -1.4615   1.4497   1.4658   1.4658   2.8626   2.8953   2.8953
     4.8362   4.8362   5.5006   5.8211   5.8212   5.8571

     occupation numbers 
     1.0000   1.0000   1.0000   1.0000   1.0000   1.0000   1.0000   1.0000
     1.0000   1.0000   1.0000   1.0000   1.0000   1.0000   1.0000   1.0000
     1.0000   1.0000   1.0000   1.0000   1.0000   1.0000   1.0000   1.0000
     1.0000   1.0000   1.0000   1.0000   1.0000   1.0000   1.0000   1.0000
     1.0000   1.0000   1.0000   1.0000   1.0000   1.0000   1.0000   1.0000
     1.0000   1.0000   1.0000   1.0000   1.0000   0.0000   0.0000   0.0000
     0.0000   0.0000   0.0000   0.0000   0.0000   0.0000

          k =-0.3536-0.3536 0.3536 ( 29580 PWs)   bands (ev):

   -68.6136 -62.9871 -39.9469 -39.9469 -39.9469 -36.8340 -36.8340 -36.8340
   -29.1555 -16.2449 -16.1677 -16.0893 -16.0893 -16.0855 -16.0855 -12.6014
   -12.6014 -12.5986  -6.2859  -6.2782  -5.1847  -5.1847  -4.9332  -4.9332
    -3.6350  -3.3208  -3.0053  -3.0053  -2.7795  -2.7795  -2.5313  -2.5313
    -2.5304  -2.4497  -2.4497  -2.0608  -1.8889  -1.7766  -1.7766  -1.7314
    -1.4383  -1.4383   1.8163   1.8278   1.8278   2.5045   2.5831   2.5831
     4.9818   4.9818   5.7087   5.7087   5.8331   6.1907

     occupation numbers 
     1.0000   1.0000   1.0000   1.0000   1.0000   1.0000   1.0000   1.0000
     1.0000   1.0000   1.0000   1.0000   1.0000   1.0000   1.0000   1.0000
     1.0000   1.0000   1.0000   1.0000   1.0000   1.0000   1.0000   1.0000
     1.0000   1.0000   1.0000   1.0000   1.0000   1.0000   1.0000   1.0000
     1.0000   1.0000   1.0000   1.0000   1.0000   1.0000   1.0000   1.0000
     1.0000   1.0000   1.0000   1.0000   1.0000   0.0000   0.0000   0.0000
     0.0000   0.0000   0.0000   0.0000   0.0000   0.0000

          k = 0.3536 0.0000 0.0000 ( 29706 PWs)   bands (ev):

   -68.6136 -62.9871 -39.9469 -39.9469 -39.9469 -36.8340 -36.8340 -36.8340
   -29.1555 -16.2726 -16.1206 -16.1092 -16.1092 -16.0832 -16.0653 -12.6015
   -12.6015 -12.6005  -6.7126  -5.6925  -5.1116  -5.0507  -5.0507  -5.0409
    -4.0213  -3.2030  -3.0616  -3.0616  -2.9456  -2.6967  -2.5869  -2.4111
    -2.4111  -2.2623  -2.2623  -2.0732  -2.0052  -2.0052  -1.5707  -1.5497
    -1.4555  -1.4555   1.2054   1.6502   1.6502   2.7988   2.7988   3.1026
     4.7421   4.9173   5.5357   5.6893   5.8252   5.9317

     occupation numbers 
     1.0000   1.0000   1.0000   1.0000   1.0000   1.0000   1.0000   1.0000
     1.0000   1.0000   1.0000   1.0000   1.0000   1.0000   1.0000   1.0000
     1.0000   1.0000   1.0000   1.0000   1.0000   1.0000   1.0000   1.0000
     1.0000   1.0000   1.0000   1.0000   1.0000   1.0000   1.0000   1.0000
     1.0000   1.0000   1.0000   1.0000   1.0000   1.0000   1.0000   1.0000
     1.0000   1.0000   1.0000   1.0000   1.0000   0.0000   0.0000   0.0000
     0.0000   0.0000   0.0000   0.0000   0.0000   0.0000

          k =-0.1768-0.5303 0.5303 ( 29607 PWs)   bands (ev):

   -68.6136 -62.9871 -39.9469 -39.9469 -39.9469 -36.8340 -36.8340 -36.8340
   -29.1555 -16.2425 -16.1531 -16.1035 -16.1010 -16.0915 -16.0714 -12.6009
   -12.6005 -12.5990  -6.4464  -6.0980  -5.1565  -5.0941  -4.9651  -4.9467
    -3.7229  -3.2712  -3.0973  -2.9581  -2.8921  -2.7157  -2.7098  -2.5834
    -2.4528  -2.4243  -2.4078  -2.1711  -1.9619  -1.9404  -1.6841  -1.5237
    -1.3774  -1.3232   1.4645   1.8864   1.8912   2.6422   2.6721   2.8857
     4.8444   4.9513   5.6353   5.8462   5.8694   6.0364

     occupation numbers 
     1.0000   1.0000   1.0000   1.0000   1.0000   1.0000   1.0000   1.0000
     1.0000   1.0000   1.0000   1.0000   1.0000   1.0000   1.0000   1.0000
     1.0000   1.0000   1.0000   1.0000   1.0000   1.0000   1.0000   1.0000
     1.0000   1.0000   1.0000   1.0000   1.0000   1.0000   1.0000   1.0000
     1.0000   1.0000   1.0000   1.0000   1.0000   1.0000   1.0000   1.0000
     1.0000   1.0000   1.0000   1.0000   1.0000   0.0000   0.0000   0.0000
     0.0000   0.0000   0.0000   0.0000   0.0000   0.0000

          k = 0.0000-0.3536 0.3536 ( 29650 PWs)   bands (ev):

   -68.6136 -62.9871 -39.9469 -39.9469 -39.9469 -36.8340 -36.8340 -36.8340
   -29.1555 -16.2512 -16.1510 -16.1098 -16.0894 -16.0854 -16.0754 -12.6014
   -12.6005 -12.5995  -6.5088  -6.0197  -5.1855  -5.0803  -5.0145  -4.9316
    -3.7571  -3.2218  -3.1219  -2.9739  -2.8512  -2.8103  -2.6017  -2.5399
    -2.4314  -2.3999  -2.2881  -2.2321  -1.9466  -1.7903  -1.7109  -1.6962
    -1.4447  -1.3258   1.6393   1.6645   1.8243   2.5561   2.7790   2.8192
     4.8467   4.9745   5.6626   5.7684   5.8634   6.0275

     occupation numbers 
     1.0000   1.0000   1.0000   1.0000   1.0000   1.0000   1.0000   1.0000
     1.0000   1.0000   1.0000   1.0000   1.0000   1.0000   1.0000   1.0000
     1.0000   1.0000   1.0000   1.0000   1.0000   1.0000   1.0000   1.0000
     1.0000   1.0000   1.0000   1.0000   1.0000   1.0000   1.0000   1.0000
     1.0000   1.0000   1.0000   1.0000   1.0000   1.0000   1.0000   1.0000
     1.0000   1.0000   1.0000   1.0000   1.0000   0.0000   0.0000   0.0000
     0.0000   0.0000   0.0000   0.0000   0.0000   0.0000

          k =-0.7071 0.0000 0.0000 ( 29554 PWs)   bands (ev):

   -68.6136 -62.9871 -39.9469 -39.9469 -39.9469 -36.8340 -36.8340 -36.8340
   -29.1555 -16.2395 -16.1286 -16.1107 -16.1101 -16.1101 -16.0649 -12.6004
   -12.6004 -12.5986  -6.5109  -6.0107  -5.1127  -5.0127  -5.0127  -4.9360
    -3.8429  -3.2838  -3.0949  -2.8791  -2.8791  -2.8684  -2.6938  -2.5728
    -2.5728  -2.4231  -2.4231  -2.0985  -2.0696  -2.0696  -1.5513  -1.3995
    -1.3995  -1.1926   1.2095   1.9542   1.9542   2.7626   2.7626   3.1031
     4.7418   4.9217   5.6224   5.6713   6.0114   6.0549

     occupation numbers 
     1.0000   1.0000   1.0000   1.0000   1.0000   1.0000   1.0000   1.0000
     1.0000   1.0000   1.0000   1.0000   1.0000   1.0000   1.0000   1.0000
     1.0000   1.0000   1.0000   1.0000   1.0000   1.0000   1.0000   1.0000
     1.0000   1.0000   1.0000   1.0000   1.0000   1.0000   1.0000   1.0000
     1.0000   1.0000   1.0000   1.0000   1.0000   1.0000   1.0000   1.0000
     1.0000   1.0000   1.0000   1.0000   1.0000   0.0000   0.0000   0.0000
     0.0000   0.0000   0.0000   0.0000   0.0000   0.0000

          k =-0.7071 0.3536 0.0000 ( 29596 PWs)   bands (ev):

   -68.6136 -62.9871 -39.9469 -39.9469 -39.9469 -36.8340 -36.8340 -36.8340
   -29.1555 -16.2326 -16.1537 -16.1107 -16.1101 -16.0791 -16.0779 -12.6004
   -12.5996 -12.5995  -6.3088  -6.2524  -5.1606  -4.9977  -4.9795  -4.9720
    -3.6988  -3.2835  -3.1041  -3.0000  -2.7873  -2.7809  -2.7111  -2.6580
    -2.5588  -2.4200  -2.3808  -2.2135  -1.9603  -1.8980  -1.7480  -1.5692
    -1.2675  -1.2570   1.6446   1.6636   1.9542   2.7625   2.7940   2.8029
     4.8713   4.8737   5.7732   5.8026   5.8354   5.9370

     occupation numbers 
     1.0000   1.0000   1.0000   1.0000   1.0000   1.0000   1.0000   1.0000
     1.0000   1.0000   1.0000   1.0000   1.0000   1.0000   1.0000   1.0000
     1.0000   1.0000   1.0000   1.0000   1.0000   1.0000   1.0000   1.0000
     1.0000   1.0000   1.0000   1.0000   1.0000   1.0000   1.0000   1.0000
     1.0000   1.0000   1.0000   1.0000   1.0000   1.0000   1.0000   1.0000
     1.0000   1.0000   1.0000   1.0000   1.0000   0.0000   0.0000   0.0000
     0.0000   0.0000   0.0000   0.0000   0.0000   0.0000

     the Fermi energy is     2.2342 ev

!    total energy              =    -582.55900294 Ry
     estimated scf accuracy    <       0.00000002 Ry
     smearing contrib. (-TS)   =      -0.00000000 Ry
     internal energy E=F+TS    =    -582.55900294 Ry

     total magnetization       =    -0.00 Bohr mag/cell
     absolute magnetization    =     6.29 Bohr mag/cell

     convergence has been achieved in  31 iterations

     Using ACE for calculation of exact exchange

     EXX grid:    83731 G-vectors     FFT dimensions: (  64,  64,  64)
     ACE projected onto    54 (nbndproj) and applied to    54 (nbnd) bands

     EXX: now go back to refine exchange calculation

     total cpu time spent up to now is      971.4 secs

     Self-consistent Calculation

     iteration #  1     ecut=    90.00 Ry     beta= 0.30
     Davidson diagonalization with overlap

---- Real-time Memory Report at c_bands before calling an iterative solver
          2458 MiB given to the printing process from OS
         -1832 MiB allocation reported by mallinfo(arena+hblkhd)
        264005 MiB available memory on the node where the printing process lives
------------------
     c_bands:  1 eigenvalues not converged
     ethr =  1.71E-10,  avg # of iterations = 19.9

     total cpu time spent up to now is     1002.4 secs

     total energy              =    -576.24839643 Ry
     estimated scf accuracy    <       0.05574073 Ry

     total magnetization       =    -0.00 Bohr mag/cell
     absolute magnetization    =     6.95 Bohr mag/cell

     iteration #  2     ecut=    90.00 Ry     beta= 0.30
     Davidson diagonalization with overlap

---- Real-time Memory Report at c_bands before calling an iterative solver
          2458 MiB given to the printing process from OS
         -1827 MiB allocation reported by mallinfo(arena+hblkhd)
        263792 MiB available memory on the node where the printing process lives
------------------
     ethr =  6.19E-05,  avg # of iterations =  1.0

     total cpu time spent up to now is     1009.3 secs

     total energy              =    -576.24104200 Ry
     estimated scf accuracy    <       0.02878370 Ry

     total magnetization       =     0.00 Bohr mag/cell
     absolute magnetization    =     6.96 Bohr mag/cell

     iteration #  3     ecut=    90.00 Ry     beta= 0.30
     Davidson diagonalization with overlap

---- Real-time Memory Report at c_bands before calling an iterative solver
          2458 MiB given to the printing process from OS
         -1825 MiB allocation reported by mallinfo(arena+hblkhd)
        263778 MiB available memory on the node where the printing process lives
------------------
     ethr =  3.20E-05,  avg # of iterations =  3.1

     total cpu time spent up to now is     1015.9 secs

     total energy              =    -576.24415808 Ry
     estimated scf accuracy    <       0.00179975 Ry

     total magnetization       =    -0.00 Bohr mag/cell
     absolute magnetization    =     6.97 Bohr mag/cell

     iteration #  4     ecut=    90.00 Ry     beta= 0.30
     Davidson diagonalization with overlap

---- Real-time Memory Report at c_bands before calling an iterative solver
          2458 MiB given to the printing process from OS
         -1823 MiB allocation reported by mallinfo(arena+hblkhd)
        263763 MiB available memory on the node where the printing process lives
------------------
     ethr =  2.00E-06,  avg # of iterations =  5.8

     total cpu time spent up to now is     1023.7 secs

     total energy              =    -576.24432101 Ry
     estimated scf accuracy    <       0.00047271 Ry

     total magnetization       =     0.00 Bohr mag/cell
     absolute magnetization    =     6.98 Bohr mag/cell

     iteration #  5     ecut=    90.00 Ry     beta= 0.30
     Davidson diagonalization with overlap

---- Real-time Memory Report at c_bands before calling an iterative solver
          2458 MiB given to the printing process from OS
         -1821 MiB allocation reported by mallinfo(arena+hblkhd)
        263749 MiB available memory on the node where the printing process lives
------------------
     ethr =  5.25E-07,  avg # of iterations =  2.1

     total cpu time spent up to now is     1030.4 secs

     total energy              =    -576.24434706 Ry
     estimated scf accuracy    <       0.00013559 Ry

     total magnetization       =     0.00 Bohr mag/cell
     absolute magnetization    =     6.98 Bohr mag/cell

     iteration #  6     ecut=    90.00 Ry     beta= 0.30
     Davidson diagonalization with overlap

---- Real-time Memory Report at c_bands before calling an iterative solver
          2458 MiB given to the printing process from OS
         -1819 MiB allocation reported by mallinfo(arena+hblkhd)
        263734 MiB available memory on the node where the printing process lives
------------------
     ethr =  1.51E-07,  avg # of iterations =  2.0

     total cpu time spent up to now is     1037.3 secs

     total energy              =    -576.24436218 Ry
     estimated scf accuracy    <       0.00000894 Ry

     total magnetization       =    -0.00 Bohr mag/cell
     absolute magnetization    =     6.99 Bohr mag/cell

     iteration #  7     ecut=    90.00 Ry     beta= 0.30
     Davidson diagonalization with overlap

---- Real-time Memory Report at c_bands before calling an iterative solver
          2458 MiB given to the printing process from OS
         -1818 MiB allocation reported by mallinfo(arena+hblkhd)
        263720 MiB available memory on the node where the printing process lives
------------------
     ethr =  9.93E-09,  avg # of iterations =  3.6

     total cpu time spent up to now is     1044.8 secs

     total energy              =    -576.24436277 Ry
     estimated scf accuracy    <       0.00000689 Ry

     total magnetization       =    -0.00 Bohr mag/cell
     absolute magnetization    =     6.99 Bohr mag/cell

     iteration #  8     ecut=    90.00 Ry     beta= 0.30
     Davidson diagonalization with overlap

---- Real-time Memory Report at c_bands before calling an iterative solver
          2458 MiB given to the printing process from OS
         -1816 MiB allocation reported by mallinfo(arena+hblkhd)
        263705 MiB available memory on the node where the printing process lives
------------------
     ethr =  7.66E-09,  avg # of iterations =  2.4

     total cpu time spent up to now is     1051.8 secs

     total energy              =    -576.24436356 Ry
     estimated scf accuracy    <       0.00000150 Ry

     total magnetization       =     0.00 Bohr mag/cell
     absolute magnetization    =     6.99 Bohr mag/cell

     iteration #  9     ecut=    90.00 Ry     beta= 0.30
     Davidson diagonalization with overlap

---- Real-time Memory Report at c_bands before calling an iterative solver
          2458 MiB given to the printing process from OS
         -1814 MiB allocation reported by mallinfo(arena+hblkhd)
        263691 MiB available memory on the node where the printing process lives
------------------
     ethr =  1.67E-09,  avg # of iterations =  2.5

     total cpu time spent up to now is     1058.6 secs

     total energy              =    -576.24436360 Ry
     estimated scf accuracy    <       0.00000024 Ry

     total magnetization       =    -0.00 Bohr mag/cell
     absolute magnetization    =     6.99 Bohr mag/cell

     iteration # 10     ecut=    90.00 Ry     beta= 0.30
     Davidson diagonalization with overlap

---- Real-time Memory Report at c_bands before calling an iterative solver
          2458 MiB given to the printing process from OS
         -1812 MiB allocation reported by mallinfo(arena+hblkhd)
        263677 MiB available memory on the node where the printing process lives
------------------
     ethr =  2.69E-10,  avg # of iterations =  4.0

     total cpu time spent up to now is     1067.8 secs

     total energy              =    -576.24436372 Ry
     estimated scf accuracy    <       0.00000104 Ry

     total magnetization       =    -0.00 Bohr mag/cell
     absolute magnetization    =     6.99 Bohr mag/cell

     iteration # 11     ecut=    90.00 Ry     beta= 0.30
     Davidson diagonalization with overlap

---- Real-time Memory Report at c_bands before calling an iterative solver
          2458 MiB given to the printing process from OS
         -1812 MiB allocation reported by mallinfo(arena+hblkhd)
        263677 MiB available memory on the node where the printing process lives
------------------
     ethr =  2.69E-10,  avg # of iterations =  2.0

     total cpu time spent up to now is     1074.5 secs

     total energy              =    -576.24436360 Ry
     estimated scf accuracy    <       0.00000032 Ry

     total magnetization       =     0.00 Bohr mag/cell
     absolute magnetization    =     6.99 Bohr mag/cell

     iteration # 12     ecut=    90.00 Ry     beta= 0.30
     Davidson diagonalization with overlap

---- Real-time Memory Report at c_bands before calling an iterative solver
          2458 MiB given to the printing process from OS
         -1812 MiB allocation reported by mallinfo(arena+hblkhd)
        263677 MiB available memory on the node where the printing process lives
------------------
     ethr =  2.69E-10,  avg # of iterations =  3.2

     Magnetic moment per site  (integrated on atomic sphere of radius R)
     atom   1 (R=0.208)  charge=  7.9773  magn= -0.0017
     atom   2 (R=0.115)  charge= 10.1047  magn= -1.9461
     atom   3 (R=0.112)  charge= 11.0376  magn=  2.2420
     atom   4 (R=0.064)  charge=  1.0109  magn= -0.0438
     atom   5 (R=0.064)  charge=  1.0109  magn= -0.0438
     atom   6 (R=0.064)  charge=  1.0109  magn= -0.0438
     atom   7 (R=0.064)  charge=  1.0109  magn= -0.0438
     atom   8 (R=0.064)  charge=  1.0109  magn= -0.0438
     atom   9 (R=0.064)  charge=  1.0109  magn= -0.0438
     atom  10 (R=0.064)  charge=  1.8205  magn=  0.0517
     atom  11 (R=0.064)  charge=  1.8205  magn=  0.0517
     atom  12 (R=0.064)  charge=  1.8205  magn=  0.0517
     atom  13 (R=0.064)  charge=  1.8205  magn=  0.0517
     atom  14 (R=0.064)  charge=  1.8205  magn=  0.0517
     atom  15 (R=0.064)  charge=  1.8205  magn=  0.0517

     total cpu time spent up to now is     1081.8 secs

     End of self-consistent calculation

 ------ SPIN UP ------------


          k = 0.0000 0.0000 0.0000 ( 29627 PWs)   bands (ev):

   -76.9082 -64.2915 -46.9061 -46.9061 -46.9061 -36.5069 -36.5069 -36.5069
   -32.0561 -18.9107 -18.7027 -18.7027 -18.7027 -18.6614 -18.6614 -14.2101
   -14.2101 -14.2101  -8.5620  -6.5207  -6.5207  -6.5205  -6.5205  -6.5205
    -5.9866  -4.4149  -4.4149  -4.4149  -4.1450  -4.1450  -3.5536  -3.5536
    -3.5536  -3.0750  -3.0750  -3.0750  -2.8951  -2.8951  -2.8951  -2.5427
    -2.5427  -2.5427  -1.5329  -1.5329  -1.5329   4.9664   4.9664   4.9665
     5.2796   5.2798   5.5374   6.4668   6.4668   6.4669

     occupation numbers 
     1.0000   1.0000   1.0000   1.0000   1.0000   1.0000   1.0000   1.0000
     1.0000   1.0000   1.0000   1.0000   1.0000   1.0000   1.0000   1.0000
     1.0000   1.0000   1.0000   1.0000   1.0000   1.0000   1.0000   1.0000
     1.0000   1.0000   1.0000   1.0000   1.0000   1.0000   1.0000   1.0000
     1.0000   1.0000   1.0000   1.0000   1.0000   1.0000   1.0000   1.0000
     1.0000   1.0000   1.0000   1.0000   1.0000   0.0000   0.0000   0.0000
     0.0000   0.0000   0.0000   0.0000   0.0000   0.0000

          k = 0.1768 0.1768-0.1768 ( 29651 PWs)   bands (ev):

   -76.9001 -64.2926 -46.8975 -46.8957 -46.8957 -36.5085 -36.5085 -36.5079
   -32.0561 -18.8880 -18.7291 -18.6975 -18.6975 -18.6683 -18.6683 -14.2095
   -14.2095 -14.2081  -8.3935  -7.1249  -6.5408  -6.5407  -6.4676  -6.4676
    -5.4182  -4.4165  -4.3205  -4.3205  -4.1617  -4.1616  -3.7191  -3.6807
    -3.6806  -3.2815  -3.2815  -3.0113  -2.9763  -2.9068  -2.9067  -2.6202
    -2.4494  -2.4493  -1.4050  -1.3785  -1.3784   5.0173   5.0991   5.1007
     5.3115   5.3121   5.8599   6.3403   6.5630   6.5900

     occupation numbers 
     1.0000   1.0000   1.0000   1.0000   1.0000   1.0000   1.0000   1.0000
     1.0000   1.0000   1.0000   1.0000   1.0000   1.0000   1.0000   1.0000
     1.0000   1.0000   1.0000   1.0000   1.0000   1.0000   1.0000   1.0000
     1.0000   1.0000   1.0000   1.0000   1.0000   1.0000   1.0000   1.0000
     1.0000   1.0000   1.0000   1.0000   1.0000   1.0000   1.0000   1.0000
     1.0000   1.0000   1.0000   1.0000   1.0000   0.0000   0.0000   0.0000
     0.0000   0.0000   0.0000   0.0000   0.0000   0.0000

          k =-0.3536-0.3536 0.3536 ( 29580 PWs)   bands (ev):

   -76.8940 -64.2932 -46.8908 -46.8877 -46.8877 -36.5094 -36.5094 -36.5084
   -32.0561 -18.8532 -18.7676 -18.6843 -18.6843 -18.6831 -18.6831 -14.2089
   -14.2089 -14.2062  -8.0520  -7.6849  -6.5395  -6.5394  -6.4344  -6.4344
    -4.9829  -4.4737  -4.2322  -4.2322  -4.0611  -4.0611  -3.9072  -3.8968
    -3.8968  -3.5079  -3.5078  -3.0498  -2.8993  -2.8556  -2.8556  -2.7457
    -2.3989  -2.3989  -1.2938  -1.2525  -1.2524   5.0811   5.2741   5.2743
     5.3594   5.3594   6.1193   6.3743   6.3783   6.4858

     occupation numbers 
     1.0000   1.0000   1.0000   1.0000   1.0000   1.0000   1.0000   1.0000
     1.0000   1.0000   1.0000   1.0000   1.0000   1.0000   1.0000   1.0000
     1.0000   1.0000   1.0000   1.0000   1.0000   1.0000   1.0000   1.0000
     1.0000   1.0000   1.0000   1.0000   1.0000   1.0000   1.0000   1.0000
     1.0000   1.0000   1.0000   1.0000   1.0000   1.0000   1.0000   1.0000
     1.0000   1.0000   1.0000   1.0000   1.0000   0.0000   0.0000   0.0000
     0.0000   0.0000   0.0000   0.0000   0.0000   0.0000

          k = 0.3536 0.0000 0.0000 ( 29706 PWs)   bands (ev):

   -76.8991 -64.2927 -46.8972 -46.8972 -46.8909 -36.5088 -36.5081 -36.5081
   -32.0561 -18.8824 -18.7184 -18.7044 -18.7044 -18.6794 -18.6618 -14.2090
   -14.2090 -14.2081  -8.3699  -7.1786  -6.5220  -6.4842  -6.4842  -6.4653
    -5.3879  -4.4394  -4.2713  -4.2713  -4.2339  -4.1408  -3.9384  -3.6510
    -3.6510  -3.3090  -3.3090  -3.1031  -3.0407  -3.0407  -2.5972  -2.5448
    -2.4701  -2.4701  -1.5297  -1.2739  -1.2739   4.9693   5.2363   5.2368
     5.2944   5.3130   5.9739   6.5568   6.5609   6.5617

     occupation numbers 
     1.0000   1.0000   1.0000   1.0000   1.0000   1.0000   1.0000   1.0000
     1.0000   1.0000   1.0000   1.0000   1.0000   1.0000   1.0000   1.0000
     1.0000   1.0000   1.0000   1.0000   1.0000   1.0000   1.0000   1.0000
     1.0000   1.0000   1.0000   1.0000   1.0000   1.0000   1.0000   1.0000
     1.0000   1.0000   1.0000   1.0000   1.0000   1.0000   1.0000   1.0000
     1.0000   1.0000   1.0000   1.0000   1.0000   0.0000   0.0000   0.0000
     0.0000   0.0000   0.0000   0.0000   0.0000   0.0000

          k =-0.1768-0.5303 0.5303 ( 29607 PWs)   bands (ev):

   -76.8939 -64.2933 -46.8908 -46.8895 -46.8859 -36.5096 -36.5092 -36.5088
   -32.0561 -18.8509 -18.7532 -18.6993 -18.6971 -18.6885 -18.6683 -14.2084
   -14.2080 -14.2066  -8.1281  -7.5805  -6.5320  -6.4890  -6.4392  -6.4096
    -5.0328  -4.4627  -4.3272  -4.2458  -4.1790  -4.0735  -4.0232  -3.8545
    -3.7638  -3.5156  -3.4539  -3.2319  -3.0146  -2.9724  -2.6997  -2.5580
    -2.3752  -2.3363  -1.3871  -1.1820  -1.1690   5.0522   5.2959   5.3434
     5.4315   5.5224   6.3030   6.5377   6.5525   7.1703

     occupation numbers 
     1.0000   1.0000   1.0000   1.0000   1.0000   1.0000   1.0000   1.0000
     1.0000   1.0000   1.0000   1.0000   1.0000   1.0000   1.0000   1.0000
     1.0000   1.0000   1.0000   1.0000   1.0000   1.0000   1.0000   1.0000
     1.0000   1.0000   1.0000   1.0000   1.0000   1.0000   1.0000   1.0000
     1.0000   1.0000   1.0000   1.0000   1.0000   1.0000   1.0000   1.0000
     1.0000   1.0000   1.0000   1.0000   1.0000   0.0000   0.0000   0.0000
     0.0000   0.0000   0.0000   0.0000   0.0000   0.0000

          k = 0.0000-0.3536 0.3536 ( 29650 PWs)   bands (ev):

   -76.8944 -64.2932 -46.8903 -46.8897 -46.8881 -36.5094 -36.5091 -36.5088
   -32.0561 -18.8599 -18.7505 -18.7056 -18.6845 -18.6828 -18.6722 -14.2089
   -14.2080 -14.2071  -8.1760  -7.5167  -6.5435  -6.4974  -6.4473  -6.4309
    -5.0924  -4.4161  -4.3099  -4.2116  -4.2036  -4.1318  -3.9181  -3.8915
    -3.6885  -3.4743  -3.3987  -3.2479  -2.9739  -2.8609  -2.7278  -2.7146
    -2.4174  -2.3373  -1.2909  -1.2661  -1.2547   5.1202   5.2411   5.3123
     5.3139   5.3701   6.2158   6.3781   6.6363   6.9348

     occupation numbers 
     1.0000   1.0000   1.0000   1.0000   1.0000   1.0000   1.0000   1.0000
     1.0000   1.0000   1.0000   1.0000   1.0000   1.0000   1.0000   1.0000
     1.0000   1.0000   1.0000   1.0000   1.0000   1.0000   1.0000   1.0000
     1.0000   1.0000   1.0000   1.0000   1.0000   1.0000   1.0000   1.0000
     1.0000   1.0000   1.0000   1.0000   1.0000   1.0000   1.0000   1.0000
     1.0000   1.0000   1.0000   1.0000   1.0000   0.0000   0.0000   0.0000
     0.0000   0.0000   0.0000   0.0000   0.0000   0.0000

          k =-0.7071 0.0000 0.0000 ( 29554 PWs)   bands (ev):

   -76.8961 -64.2930 -46.8942 -46.8942 -46.8861 -36.5093 -36.5084 -36.5084
   -32.0562 -18.8480 -18.7301 -18.7070 -18.7058 -18.7058 -18.6619 -14.2079
   -14.2079 -14.2062  -8.1828  -7.4956  -6.5231  -6.4448  -6.4448  -6.3664
    -5.1105  -4.4933  -4.4004  -4.3033  -4.1366  -4.0455  -4.0455  -3.8188
    -3.8187  -3.5315  -3.5315  -3.1300  -3.1189  -3.1189  -2.5468  -2.4337
    -2.4337  -2.2296  -1.5283  -1.0978  -1.0978   4.9867   5.2472   5.3428
     5.8561   5.8561   6.3453   6.6248   6.6251   7.2719

     occupation numbers 
     1.0000   1.0000   1.0000   1.0000   1.0000   1.0000   1.0000   1.0000
     1.0000   1.0000   1.0000   1.0000   1.0000   1.0000   1.0000   1.0000
     1.0000   1.0000   1.0000   1.0000   1.0000   1.0000   1.0000   1.0000
     1.0000   1.0000   1.0000   1.0000   1.0000   1.0000   1.0000   1.0000
     1.0000   1.0000   1.0000   1.0000   1.0000   1.0000   1.0000   1.0000
     1.0000   1.0000   1.0000   1.0000   1.0000   0.0000   0.0000   0.0000
     0.0000   0.0000   0.0000   0.0000   0.0000   0.0000

          k =-0.7071 0.3536 0.0000 ( 29596 PWs)   bands (ev):

   -76.8931 -64.2934 -46.8890 -46.8873 -46.8871 -36.5093 -36.5093 -36.5091
   -32.0562 -18.8406 -18.7547 -18.7068 -18.7062 -18.6755 -18.6754 -14.2079
   -14.2071 -14.2070  -8.0654  -7.6598  -6.5352  -6.4653  -6.4106  -6.4039
    -4.9672  -4.4770  -4.4170  -4.3040  -4.1426  -4.0351  -4.0013  -3.8792
    -3.8149  -3.5309  -3.4695  -3.3127  -3.0598  -2.9112  -2.7761  -2.5678
    -2.2876  -2.2845  -1.2763  -1.2714  -1.0961   5.1468   5.2717   5.2726
     5.3589   5.8565   6.5985   6.6722   6.8199   6.8543

     occupation numbers 
     1.0000   1.0000   1.0000   1.0000   1.0000   1.0000   1.0000   1.0000
     1.0000   1.0000   1.0000   1.0000   1.0000   1.0000   1.0000   1.0000
     1.0000   1.0000   1.0000   1.0000   1.0000   1.0000   1.0000   1.0000
     1.0000   1.0000   1.0000   1.0000   1.0000   1.0000   1.0000   1.0000
     1.0000   1.0000   1.0000   1.0000   1.0000   1.0000   1.0000   1.0000
     1.0000   1.0000   1.0000   1.0000   1.0000   0.0000   0.0000   0.0000
     0.0000   0.0000   0.0000   0.0000   0.0000   0.0000

 ------ SPIN DOWN ----------


          k = 0.0000 0.0000 0.0000 ( 29627 PWs)   bands (ev):

   -73.5332 -67.2787 -43.1724 -43.1724 -43.1724 -39.7940 -39.7940 -39.7940
   -32.0569 -18.8411 -18.6305 -18.6305 -18.6305 -18.5855 -18.5855 -14.2107
   -14.2107 -14.2107  -8.5785  -6.5454  -6.5454  -6.5454  -6.5147  -6.5147
    -5.9614  -4.2674  -4.2674  -4.2674  -3.8785  -3.8785  -3.5343  -3.5343
    -3.5343  -2.9979  -2.9979  -2.9979  -2.8730  -2.8730  -2.8730  -2.4490
    -2.4490  -2.4490   0.6131   0.6131   0.6131   3.7450   3.7450   3.7450
     5.5622   6.3156   6.3157   6.3346   6.3346   6.3346

     occupation numbers 
     1.0000   1.0000   1.0000   1.0000   1.0000   1.0000   1.0000   1.0000
     1.0000   1.0000   1.0000   1.0000   1.0000   1.0000   1.0000   1.0000
     1.0000   1.0000   1.0000   1.0000   1.0000   1.0000   1.0000   1.0000
     1.0000   1.0000   1.0000   1.0000   1.0000   1.0000   1.0000   1.0000
     1.0000   1.0000   1.0000   1.0000   1.0000   1.0000   1.0000   1.0000
     1.0000   1.0000   1.0000   1.0000   1.0000   0.0000   0.0000   0.0000
     0.0000   0.0000   0.0000   0.0000   0.0000   0.0000

          k = 0.1768 0.1768-0.1768 ( 29651 PWs)   bands (ev):

   -73.5731 -67.1913 -43.2240 -43.2240 -43.2212 -39.6900 -39.6857 -39.6857
   -32.0569 -18.8192 -18.6602 -18.6264 -18.6264 -18.5947 -18.5947 -14.2102
   -14.2102 -14.2088  -8.4076  -7.1660  -6.5891  -6.5891  -6.4416  -6.4416
    -5.3868  -4.3342  -4.1904  -4.1904  -3.9535  -3.9535  -3.5917  -3.5917
    -3.5757  -3.2075  -3.2075  -3.0183  -2.9350  -2.8327  -2.8327  -2.5340
    -2.4016  -2.4016   1.0014   1.0124   1.0124   3.4594   3.5134   3.5134
     5.8737   6.2540   6.2544   6.5349   7.0058   7.0080

     occupation numbers 
     1.0000   1.0000   1.0000   1.0000   1.0000   1.0000   1.0000   1.0000
     1.0000   1.0000   1.0000   1.0000   1.0000   1.0000   1.0000   1.0000
     1.0000   1.0000   1.0000   1.0000   1.0000   1.0000   1.0000   1.0000
     1.0000   1.0000   1.0000   1.0000   1.0000   1.0000   1.0000   1.0000
     1.0000   1.0000   1.0000   1.0000   1.0000   1.0000   1.0000   1.0000
     1.0000   1.0000   1.0000   1.0000   1.0000   0.0000   0.0000   0.0000
     0.0000   0.0000   0.0000   0.0000   0.0000   0.0000

          k =-0.3536-0.3536 0.3536 ( 29580 PWs)   bands (ev):

   -73.5594 -67.2119 -43.2061 -43.2061 -43.2053 -39.7152 -39.7109 -39.7109
   -32.0570 -18.7808 -18.7013 -18.6120 -18.6120 -18.6098 -18.6098 -14.2096
   -14.2096 -14.2068  -7.9719  -7.8190  -6.5992  -6.5992  -6.3888  -6.3888
    -4.8840  -4.5431  -4.1383  -4.1383  -3.9266  -3.9266  -3.5932  -3.5932
    -3.5750  -3.5338  -3.5338  -3.1751  -2.8143  -2.7240  -2.7240  -2.6669
    -2.3944  -2.3944   1.2019   1.2193   1.2193   3.2174   3.3329   3.3329
     6.3285   6.5974   6.5977   6.7422   6.7472   6.8074

     occupation numbers 
     1.0000   1.0000   1.0000   1.0000   1.0000   1.0000   1.0000   1.0000
     1.0000   1.0000   1.0000   1.0000   1.0000   1.0000   1.0000   1.0000
     1.0000   1.0000   1.0000   1.0000   1.0000   1.0000   1.0000   1.0000
     1.0000   1.0000   1.0000   1.0000   1.0000   1.0000   1.0000   1.0000
     1.0000   1.0000   1.0000   1.0000   1.0000   1.0000   1.0000   1.0000
     1.0000   1.0000   1.0000   1.0000   1.0000   0.0000   0.0000   0.0000
     0.0000   0.0000   0.0000   0.0000   0.0000   0.0000

          k = 0.3536 0.0000 0.0000 ( 29706 PWs)   bands (ev):

   -73.5920 -67.1518 -43.2770 -43.2319 -43.2319 -39.6697 -39.6697 -39.5769
   -32.0570 -18.8144 -18.6497 -18.6349 -18.6349 -18.6079 -18.5888 -14.2097
   -14.2097 -14.2088  -8.3832  -7.2260  -6.5191  -6.5146  -6.5146  -6.4744
    -5.3487  -4.3016  -4.1760  -4.1760  -4.1158  -3.8806  -3.8154  -3.5158
    -3.5157  -3.2692  -3.2692  -3.0377  -2.9784  -2.9783  -2.5701  -2.4522
    -2.4220  -2.4219   0.6505   1.3680   1.3681   3.3728   3.3736   3.7448
     5.9506   6.1980   6.3477   6.6240   6.6276   6.8813

     occupation numbers 
     1.0000   1.0000   1.0000   1.0000   1.0000   1.0000   1.0000   1.0000
     1.0000   1.0000   1.0000   1.0000   1.0000   1.0000   1.0000   1.0000
     1.0000   1.0000   1.0000   1.0000   1.0000   1.0000   1.0000   1.0000
     1.0000   1.0000   1.0000   1.0000   1.0000   1.0000   1.0000   1.0000
     1.0000   1.0000   1.0000   1.0000   1.0000   1.0000   1.0000   1.0000
     1.0000   1.0000   1.0000   1.0000   1.0000   0.0000   0.0000   0.0000
     0.0000   0.0000   0.0000   0.0000   0.0000   0.0000

          k =-0.1768-0.5303 0.5303 ( 29607 PWs)   bands (ev):

   -73.5878 -67.1545 -43.2493 -43.2388 -43.2371 -39.6522 -39.6495 -39.6243
   -32.0570 -18.7802 -18.6867 -18.6289 -18.6271 -18.6174 -18.5954 -14.2091
   -14.2087 -14.2073  -8.1004  -7.6658  -6.5739  -6.5313  -6.4217  -6.4079
    -4.9780  -4.4417  -4.2625  -4.1020  -4.0579  -3.8921  -3.8651  -3.6293
    -3.4939  -3.4723  -3.4492  -3.1765  -2.9203  -2.8927  -2.6207  -2.5243
    -2.3419  -2.3074   1.0225   1.4567   1.4612   3.3206   3.3660   3.5023
     6.3484   6.3526   6.5134   6.6420   6.9294   7.0159

     occupation numbers 
     1.0000   1.0000   1.0000   1.0000   1.0000   1.0000   1.0000   1.0000
     1.0000   1.0000   1.0000   1.0000   1.0000   1.0000   1.0000   1.0000
     1.0000   1.0000   1.0000   1.0000   1.0000   1.0000   1.0000   1.0000
     1.0000   1.0000   1.0000   1.0000   1.0000   1.0000   1.0000   1.0000
     1.0000   1.0000   1.0000   1.0000   1.0000   1.0000   1.0000   1.0000
     1.0000   1.0000   1.0000   1.0000   1.0000   0.0000   0.0000   0.0000
     0.0000   0.0000   0.0000   0.0000   0.0000   0.0000

          k = 0.0000-0.3536 0.3536 ( 29650 PWs)   bands (ev):

   -73.6008 -67.1294 -43.2793 -43.2482 -43.2470 -39.6336 -39.6295 -39.5709
   -32.0570 -18.7908 -18.6835 -18.6389 -18.6129 -18.6105 -18.6014 -14.2096
   -14.2087 -14.2078  -8.1672  -7.5891  -6.6036  -6.5035  -6.4830  -6.3912
    -5.0374  -4.3749  -4.2989  -4.0958  -3.9835  -3.9698  -3.7900  -3.5918
    -3.5152  -3.4868  -3.2846  -3.2525  -2.9035  -2.7380  -2.7217  -2.6289
    -2.4079  -2.2976   1.2397   1.3625   1.3914   3.2818   3.3391   3.4080
     6.2285   6.3817   6.4650   6.6726   6.7930   7.0596

     occupation numbers 
     1.0000   1.0000   1.0000   1.0000   1.0000   1.0000   1.0000   1.0000
     1.0000   1.0000   1.0000   1.0000   1.0000   1.0000   1.0000   1.0000
     1.0000   1.0000   1.0000   1.0000   1.0000   1.0000   1.0000   1.0000
     1.0000   1.0000   1.0000   1.0000   1.0000   1.0000   1.0000   1.0000
     1.0000   1.0000   1.0000   1.0000   1.0000   1.0000   1.0000   1.0000
     1.0000   1.0000   1.0000   1.0000   1.0000   0.0000   0.0000   0.0000
     0.0000   0.0000   0.0000   0.0000   0.0000   0.0000

          k =-0.7071 0.0000 0.0000 ( 29554 PWs)   bands (ev):

   -73.5507 -67.2287 -43.2037 -43.1902 -43.1902 -39.7448 -39.7448 -39.7089
   -32.0570 -18.7756 -18.6601 -18.6364 -18.6344 -18.6344 -18.5869 -14.2086
   -14.2086 -14.2069  -8.1589  -7.5577  -6.5183  -6.4712  -6.4712  -6.3942
    -5.0761  -4.4243  -4.2306  -4.1271  -4.0366  -4.0365  -3.8769  -3.6107
    -3.6107  -3.4203  -3.4203  -3.0580  -3.0373  -3.0373  -2.4535  -2.4050
    -2.4047  -2.1916   0.6330   1.3580   1.3580   3.5869   3.5874   3.7548
     6.2208   6.2566   6.3958   6.7184   6.8600   7.2040

     occupation numbers 
     1.0000   1.0000   1.0000   1.0000   1.0000   1.0000   1.0000   1.0000
     1.0000   1.0000   1.0000   1.0000   1.0000   1.0000   1.0000   1.0000
     1.0000   1.0000   1.0000   1.0000   1.0000   1.0000   1.0000   1.0000
     1.0000   1.0000   1.0000   1.0000   1.0000   1.0000   1.0000   1.0000
     1.0000   1.0000   1.0000   1.0000   1.0000   1.0000   1.0000   1.0000
     1.0000   1.0000   1.0000   1.0000   1.0000   0.0000   0.0000   0.0000
     0.0000   0.0000   0.0000   0.0000   0.0000   0.0000

          k =-0.7071 0.3536 0.0000 ( 29596 PWs)   bands (ev):

   -73.6009 -67.1265 -43.2793 -43.2478 -43.2476 -39.6274 -39.6263 -39.5698
   -32.0570 -18.7697 -18.6892 -18.6382 -18.6376 -18.6041 -18.6040 -14.2086
   -14.2078 -14.2077  -8.0007  -7.7841  -6.5795  -6.4426  -6.4395  -6.4358
    -4.9284  -4.4332  -4.2699  -4.2537  -3.9705  -3.8896  -3.8630  -3.7515
    -3.6042  -3.4194  -3.3794  -3.2145  -2.9547  -2.8434  -2.7016  -2.5641
    -2.2554  -2.2463   1.3668   1.3921   1.3924   3.3705   3.3766   3.5732
     6.3469   6.3810   6.4999   6.6245   6.9161   6.9670

     occupation numbers 
     1.0000   1.0000   1.0000   1.0000   1.0000   1.0000   1.0000   1.0000
     1.0000   1.0000   1.0000   1.0000   1.0000   1.0000   1.0000   1.0000
     1.0000   1.0000   1.0000   1.0000   1.0000   1.0000   1.0000   1.0000
     1.0000   1.0000   1.0000   1.0000   1.0000   1.0000   1.0000   1.0000
     1.0000   1.0000   1.0000   1.0000   1.0000   1.0000   1.0000   1.0000
     1.0000   1.0000   1.0000   1.0000   1.0000   0.0000   0.0000   0.0000
     0.0000   0.0000   0.0000   0.0000   0.0000   0.0000

     the Fermi energy is     2.6059 ev

!    total energy              =    -576.24436367 Ry
     estimated scf accuracy    <       0.00000005 Ry
     smearing contrib. (-TS)   =      -0.00000000 Ry
     internal energy E=F+TS    =    -576.24436367 Ry

     total magnetization       =     0.00 Bohr mag/cell
     absolute magnetization    =     6.99 Bohr mag/cell

     convergence has been achieved in  12 iterations

     Using ACE for calculation of exact exchange
     ACE projected onto    54 (nbndproj) and applied to    54 (nbnd) bands

     total energy              =    -576.25549859 Ry
     Harris-Foulkes estimate   =    -576.25549864 Ry
     est. exchange err (dexx)  =       0.01113492 Ry
     - averaged Fock potential =      38.58651028 Ry
     + Fock energy (ACE)       =     -19.34506168 Ry

     EXX: now go back to refine exchange calculation

     total cpu time spent up to now is     1826.6 secs

     Self-consistent Calculation

     iteration #  1     ecut=    90.00 Ry     beta= 0.30
     Davidson diagonalization with overlap

---- Real-time Memory Report at c_bands before calling an iterative solver
          2458 MiB given to the printing process from OS
         -1844 MiB allocation reported by mallinfo(arena+hblkhd)
        264792 MiB available memory on the node where the printing process lives
------------------
     ethr =  2.69E-10,  avg # of iterations = 14.4

     total cpu time spent up to now is     1849.2 secs

     total energy              =    -576.25837109 Ry
     estimated scf accuracy    <       0.00150479 Ry

     total magnetization       =    -0.00 Bohr mag/cell
     absolute magnetization    =     7.18 Bohr mag/cell

     iteration #  2     ecut=    90.00 Ry     beta= 0.30
     Davidson diagonalization with overlap

---- Real-time Memory Report at c_bands before calling an iterative solver
          2458 MiB given to the printing process from OS
         -1827 MiB allocation reported by mallinfo(arena+hblkhd)
        263790 MiB available memory on the node where the printing process lives
------------------
     ethr =  1.67E-06,  avg # of iterations =  1.4

     total cpu time spent up to now is     1855.3 secs

     total energy              =    -576.25818350 Ry
     estimated scf accuracy    <       0.00079560 Ry

     total magnetization       =    -0.00 Bohr mag/cell
     absolute magnetization    =     7.18 Bohr mag/cell

     iteration #  3     ecut=    90.00 Ry     beta= 0.30
     Davidson diagonalization with overlap

---- Real-time Memory Report at c_bands before calling an iterative solver
          2458 MiB given to the printing process from OS
         -1825 MiB allocation reported by mallinfo(arena+hblkhd)
        263775 MiB available memory on the node where the printing process lives
------------------
     ethr =  8.84E-07,  avg # of iterations =  3.7

     total cpu time spent up to now is     1861.8 secs

     total energy              =    -576.25829425 Ry
     estimated scf accuracy    <       0.00003680 Ry

     total magnetization       =    -0.00 Bohr mag/cell
     absolute magnetization    =     7.18 Bohr mag/cell

     iteration #  4     ecut=    90.00 Ry     beta= 0.30
     Davidson diagonalization with overlap

---- Real-time Memory Report at c_bands before calling an iterative solver
          2458 MiB given to the printing process from OS
         -1823 MiB allocation reported by mallinfo(arena+hblkhd)
        263761 MiB available memory on the node where the printing process lives
------------------
     ethr =  4.09E-08,  avg # of iterations =  2.6

     total cpu time spent up to now is     1868.0 secs

     total energy              =    -576.25829434 Ry
     estimated scf accuracy    <       0.00001578 Ry

     total magnetization       =     0.00 Bohr mag/cell
     absolute magnetization    =     7.18 Bohr mag/cell

     iteration #  5     ecut=    90.00 Ry     beta= 0.30
     Davidson diagonalization with overlap

---- Real-time Memory Report at c_bands before calling an iterative solver
          2458 MiB given to the printing process from OS
         -1821 MiB allocation reported by mallinfo(arena+hblkhd)
        263747 MiB available memory on the node where the printing process lives
------------------
     ethr =  1.75E-08,  avg # of iterations =  2.5

     total cpu time spent up to now is     1874.3 secs

     total energy              =    -576.25829630 Ry
     estimated scf accuracy    <       0.00000130 Ry

     total magnetization       =    -0.00 Bohr mag/cell
     absolute magnetization    =     7.18 Bohr mag/cell

     iteration #  6     ecut=    90.00 Ry     beta= 0.30
     Davidson diagonalization with overlap

---- Real-time Memory Report at c_bands before calling an iterative solver
          2458 MiB given to the printing process from OS
         -1819 MiB allocation reported by mallinfo(arena+hblkhd)
        263732 MiB available memory on the node where the printing process lives
------------------
     ethr =  1.45E-09,  avg # of iterations =  4.4

     total cpu time spent up to now is     1881.5 secs

     total energy              =    -576.25829644 Ry
     estimated scf accuracy    <       0.00000040 Ry

     total magnetization       =     0.00 Bohr mag/cell
     absolute magnetization    =     7.18 Bohr mag/cell

     iteration #  7     ecut=    90.00 Ry     beta= 0.30
     Davidson diagonalization with overlap

---- Real-time Memory Report at c_bands before calling an iterative solver
          2458 MiB given to the printing process from OS
         -1818 MiB allocation reported by mallinfo(arena+hblkhd)
        263717 MiB available memory on the node where the printing process lives
------------------
     ethr =  4.41E-10,  avg # of iterations =  2.6

     Magnetic moment per site  (integrated on atomic sphere of radius R)
     atom   1 (R=0.208)  charge=  7.9772  magn= -0.0017
     atom   2 (R=0.115)  charge= 10.1189  magn= -1.9906
     atom   3 (R=0.112)  charge= 11.0411  magn=  2.3034
     atom   4 (R=0.064)  charge=  1.0109  magn= -0.0460
     atom   5 (R=0.064)  charge=  1.0109  magn= -0.0460
     atom   6 (R=0.064)  charge=  1.0109  magn= -0.0460
     atom   7 (R=0.064)  charge=  1.0109  magn= -0.0460
     atom   8 (R=0.064)  charge=  1.0109  magn= -0.0460
     atom   9 (R=0.064)  charge=  1.0109  magn= -0.0460
     atom  10 (R=0.064)  charge=  1.8195  magn=  0.0539
     atom  11 (R=0.064)  charge=  1.8195  magn=  0.0539
     atom  12 (R=0.064)  charge=  1.8195  magn=  0.0539
     atom  13 (R=0.064)  charge=  1.8195  magn=  0.0539
     atom  14 (R=0.064)  charge=  1.8195  magn=  0.0539
     atom  15 (R=0.064)  charge=  1.8195  magn=  0.0539

     total cpu time spent up to now is     1887.4 secs

     End of self-consistent calculation

 ------ SPIN UP ------------


          k = 0.0000 0.0000 0.0000 ( 29627 PWs)   bands (ev):

   -76.9672 -64.0446 -46.9873 -46.9873 -46.9873 -36.2607 -36.2607 -36.2606
   -32.0601 -18.9144 -18.7077 -18.7077 -18.7076 -18.6666 -18.6666 -14.2171
   -14.2171 -14.2171  -8.5564  -6.5190  -6.5189  -6.5189  -6.5092  -6.5092
    -5.9920  -4.4212  -4.4212  -4.4212  -4.1404  -4.1403  -3.5626  -3.5625
    -3.5625  -3.0732  -3.0732  -3.0732  -2.8998  -2.8998  -2.8998  -2.5422
    -2.5422  -2.5421  -1.7079  -1.7078  -1.7077   4.9487   4.9488   4.9488
     5.3046   5.3047   5.5391   6.4869   6.4869   6.4869

     occupation numbers 
     1.0000   1.0000   1.0000   1.0000   1.0000   1.0000   1.0000   1.0000
     1.0000   1.0000   1.0000   1.0000   1.0000   1.0000   1.0000   1.0000
     1.0000   1.0000   1.0000   1.0000   1.0000   1.0000   1.0000   1.0000
     1.0000   1.0000   1.0000   1.0000   1.0000   1.0000   1.0000   1.0000
     1.0000   1.0000   1.0000   1.0000   1.0000   1.0000   1.0000   1.0000
     1.0000   1.0000   1.0000   1.0000   1.0000   0.0000   0.0000   0.0000
     0.0000   0.0000   0.0000   0.0000   0.0000   0.0000

          k = 0.1768 0.1768-0.1768 ( 29651 PWs)   bands (ev):

   -76.9648 -64.0434 -46.9847 -46.9844 -46.9844 -36.2592 -36.2592 -36.2589
   -32.0601 -18.8919 -18.7339 -18.7026 -18.7026 -18.6735 -18.6735 -14.2165
   -14.2165 -14.2151  -8.3895  -7.1209  -6.5302  -6.5301  -6.4651  -6.4651
    -5.4246  -4.4207  -4.3280  -4.3280  -4.1586  -4.1585  -3.7349  -3.6895
    -3.6895  -3.2805  -3.2805  -3.0095  -2.9794  -2.9068  -2.9068  -2.6191
    -2.4533  -2.4533  -1.5902  -1.5657  -1.5656   5.0296   5.1122   5.1128
     5.3409   5.3412   5.8591   6.3481   6.5637   6.5769

     occupation numbers 
     1.0000   1.0000   1.0000   1.0000   1.0000   1.0000   1.0000   1.0000
     1.0000   1.0000   1.0000   1.0000   1.0000   1.0000   1.0000   1.0000
     1.0000   1.0000   1.0000   1.0000   1.0000   1.0000   1.0000   1.0000
     1.0000   1.0000   1.0000   1.0000   1.0000   1.0000   1.0000   1.0000
     1.0000   1.0000   1.0000   1.0000   1.0000   1.0000   1.0000   1.0000
     1.0000   1.0000   1.0000   1.0000   1.0000   0.0000   0.0000   0.0000
     0.0000   0.0000   0.0000   0.0000   0.0000   0.0000

          k =-0.3536-0.3536 0.3536 ( 29580 PWs)   bands (ev):

   -76.9614 -64.0444 -46.9813 -46.9798 -46.9798 -36.2606 -36.2606 -36.2600
   -32.0602 -18.8570 -18.7720 -18.6893 -18.6892 -18.6880 -18.6880 -14.2159
   -14.2159 -14.2132  -8.0560  -7.6704  -6.5268  -6.5267  -6.4333  -6.4333
    -4.9906  -4.4696  -4.2386  -4.2386  -4.0555  -4.0554  -3.9329  -3.9145
    -3.9144  -3.5004  -3.5004  -3.0502  -2.8978  -2.8562  -2.8562  -2.7441
    -2.4042  -2.4042  -1.4856  -1.4470  -1.4469   5.1356   5.3320   5.3321
     5.3976   5.3976   6.1038   6.3518   6.3538   6.4739

     occupation numbers 
     1.0000   1.0000   1.0000   1.0000   1.0000   1.0000   1.0000   1.0000
     1.0000   1.0000   1.0000   1.0000   1.0000   1.0000   1.0000   1.0000
     1.0000   1.0000   1.0000   1.0000   1.0000   1.0000   1.0000   1.0000
     1.0000   1.0000   1.0000   1.0000   1.0000   1.0000   1.0000   1.0000
     1.0000   1.0000   1.0000   1.0000   1.0000   1.0000   1.0000   1.0000
     1.0000   1.0000   1.0000   1.0000   1.0000   0.0000   0.0000   0.0000
     0.0000   0.0000   0.0000   0.0000   0.0000   0.0000

          k = 0.3536 0.0000 0.0000 ( 29706 PWs)   bands (ev):

   -76.9627 -64.0445 -46.9827 -46.9827 -46.9805 -36.2609 -36.2604 -36.2604
   -32.0601 -18.8862 -18.7231 -18.7093 -18.7093 -18.6844 -18.6669 -14.2160
   -14.2160 -14.2151  -8.3659  -7.1716  -6.5104  -6.4828  -6.4828  -6.4572
    -5.3908  -4.4445  -4.2783  -4.2783  -4.2323  -4.1363  -3.9418  -3.6657
    -3.6657  -3.3060  -3.3060  -3.1008  -3.0397  -3.0397  -2.6037  -2.5443
    -2.4772  -2.4772  -1.7055  -1.4623  -1.4621   4.9542   5.2678   5.2680
     5.3265   5.3371   5.9719   6.5389   6.5642   6.5646

     occupation numbers 
     1.0000   1.0000   1.0000   1.0000   1.0000   1.0000   1.0000   1.0000
     1.0000   1.0000   1.0000   1.0000   1.0000   1.0000   1.0000   1.0000
     1.0000   1.0000   1.0000   1.0000   1.0000   1.0000   1.0000   1.0000
     1.0000   1.0000   1.0000   1.0000   1.0000   1.0000   1.0000   1.0000
     1.0000   1.0000   1.0000   1.0000   1.0000   1.0000   1.0000   1.0000
     1.0000   1.0000   1.0000   1.0000   1.0000   0.0000   0.0000   0.0000
     0.0000   0.0000   0.0000   0.0000   0.0000   0.0000

          k =-0.1768-0.5303 0.5303 ( 29607 PWs)   bands (ev):

   -76.9622 -64.0437 -46.9821 -46.9817 -46.9803 -36.2598 -36.2595 -36.2592
   -32.0602 -18.8548 -18.7577 -18.7043 -18.7019 -18.6934 -18.6734 -14.2154
   -14.2150 -14.2136  -8.1281  -7.5694  -6.5197  -6.4811  -6.4384  -6.4080
    -5.0350  -4.4629  -4.3285  -4.2467  -4.1825  -4.0721  -4.0332  -3.8733
    -3.7842  -3.5076  -3.4479  -3.2290  -3.0143  -2.9706  -2.6996  -2.5662
    -2.3826  -2.3466  -1.5743  -1.3785  -1.3661   5.0770   5.3306   5.3722
     5.4907   5.5956   6.2924   6.5113   6.5270   6.7125

     occupation numbers 
     1.0000   1.0000   1.0000   1.0000   1.0000   1.0000   1.0000   1.0000
     1.0000   1.0000   1.0000   1.0000   1.0000   1.0000   1.0000   1.0000
     1.0000   1.0000   1.0000   1.0000   1.0000   1.0000   1.0000   1.0000
     1.0000   1.0000   1.0000   1.0000   1.0000   1.0000   1.0000   1.0000
     1.0000   1.0000   1.0000   1.0000   1.0000   1.0000   1.0000   1.0000
     1.0000   1.0000   1.0000   1.0000   1.0000   0.0000   0.0000   0.0000
     0.0000   0.0000   0.0000   0.0000   0.0000   0.0000

          k = 0.0000-0.3536 0.3536 ( 29650 PWs)   bands (ev):

   -76.9610 -64.0446 -46.9802 -46.9799 -46.9794 -36.2608 -36.2607 -36.2603
   -32.0602 -18.8636 -18.7551 -18.7102 -18.6895 -18.6878 -18.6771 -14.2159
   -14.2150 -14.2141  -8.1749  -7.5068  -6.5300  -6.4880  -6.4454  -6.4293
    -5.0967  -4.4183  -4.3119  -4.2159  -4.2004  -4.1398  -3.9389  -3.8904
    -3.7067  -3.4684  -3.3991  -3.2422  -2.9726  -2.8612  -2.7324  -2.7143
    -2.4225  -2.3468  -1.4783  -1.4581  -1.4482   5.1648   5.2909   5.3407
     5.3446   5.4019   6.2031   6.3703   6.6285   6.8339

     occupation numbers 
     1.0000   1.0000   1.0000   1.0000   1.0000   1.0000   1.0000   1.0000
     1.0000   1.0000   1.0000   1.0000   1.0000   1.0000   1.0000   1.0000
     1.0000   1.0000   1.0000   1.0000   1.0000   1.0000   1.0000   1.0000
     1.0000   1.0000   1.0000   1.0000   1.0000   1.0000   1.0000   1.0000
     1.0000   1.0000   1.0000   1.0000   1.0000   1.0000   1.0000   1.0000
     1.0000   1.0000   1.0000   1.0000   1.0000   0.0000   0.0000   0.0000
     0.0000   0.0000   0.0000   0.0000   0.0000   0.0000

          k =-0.7071 0.0000 0.0000 ( 29554 PWs)   bands (ev):

   -76.9628 -64.0451 -46.9829 -46.9829 -46.9802 -36.2615 -36.2611 -36.2610
   -32.0602 -18.8517 -18.7344 -18.7115 -18.7105 -18.7104 -18.6668 -14.2149
   -14.2149 -14.2132  -8.1807  -7.4845  -6.5113  -6.4433  -6.4432  -6.3645
    -5.1042  -4.4954  -4.3989  -4.3041  -4.1329  -4.0474  -4.0474  -3.8483
    -3.8483  -3.5183  -3.5183  -3.1271  -3.1175  -3.1175  -2.5459  -2.4451
    -2.4450  -2.2445  -1.7069  -1.2947  -1.2946   4.9695   5.2830   5.3654
     5.9620   5.9620   6.3582   6.6334   6.6337   6.8406

     occupation numbers 
     1.0000   1.0000   1.0000   1.0000   1.0000   1.0000   1.0000   1.0000
     1.0000   1.0000   1.0000   1.0000   1.0000   1.0000   1.0000   1.0000
     1.0000   1.0000   1.0000   1.0000   1.0000   1.0000   1.0000   1.0000
     1.0000   1.0000   1.0000   1.0000   1.0000   1.0000   1.0000   1.0000
     1.0000   1.0000   1.0000   1.0000   1.0000   1.0000   1.0000   1.0000
     1.0000   1.0000   1.0000   1.0000   1.0000   0.0000   0.0000   0.0000
     0.0000   0.0000   0.0000   0.0000   0.0000   0.0000

          k =-0.7071 0.3536 0.0000 ( 29596 PWs)   bands (ev):

   -76.9605 -64.0446 -46.9795 -46.9794 -46.9790 -36.2611 -36.2604 -36.2604
   -32.0602 -18.8444 -18.7591 -18.7115 -18.7110 -18.6804 -18.6803 -14.2149
   -14.2141 -14.2140  -8.0675  -7.6458  -6.5220  -6.4602  -6.4092  -6.4026
    -4.9668  -4.4775  -4.4172  -4.3068  -4.1423  -4.0341  -4.0115  -3.8917
    -3.8441  -3.5177  -3.4665  -3.3119  -3.0601  -2.9101  -2.7760  -2.5735
    -2.2994  -2.2977  -1.4660  -1.4606  -1.2933   5.1994   5.3052   5.3242
     5.3863   5.9627   6.5996   6.6620   6.7390   6.8789

     occupation numbers 
     1.0000   1.0000   1.0000   1.0000   1.0000   1.0000   1.0000   1.0000
     1.0000   1.0000   1.0000   1.0000   1.0000   1.0000   1.0000   1.0000
     1.0000   1.0000   1.0000   1.0000   1.0000   1.0000   1.0000   1.0000
     1.0000   1.0000   1.0000   1.0000   1.0000   1.0000   1.0000   1.0000
     1.0000   1.0000   1.0000   1.0000   1.0000   1.0000   1.0000   1.0000
     1.0000   1.0000   1.0000   1.0000   1.0000   0.0000   0.0000   0.0000
     0.0000   0.0000   0.0000   0.0000   0.0000   0.0000

 ------ SPIN DOWN ----------


          k = 0.0000 0.0000 0.0000 ( 29627 PWs)   bands (ev):

   -73.4158 -67.1101 -43.0469 -43.0469 -43.0469 -39.6401 -39.6401 -39.6399
   -32.0610 -18.8448 -18.6354 -18.6354 -18.6354 -18.5904 -18.5904 -14.2178
   -14.2178 -14.2178  -8.5848  -6.5578  -6.5578  -6.5578  -6.5026  -6.5026
    -5.9786  -4.2559  -4.2559  -4.2559  -3.8699  -3.8698  -3.5598  -3.5597
    -3.5597  -2.9963  -2.9962  -2.9962  -2.8820  -2.8819  -2.8819  -2.4477
    -2.4477  -2.4476   0.6220   0.6225   0.6226   3.8099   3.8101   3.8102
     5.5632   6.3435   6.3435   6.3436   6.4678   6.4679

     occupation numbers 
     1.0000   1.0000   1.0000   1.0000   1.0000   1.0000   1.0000   1.0000
     1.0000   1.0000   1.0000   1.0000   1.0000   1.0000   1.0000   1.0000
     1.0000   1.0000   1.0000   1.0000   1.0000   1.0000   1.0000   1.0000
     1.0000   1.0000   1.0000   1.0000   1.0000   1.0000   1.0000   1.0000
     1.0000   1.0000   1.0000   1.0000   1.0000   1.0000   1.0000   1.0000
     1.0000   1.0000   1.0000   1.0000   1.0000   0.0000   0.0000   0.0000
     0.0000   0.0000   0.0000   0.0000   0.0000   0.0000

          k = 0.1768 0.1768-0.1768 ( 29651 PWs)   bands (ev):

   -73.4291 -67.0608 -43.0644 -43.0644 -43.0633 -39.5826 -39.5794 -39.5794
   -32.0610 -18.8216 -18.6636 -18.6301 -18.6301 -18.5983 -18.5983 -14.2172
   -14.2172 -14.2158  -8.4126  -7.1742  -6.5851  -6.5851  -6.4443  -6.4443
    -5.4023  -4.3306  -4.1818  -4.1818  -3.9448  -3.9448  -3.6064  -3.6064
    -3.5877  -3.2007  -3.2007  -3.0255  -2.9311  -2.8312  -2.8312  -2.5304
    -2.4051  -2.4051   0.9168   0.9273   0.9273   3.5777   3.6372   3.6372
     5.8751   6.3756   6.3764   6.5403   7.1358   7.1391

     occupation numbers 
     1.0000   1.0000   1.0000   1.0000   1.0000   1.0000   1.0000   1.0000
     1.0000   1.0000   1.0000   1.0000   1.0000   1.0000   1.0000   1.0000
     1.0000   1.0000   1.0000   1.0000   1.0000   1.0000   1.0000   1.0000
     1.0000   1.0000   1.0000   1.0000   1.0000   1.0000   1.0000   1.0000
     1.0000   1.0000   1.0000   1.0000   1.0000   1.0000   1.0000   1.0000
     1.0000   1.0000   1.0000   1.0000   1.0000   0.0000   0.0000   0.0000
     0.0000   0.0000   0.0000   0.0000   0.0000   0.0000

          k =-0.3536-0.3536 0.3536 ( 29580 PWs)   bands (ev):

   -73.4235 -67.0822 -43.0569 -43.0569 -43.0565 -39.6072 -39.6055 -39.6055
   -32.0611 -18.7830 -18.7050 -18.6156 -18.6156 -18.6135 -18.6135 -14.2167
   -14.2167 -14.2139  -7.9841  -7.8170  -6.5903  -6.5903  -6.3949  -6.3949
    -4.8959  -4.5507  -4.1353  -4.1353  -3.9229  -3.9229  -3.5883  -3.5883
    -3.5708  -3.5297  -3.5296  -3.1875  -2.8099  -2.7222  -2.7221  -2.6642
    -2.4014  -2.4014   1.1008   1.1143   1.1147   3.3484   3.4671   3.4671
     6.3272   6.6939   6.6943   6.7976   6.9174   6.9197

     occupation numbers 
     1.0000   1.0000   1.0000   1.0000   1.0000   1.0000   1.0000   1.0000
     1.0000   1.0000   1.0000   1.0000   1.0000   1.0000   1.0000   1.0000
     1.0000   1.0000   1.0000   1.0000   1.0000   1.0000   1.0000   1.0000
     1.0000   1.0000   1.0000   1.0000   1.0000   1.0000   1.0000   1.0000
     1.0000   1.0000   1.0000   1.0000   1.0000   1.0000   1.0000   1.0000
     1.0000   1.0000   1.0000   1.0000   1.0000   0.0000   0.0000   0.0000
     0.0000   0.0000   0.0000   0.0000   0.0000   0.0000

          k = 0.3536 0.0000 0.0000 ( 29706 PWs)   bands (ev):

   -73.4400 -67.0288 -43.0894 -43.0722 -43.0722 -39.5609 -39.5609 -39.5027
   -32.0610 -18.8165 -18.6526 -18.6382 -18.6382 -18.6109 -18.5920 -14.2167
   -14.2167 -14.2159  -8.3883  -7.2292  -6.5265  -6.5264  -6.5072  -6.4705
    -5.3591  -4.2909  -4.1727  -4.1727  -4.1118  -3.8700  -3.8237  -3.5256
    -3.5255  -3.2609  -3.2608  -3.0308  -2.9777  -2.9777  -2.5763  -2.4503
    -2.4283  -2.4282   0.6501   1.2091   1.2092   3.5494   3.5498   3.8165
     5.9587   6.2412   6.4856   6.6371   6.7107   7.0710

     occupation numbers 
     1.0000   1.0000   1.0000   1.0000   1.0000   1.0000   1.0000   1.0000
     1.0000   1.0000   1.0000   1.0000   1.0000   1.0000   1.0000   1.0000
     1.0000   1.0000   1.0000   1.0000   1.0000   1.0000   1.0000   1.0000
     1.0000   1.0000   1.0000   1.0000   1.0000   1.0000   1.0000   1.0000
     1.0000   1.0000   1.0000   1.0000   1.0000   1.0000   1.0000   1.0000
     1.0000   1.0000   1.0000   1.0000   1.0000   0.0000   0.0000   0.0000
     0.0000   0.0000   0.0000   0.0000   0.0000   0.0000

          k =-0.1768-0.5303 0.5303 ( 29607 PWs)   bands (ev):

   -73.4332 -67.0448 -43.0716 -43.0687 -43.0678 -39.5658 -39.5637 -39.5531
   -32.0611 -18.7818 -18.6897 -18.6320 -18.6298 -18.6203 -18.5984 -14.2162
   -14.2157 -14.2143  -8.1056  -7.6670  -6.5660  -6.5304  -6.4272  -6.4160
    -4.9823  -4.4432  -4.2620  -4.1043  -4.0539  -3.8831  -3.8621  -3.6213
    -3.4895  -3.4640  -3.4412  -3.1711  -2.9168  -2.8869  -2.6184  -2.5334
    -2.3506  -2.3221   0.9305   1.2741   1.2791   3.5041   3.5560   3.6299
     6.3656   6.4964   6.6216   6.6658   7.0460   7.1048

     occupation numbers 
     1.0000   1.0000   1.0000   1.0000   1.0000   1.0000   1.0000   1.0000
     1.0000   1.0000   1.0000   1.0000   1.0000   1.0000   1.0000   1.0000
     1.0000   1.0000   1.0000   1.0000   1.0000   1.0000   1.0000   1.0000
     1.0000   1.0000   1.0000   1.0000   1.0000   1.0000   1.0000   1.0000
     1.0000   1.0000   1.0000   1.0000   1.0000   1.0000   1.0000   1.0000
     1.0000   1.0000   1.0000   1.0000   1.0000   0.0000   0.0000   0.0000
     0.0000   0.0000   0.0000   0.0000   0.0000   0.0000

          k = 0.0000-0.3536 0.3536 ( 29650 PWs)   bands (ev):

   -73.4427 -67.0193 -43.0900 -43.0775 -43.0770 -39.5457 -39.5437 -39.5002
   -32.0611 -18.7923 -18.6866 -18.6408 -18.6160 -18.6137 -18.6037 -14.2167
   -14.2158 -14.2148  -8.1725  -7.5923  -6.5951  -6.4971  -6.4930  -6.3975
    -5.0469  -4.3743  -4.3016  -4.0919  -3.9746  -3.9622  -3.7919  -3.5838
    -3.5157  -3.4889  -3.2737  -3.2460  -2.8991  -2.7350  -2.7261  -2.6229
    -2.4142  -2.3084   1.1356   1.2022   1.2246   3.4186   3.5135   3.5907
     6.2579   6.4759   6.5384   6.7096   6.9367   7.2138

     occupation numbers 
     1.0000   1.0000   1.0000   1.0000   1.0000   1.0000   1.0000   1.0000
     1.0000   1.0000   1.0000   1.0000   1.0000   1.0000   1.0000   1.0000
     1.0000   1.0000   1.0000   1.0000   1.0000   1.0000   1.0000   1.0000
     1.0000   1.0000   1.0000   1.0000   1.0000   1.0000   1.0000   1.0000
     1.0000   1.0000   1.0000   1.0000   1.0000   1.0000   1.0000   1.0000
     1.0000   1.0000   1.0000   1.0000   1.0000   0.0000   0.0000   0.0000
     0.0000   0.0000   0.0000   0.0000   0.0000   0.0000

          k =-0.7071 0.0000 0.0000 ( 29554 PWs)   bands (ev):

   -73.4212 -67.0873 -43.0563 -43.0527 -43.0527 -39.6180 -39.6179 -39.6012
   -32.0611 -18.7782 -18.6636 -18.6399 -18.6384 -18.6384 -18.5908 -14.2157
   -14.2157 -14.2139  -8.1647  -7.5573  -6.5057  -6.4828  -6.4827  -6.4053
    -5.0678  -4.4242  -4.2253  -4.1250  -4.0473  -4.0473  -3.8637  -3.6004
    -3.6004  -3.4081  -3.4081  -3.0538  -3.0363  -3.0363  -2.4517  -2.4227
    -2.4227  -2.2140   0.6331   1.2542   1.2544   3.7206   3.7207   3.8222
     6.2730   6.3929   6.5116   6.7351   6.7752   7.0541

     occupation numbers 
     1.0000   1.0000   1.0000   1.0000   1.0000   1.0000   1.0000   1.0000
     1.0000   1.0000   1.0000   1.0000   1.0000   1.0000   1.0000   1.0000
     1.0000   1.0000   1.0000   1.0000   1.0000   1.0000   1.0000   1.0000
     1.0000   1.0000   1.0000   1.0000   1.0000   1.0000   1.0000   1.0000
     1.0000   1.0000   1.0000   1.0000   1.0000   1.0000   1.0000   1.0000
     1.0000   1.0000   1.0000   1.0000   1.0000   0.0000   0.0000   0.0000
     0.0000   0.0000   0.0000   0.0000   0.0000   0.0000

          k =-0.7071 0.3536 0.0000 ( 29596 PWs)   bands (ev):

   -73.4427 -67.0171 -43.0899 -43.0774 -43.0773 -39.5414 -39.5406 -39.4995
   -32.0611 -18.7710 -18.6921 -18.6407 -18.6402 -18.6068 -18.6066 -14.2157
   -14.2148 -14.2147  -8.0077  -7.7837  -6.5686  -6.4536  -6.4469  -6.4394
    -4.9263  -4.4321  -4.2733  -4.2607  -3.9636  -3.8836  -3.8569  -3.7496
    -3.5945  -3.4067  -3.3684  -3.2050  -2.9523  -2.8388  -2.6988  -2.5696
    -2.2714  -2.2623   1.2045   1.2256   1.2840   3.5518   3.5542   3.7125
     6.4781   6.5109   6.5164   6.6427   7.0024   7.0992

     occupation numbers 
     1.0000   1.0000   1.0000   1.0000   1.0000   1.0000   1.0000   1.0000
     1.0000   1.0000   1.0000   1.0000   1.0000   1.0000   1.0000   1.0000
     1.0000   1.0000   1.0000   1.0000   1.0000   1.0000   1.0000   1.0000
     1.0000   1.0000   1.0000   1.0000   1.0000   1.0000   1.0000   1.0000
     1.0000   1.0000   1.0000   1.0000   1.0000   1.0000   1.0000   1.0000
     1.0000   1.0000   1.0000   1.0000   1.0000   0.0000   0.0000   0.0000
     0.0000   0.0000   0.0000   0.0000   0.0000   0.0000

     the Fermi energy is     2.5477 ev

!    total energy              =    -576.25829640 Ry
     estimated scf accuracy    <       0.00000012 Ry
     smearing contrib. (-TS)   =      -0.00000000 Ry
     internal energy E=F+TS    =    -576.25829640 Ry

     total magnetization       =     0.00 Bohr mag/cell
     absolute magnetization    =     7.18 Bohr mag/cell

     convergence has been achieved in   7 iterations

     Using ACE for calculation of exact exchange
     ACE projected onto    54 (nbndproj) and applied to    54 (nbnd) bands

     total energy              =    -576.25912717 Ry
     Harris-Foulkes estimate   =    -576.25912726 Ry
     est. exchange err (dexx)  =       0.00083077 Ry
     - averaged Fock potential =      38.71898656 Ry
     + Fock energy (ACE)       =     -19.37475565 Ry

     EXX: now go back to refine exchange calculation

     total cpu time spent up to now is     2643.6 secs

     Self-consistent Calculation

     iteration #  1     ecut=    90.00 Ry     beta= 0.30
     Davidson diagonalization with overlap

---- Real-time Memory Report at c_bands before calling an iterative solver
          2458 MiB given to the printing process from OS
         -1844 MiB allocation reported by mallinfo(arena+hblkhd)
        264801 MiB available memory on the node where the printing process lives
------------------
     ethr =  4.41E-10,  avg # of iterations = 12.0

     total cpu time spent up to now is     2659.2 secs

     total energy              =    -576.25939577 Ry
     estimated scf accuracy    <       0.00012624 Ry

     total magnetization       =    -0.00 Bohr mag/cell
     absolute magnetization    =     7.25 Bohr mag/cell

     iteration #  2     ecut=    90.00 Ry     beta= 0.30
     Davidson diagonalization with overlap

---- Real-time Memory Report at c_bands before calling an iterative solver
          2458 MiB given to the printing process from OS
         -1827 MiB allocation reported by mallinfo(arena+hblkhd)
        263791 MiB available memory on the node where the printing process lives
------------------
     ethr =  1.40E-07,  avg # of iterations =  1.0

     total cpu time spent up to now is     2665.0 secs

     total energy              =    -576.25937974 Ry
     estimated scf accuracy    <       0.00006419 Ry

     total magnetization       =    -0.00 Bohr mag/cell
     absolute magnetization    =     7.25 Bohr mag/cell

     iteration #  3     ecut=    90.00 Ry     beta= 0.30
     Davidson diagonalization with overlap

---- Real-time Memory Report at c_bands before calling an iterative solver
          2458 MiB given to the printing process from OS
         -1825 MiB allocation reported by mallinfo(arena+hblkhd)
        263777 MiB available memory on the node where the printing process lives
------------------
     ethr =  7.13E-08,  avg # of iterations =  2.5

     total cpu time spent up to now is     2671.1 secs

     total energy              =    -576.25938930 Ry
     estimated scf accuracy    <       0.00000256 Ry

     total magnetization       =    -0.00 Bohr mag/cell
     absolute magnetization    =     7.26 Bohr mag/cell

     iteration #  4     ecut=    90.00 Ry     beta= 0.30
     Davidson diagonalization with overlap

---- Real-time Memory Report at c_bands before calling an iterative solver
          2458 MiB given to the printing process from OS
         -1823 MiB allocation reported by mallinfo(arena+hblkhd)
        263762 MiB available memory on the node where the printing process lives
------------------
     ethr =  2.85E-09,  avg # of iterations =  3.8

     total cpu time spent up to now is     2677.7 secs

     total energy              =    -576.25938975 Ry
     estimated scf accuracy    <       0.00000045 Ry

     total magnetization       =     0.00 Bohr mag/cell
     absolute magnetization    =     7.26 Bohr mag/cell

     iteration #  5     ecut=    90.00 Ry     beta= 0.30
     Davidson diagonalization with overlap

---- Real-time Memory Report at c_bands before calling an iterative solver
          2458 MiB given to the printing process from OS
         -1821 MiB allocation reported by mallinfo(arena+hblkhd)
        263747 MiB available memory on the node where the printing process lives
------------------
     ethr =  5.00E-10,  avg # of iterations =  3.7

     Magnetic moment per site  (integrated on atomic sphere of radius R)
     atom   1 (R=0.208)  charge=  7.9772  magn= -0.0017
     atom   2 (R=0.115)  charge= 10.1235  magn= -2.0049
     atom   3 (R=0.112)  charge= 11.0424  magn=  2.3207
     atom   4 (R=0.064)  charge=  1.0112  magn= -0.0470
     atom   5 (R=0.064)  charge=  1.0112  magn= -0.0470
     atom   6 (R=0.064)  charge=  1.0112  magn= -0.0470
     atom   7 (R=0.064)  charge=  1.0112  magn= -0.0470
     atom   8 (R=0.064)  charge=  1.0112  magn= -0.0470
     atom   9 (R=0.064)  charge=  1.0112  magn= -0.0470
     atom  10 (R=0.064)  charge=  1.8194  magn=  0.0553
     atom  11 (R=0.064)  charge=  1.8194  magn=  0.0553
     atom  12 (R=0.064)  charge=  1.8194  magn=  0.0553
     atom  13 (R=0.064)  charge=  1.8194  magn=  0.0553
     atom  14 (R=0.064)  charge=  1.8194  magn=  0.0553
     atom  15 (R=0.064)  charge=  1.8194  magn=  0.0553

     total cpu time spent up to now is     2683.7 secs

     End of self-consistent calculation

 ------ SPIN UP ------------


          k = 0.0000 0.0000 0.0000 ( 29627 PWs)   bands (ev):

   -76.9772 -63.9700 -47.0036 -47.0036 -47.0036 -36.1875 -36.1874 -36.1874
   -32.0628 -18.9131 -18.7065 -18.7065 -18.7065 -18.6654 -18.6654 -14.2201
   -14.2201 -14.2201  -8.5529  -6.5183  -6.5182  -6.5182  -6.5050  -6.5050
    -5.9914  -4.4214  -4.4214  -4.4214  -4.1365  -4.1365  -3.5630  -3.5629
    -3.5629  -3.0717  -3.0716  -3.0716  -2.8986  -2.8986  -2.8986  -2.5408
    -2.5408  -2.5407  -1.7489  -1.7488  -1.7488   4.9407   4.9408   4.9408
     5.3084   5.3084   5.5377   6.4915   6.4915   6.4915

     occupation numbers 
     1.0000   1.0000   1.0000   1.0000   1.0000   1.0000   1.0000   1.0000
     1.0000   1.0000   1.0000   1.0000   1.0000   1.0000   1.0000   1.0000
     1.0000   1.0000   1.0000   1.0000   1.0000   1.0000   1.0000   1.0000
     1.0000   1.0000   1.0000   1.0000   1.0000   1.0000   1.0000   1.0000
     1.0000   1.0000   1.0000   1.0000   1.0000   1.0000   1.0000   1.0000
     1.0000   1.0000   1.0000   1.0000   1.0000   0.0000   0.0000   0.0000
     0.0000   0.0000   0.0000   0.0000   0.0000   0.0000

          k = 0.1768 0.1768-0.1768 ( 29651 PWs)   bands (ev):

   -76.9751 -63.9696 -47.0013 -47.0010 -47.0010 -36.1869 -36.1869 -36.1867
   -32.0629 -18.8905 -18.7326 -18.7013 -18.7013 -18.6722 -18.6722 -14.2195
   -14.2195 -14.2181  -8.3859  -7.1186  -6.5263  -6.5263  -6.4635  -6.4635
    -5.4247  -4.4202  -4.3283  -4.3283  -4.1553  -4.1553  -3.7365  -3.6893
    -3.6892  -3.2792  -3.2792  -3.0079  -2.9779  -2.9055  -2.9055  -2.6176
    -2.4524  -2.4524  -1.6318  -1.6073  -1.6073   5.0304   5.1109   5.1111
     5.3481   5.3482   5.8570   6.3499   6.5580   6.5635

     occupation numbers 
     1.0000   1.0000   1.0000   1.0000   1.0000   1.0000   1.0000   1.0000
     1.0000   1.0000   1.0000   1.0000   1.0000   1.0000   1.0000   1.0000
     1.0000   1.0000   1.0000   1.0000   1.0000   1.0000   1.0000   1.0000
     1.0000   1.0000   1.0000   1.0000   1.0000   1.0000   1.0000   1.0000
     1.0000   1.0000   1.0000   1.0000   1.0000   1.0000   1.0000   1.0000
     1.0000   1.0000   1.0000   1.0000   1.0000   0.0000   0.0000   0.0000
     0.0000   0.0000   0.0000   0.0000   0.0000   0.0000

          k =-0.3536-0.3536 0.3536 ( 29580 PWs)   bands (ev):

   -76.9722 -63.9699 -46.9986 -46.9971 -46.9971 -36.1874 -36.1873 -36.1869
   -32.0629 -18.8558 -18.7707 -18.6881 -18.6881 -18.6868 -18.6868 -14.2189
   -14.2189 -14.2162  -8.0533  -7.6674  -6.5223  -6.5223  -6.4327  -6.4327
    -4.9927  -4.4665  -4.2383  -4.2383  -4.0522  -4.0522  -3.9374  -3.9166
    -3.9166  -3.4975  -3.4975  -3.0482  -2.8963  -2.8556  -2.8556  -2.7424
    -2.4030  -2.4030  -1.5287  -1.4902  -1.4902   5.1486   5.3451   5.3451
     5.4093   5.4093   6.0987   6.3421   6.3429   6.4682

     occupation numbers 
     1.0000   1.0000   1.0000   1.0000   1.0000   1.0000   1.0000   1.0000
     1.0000   1.0000   1.0000   1.0000   1.0000   1.0000   1.0000   1.0000
     1.0000   1.0000   1.0000   1.0000   1.0000   1.0000   1.0000   1.0000
     1.0000   1.0000   1.0000   1.0000   1.0000   1.0000   1.0000   1.0000
     1.0000   1.0000   1.0000   1.0000   1.0000   1.0000   1.0000   1.0000
     1.0000   1.0000   1.0000   1.0000   1.0000   0.0000   0.0000   0.0000
     0.0000   0.0000   0.0000   0.0000   0.0000   0.0000

          k = 0.3536 0.0000 0.0000 ( 29706 PWs)   bands (ev):

   -76.9736 -63.9699 -47.0000 -47.0000 -46.9981 -36.1873 -36.1872 -36.1872
   -32.0629 -18.8849 -18.7220 -18.7081 -18.7081 -18.6833 -18.6657 -14.2190
   -14.2190 -14.2181  -8.3625  -7.1692  -6.5062  -6.4821  -6.4821  -6.4543
    -5.3906  -4.4445  -4.2785  -4.2785  -4.2299  -4.1327  -3.9402  -3.6673
    -3.6673  -3.3044  -3.3044  -3.0990  -3.0382  -3.0382  -2.6034  -2.5428
    -2.4770  -2.4770  -1.7473  -1.5053  -1.5052   4.9470   5.2708   5.2709
     5.3363   5.3399   5.9695   6.5197   6.5624   6.5626

     occupation numbers 
     1.0000   1.0000   1.0000   1.0000   1.0000   1.0000   1.0000   1.0000
     1.0000   1.0000   1.0000   1.0000   1.0000   1.0000   1.0000   1.0000
     1.0000   1.0000   1.0000   1.0000   1.0000   1.0000   1.0000   1.0000
     1.0000   1.0000   1.0000   1.0000   1.0000   1.0000   1.0000   1.0000
     1.0000   1.0000   1.0000   1.0000   1.0000   1.0000   1.0000   1.0000
     1.0000   1.0000   1.0000   1.0000   1.0000   0.0000   0.0000   0.0000
     0.0000   0.0000   0.0000   0.0000   0.0000   0.0000

          k =-0.1768-0.5303 0.5303 ( 29607 PWs)   bands (ev):

   -76.9728 -63.9697 -46.9991 -46.9987 -46.9973 -36.1870 -36.1870 -36.1868
   -32.0629 -18.8535 -18.7564 -18.7030 -18.7008 -18.6921 -18.6721 -14.2184
   -14.2180 -14.2166  -8.1247  -7.5663  -6.5153  -6.4783  -6.4375  -6.4072
    -5.0348  -4.4613  -4.3264  -4.2448  -4.1814  -4.0694  -4.0336  -3.8754
    -3.7865  -3.5052  -3.4461  -3.2276  -3.0132  -2.9692  -2.6983  -2.5663
    -2.3823  -2.3471  -1.6164  -1.4208  -1.4087   5.0809   5.3416   5.3791
     5.5013   5.6108   6.2879   6.4907   6.5255   6.6899

     occupation numbers 
     1.0000   1.0000   1.0000   1.0000   1.0000   1.0000   1.0000   1.0000
     1.0000   1.0000   1.0000   1.0000   1.0000   1.0000   1.0000   1.0000
     1.0000   1.0000   1.0000   1.0000   1.0000   1.0000   1.0000   1.0000
     1.0000   1.0000   1.0000   1.0000   1.0000   1.0000   1.0000   1.0000
     1.0000   1.0000   1.0000   1.0000   1.0000   1.0000   1.0000   1.0000
     1.0000   1.0000   1.0000   1.0000   1.0000   0.0000   0.0000   0.0000
     0.0000   0.0000   0.0000   0.0000   0.0000   0.0000

          k = 0.0000-0.3536 0.3536 ( 29650 PWs)   bands (ev):

   -76.9720 -63.9699 -46.9978 -46.9977 -46.9969 -36.1873 -36.1873 -36.1869
   -32.0629 -18.8624 -18.7539 -18.7091 -18.6884 -18.6866 -18.6760 -14.2189
   -14.2180 -14.2171  -8.1718  -7.5042  -6.5256  -6.4845  -6.4450  -6.4287
    -5.0975  -4.4174  -4.3101  -4.2155  -4.1973  -4.1398  -3.9422  -3.8874
    -3.7092  -3.4661  -3.3984  -3.2401  -2.9711  -2.8604  -2.7315  -2.7130
    -2.4214  -2.3474  -1.5217  -1.5018  -1.4908   5.1737   5.3011   5.3470
     5.3479   5.4087   6.1977   6.3661   6.6224   6.7624

     occupation numbers 
     1.0000   1.0000   1.0000   1.0000   1.0000   1.0000   1.0000   1.0000
     1.0000   1.0000   1.0000   1.0000   1.0000   1.0000   1.0000   1.0000
     1.0000   1.0000   1.0000   1.0000   1.0000   1.0000   1.0000   1.0000
     1.0000   1.0000   1.0000   1.0000   1.0000   1.0000   1.0000   1.0000
     1.0000   1.0000   1.0000   1.0000   1.0000   1.0000   1.0000   1.0000
     1.0000   1.0000   1.0000   1.0000   1.0000   0.0000   0.0000   0.0000
     0.0000   0.0000   0.0000   0.0000   0.0000   0.0000

          k =-0.7071 0.0000 0.0000 ( 29554 PWs)   bands (ev):

   -76.9730 -63.9702 -46.9994 -46.9994 -46.9968 -36.1875 -36.1875 -36.1875
   -32.0630 -18.8505 -18.7333 -18.7105 -18.7094 -18.7094 -18.6657 -14.2179
   -14.2179 -14.2162  -8.1772  -7.4819  -6.5071  -6.4429  -6.4428  -6.3647
    -5.1012  -4.4950  -4.3955  -4.3025  -4.1290  -4.0463  -4.0463  -3.8524
    -3.8524  -3.5158  -3.5157  -3.1256  -3.1164  -3.1164  -2.5446  -2.4458
    -2.4458  -2.2467  -1.7480  -1.3367  -1.3366   4.9616   5.2944   5.3684
     5.9883   5.9884   6.3623   6.6319   6.6322   6.8395

     occupation numbers 
     1.0000   1.0000   1.0000   1.0000   1.0000   1.0000   1.0000   1.0000
     1.0000   1.0000   1.0000   1.0000   1.0000   1.0000   1.0000   1.0000
     1.0000   1.0000   1.0000   1.0000   1.0000   1.0000   1.0000   1.0000
     1.0000   1.0000   1.0000   1.0000   1.0000   1.0000   1.0000   1.0000
     1.0000   1.0000   1.0000   1.0000   1.0000   1.0000   1.0000   1.0000
     1.0000   1.0000   1.0000   1.0000   1.0000   0.0000   0.0000   0.0000
     0.0000   0.0000   0.0000   0.0000   0.0000   0.0000

          k =-0.7071 0.3536 0.0000 ( 29596 PWs)   bands (ev):

   -76.9716 -63.9699 -46.9973 -46.9968 -46.9966 -36.1874 -36.1871 -36.1871
   -32.0630 -18.8433 -18.7578 -18.7104 -18.7098 -18.6792 -18.6792 -14.2179
   -14.2171 -14.2170  -8.0641  -7.6430  -6.5175  -6.4584  -6.4088  -6.4022
    -4.9664  -4.4764  -4.4141  -4.3056  -4.1405  -4.0312  -4.0125  -3.8926
    -3.8480  -3.5151  -3.4654  -3.3111  -3.0596  -2.9087  -2.7748  -2.5725
    -2.3004  -2.2992  -1.5099  -1.5034  -1.3357   5.2105   5.3148   5.3356
     5.3933   5.9891   6.5990   6.6557   6.6798   6.8835

     occupation numbers 
     1.0000   1.0000   1.0000   1.0000   1.0000   1.0000   1.0000   1.0000
     1.0000   1.0000   1.0000   1.0000   1.0000   1.0000   1.0000   1.0000
     1.0000   1.0000   1.0000   1.0000   1.0000   1.0000   1.0000   1.0000
     1.0000   1.0000   1.0000   1.0000   1.0000   1.0000   1.0000   1.0000
     1.0000   1.0000   1.0000   1.0000   1.0000   1.0000   1.0000   1.0000
     1.0000   1.0000   1.0000   1.0000   1.0000   0.0000   0.0000   0.0000
     0.0000   0.0000   0.0000   0.0000   0.0000   0.0000

 ------ SPIN DOWN ----------


          k = 0.0000 0.0000 0.0000 ( 29627 PWs)   bands (ev):

   -73.3774 -67.0593 -43.0078 -43.0078 -43.0078 -39.5939 -39.5938 -39.5937
   -32.0637 -18.8416 -18.6324 -18.6324 -18.6324 -18.5874 -18.5874 -14.2208
   -14.2208 -14.2208  -8.5847  -6.5590  -6.5590  -6.5590  -6.4978  -6.4978
    -5.9798  -4.2510  -4.2510  -4.2510  -3.8649  -3.8649  -3.5638  -3.5638
    -3.5637  -2.9933  -2.9933  -2.9933  -2.8817  -2.8817  -2.8817  -2.4445
    -2.4445  -2.4445   0.6333   0.6335   0.6336   3.8247   3.8249   3.8249
     5.5618   6.3457   6.3458   6.3458   6.4747   6.4749

     occupation numbers 
     1.0000   1.0000   1.0000   1.0000   1.0000   1.0000   1.0000   1.0000
     1.0000   1.0000   1.0000   1.0000   1.0000   1.0000   1.0000   1.0000
     1.0000   1.0000   1.0000   1.0000   1.0000   1.0000   1.0000   1.0000
     1.0000   1.0000   1.0000   1.0000   1.0000   1.0000   1.0000   1.0000
     1.0000   1.0000   1.0000   1.0000   1.0000   1.0000   1.0000   1.0000
     1.0000   1.0000   1.0000   1.0000   1.0000   0.0000   0.0000   0.0000
     0.0000   0.0000   0.0000   0.0000   0.0000   0.0000

          k = 0.1768 0.1768-0.1768 ( 29651 PWs)   bands (ev):

   -73.3851 -67.0219 -43.0180 -43.0180 -43.0172 -39.5503 -39.5478 -39.5478
   -32.0638 -18.8184 -18.6606 -18.6271 -18.6271 -18.5952 -18.5952 -14.2202
   -14.2202 -14.2188  -8.4116  -7.1738  -6.5824  -6.5824  -6.4420  -6.4420
    -5.4032  -4.3275  -4.1773  -4.1773  -3.9398  -3.9398  -3.6074  -3.6074
    -3.5887  -3.1969  -3.1969  -3.0249  -2.9279  -2.8287  -2.8287  -2.5271
    -2.4037  -2.4037   0.9014   0.9126   0.9126   3.6010   3.6616   3.6616
     5.8739   6.4039   6.4046   6.5397   7.1362   7.1404

     occupation numbers 
     1.0000   1.0000   1.0000   1.0000   1.0000   1.0000   1.0000   1.0000
     1.0000   1.0000   1.0000   1.0000   1.0000   1.0000   1.0000   1.0000
     1.0000   1.0000   1.0000   1.0000   1.0000   1.0000   1.0000   1.0000
     1.0000   1.0000   1.0000   1.0000   1.0000   1.0000   1.0000   1.0000
     1.0000   1.0000   1.0000   1.0000   1.0000   1.0000   1.0000   1.0000
     1.0000   1.0000   1.0000   1.0000   1.0000   0.0000   0.0000   0.0000
     0.0000   0.0000   0.0000   0.0000   0.0000   0.0000

          k =-0.3536-0.3536 0.3536 ( 29580 PWs)   bands (ev):

   -73.3838 -67.0321 -43.0163 -43.0162 -43.0158 -39.5619 -39.5601 -39.5601
   -32.0638 -18.7798 -18.7022 -18.6126 -18.6126 -18.6106 -18.6106 -14.2197
   -14.2197 -14.2169  -7.9872  -7.8144  -6.5874  -6.5874  -6.3946  -6.3946
    -4.8964  -4.5515  -4.1330  -4.1330  -3.9198  -3.9198  -3.5850  -3.5849
    -3.5694  -3.5272  -3.5272  -3.1878  -2.8067  -2.7192  -2.7192  -2.6613
    -2.4013  -2.4013   1.1058   1.1197   1.1200   3.3677   3.4867   3.4867
     6.3243   6.7229   6.7234   6.7994   6.9334   6.9345

     occupation numbers 
     1.0000   1.0000   1.0000   1.0000   1.0000   1.0000   1.0000   1.0000
     1.0000   1.0000   1.0000   1.0000   1.0000   1.0000   1.0000   1.0000
     1.0000   1.0000   1.0000   1.0000   1.0000   1.0000   1.0000   1.0000
     1.0000   1.0000   1.0000   1.0000   1.0000   1.0000   1.0000   1.0000
     1.0000   1.0000   1.0000   1.0000   1.0000   1.0000   1.0000   1.0000
     1.0000   1.0000   1.0000   1.0000   1.0000   0.0000   0.0000   0.0000
     0.0000   0.0000   0.0000   0.0000   0.0000   0.0000

          k = 0.3536 0.0000 0.0000 ( 29706 PWs)   bands (ev):

   -73.3899 -67.0016 -43.0297 -43.0210 -43.0210 -39.5376 -39.5375 -39.4974
   -32.0638 -18.8129 -18.6492 -18.6349 -18.6349 -18.6075 -18.5886 -14.2197
   -14.2197 -14.2189  -8.3864  -7.2261  -6.5266  -6.5266  -6.5016  -6.4661
    -5.3581  -4.2862  -4.1691  -4.1691  -4.1082  -3.8634  -3.8215  -3.5254
    -3.5254  -3.2555  -3.2554  -3.0264  -2.9751  -2.9750  -2.5754  -2.4471
    -2.4273  -2.4273   0.6552   1.1418   1.1420   3.5974   3.5976   3.8326
     5.9597   6.2540   6.4907   6.6385   6.7406   7.1164

     occupation numbers 
     1.0000   1.0000   1.0000   1.0000   1.0000   1.0000   1.0000   1.0000
     1.0000   1.0000   1.0000   1.0000   1.0000   1.0000   1.0000   1.0000
     1.0000   1.0000   1.0000   1.0000   1.0000   1.0000   1.0000   1.0000
     1.0000   1.0000   1.0000   1.0000   1.0000   1.0000   1.0000   1.0000
     1.0000   1.0000   1.0000   1.0000   1.0000   1.0000   1.0000   1.0000
     1.0000   1.0000   1.0000   1.0000   1.0000   0.0000   0.0000   0.0000
     0.0000   0.0000   0.0000   0.0000   0.0000   0.0000

          k =-0.1768-0.5303 0.5303 ( 29607 PWs)   bands (ev):

   -73.3880 -67.0081 -43.0232 -43.0210 -43.0205 -39.5359 -39.5343 -39.5252
   -32.0639 -18.7784 -18.6867 -18.6290 -18.6267 -18.6172 -18.5953 -14.2192
   -14.2187 -14.2173  -8.1052  -7.6647  -6.5624  -6.5284  -6.4258  -6.4157
    -4.9804  -4.4418  -4.2601  -4.1030  -4.0501  -3.8777  -3.8587  -3.6165
    -3.4861  -3.4604  -3.4375  -3.1676  -2.9139  -2.8834  -2.6157  -2.5336
    -2.3507  -2.3239   0.9153   1.2447   1.2499   3.5384   3.5913   3.6549
     6.3650   6.5340   6.6464   6.6740   7.0072   7.0739

     occupation numbers 
     1.0000   1.0000   1.0000   1.0000   1.0000   1.0000   1.0000   1.0000
     1.0000   1.0000   1.0000   1.0000   1.0000   1.0000   1.0000   1.0000
     1.0000   1.0000   1.0000   1.0000   1.0000   1.0000   1.0000   1.0000
     1.0000   1.0000   1.0000   1.0000   1.0000   1.0000   1.0000   1.0000
     1.0000   1.0000   1.0000   1.0000   1.0000   1.0000   1.0000   1.0000
     1.0000   1.0000   1.0000   1.0000   1.0000   0.0000   0.0000   0.0000
     0.0000   0.0000   0.0000   0.0000   0.0000   0.0000

          k = 0.0000-0.3536 0.3536 ( 29650 PWs)   bands (ev):

   -73.3921 -66.9924 -43.0303 -43.0253 -43.0249 -39.5227 -39.5210 -39.4950
   -32.0638 -18.7886 -18.6835 -18.6371 -18.6129 -18.6106 -18.6002 -14.2197
   -14.2188 -14.2178  -8.1708  -7.5904  -6.5913  -6.4944  -6.4900  -6.3958
    -5.0459  -4.3717  -4.2999  -4.0887  -3.9693  -3.9576  -3.7885  -3.5801
    -3.5133  -3.4865  -3.2679  -3.2412  -2.8956  -2.7317  -2.7250  -2.6188
    -2.4139  -2.3084   1.1281   1.1410   1.1562   3.4413   3.5610   3.6399
     6.2575   6.5027   6.5517   6.7232   6.9410   7.2467

     occupation numbers 
     1.0000   1.0000   1.0000   1.0000   1.0000   1.0000   1.0000   1.0000
     1.0000   1.0000   1.0000   1.0000   1.0000   1.0000   1.0000   1.0000
     1.0000   1.0000   1.0000   1.0000   1.0000   1.0000   1.0000   1.0000
     1.0000   1.0000   1.0000   1.0000   1.0000   1.0000   1.0000   1.0000
     1.0000   1.0000   1.0000   1.0000   1.0000   1.0000   1.0000   1.0000
     1.0000   1.0000   1.0000   1.0000   1.0000   0.0000   0.0000   0.0000
     0.0000   0.0000   0.0000   0.0000   0.0000   0.0000

          k =-0.7071 0.0000 0.0000 ( 29554 PWs)   bands (ev):

   -73.3817 -67.0371 -43.0157 -43.0123 -43.0123 -39.5721 -39.5721 -39.5563
   -32.0639 -18.7751 -18.6607 -18.6370 -18.6356 -18.6356 -18.5879 -14.2187
   -14.2187 -14.2169  -8.1653  -7.5553  -6.5008  -6.4844  -6.4844  -6.4070
    -5.0635  -4.4232  -4.2222  -4.1214  -4.0487  -4.0487  -3.8577  -3.5937
    -3.5937  -3.4052  -3.4052  -3.0509  -3.0338  -3.0338  -2.4486  -2.4252
    -2.4252  -2.2177   0.6446   1.2585   1.2587   3.7415   3.7415   3.8372
     6.2772   6.4398   6.5454   6.7386   6.7709   7.1057

     occupation numbers 
     1.0000   1.0000   1.0000   1.0000   1.0000   1.0000   1.0000   1.0000
     1.0000   1.0000   1.0000   1.0000   1.0000   1.0000   1.0000   1.0000
     1.0000   1.0000   1.0000   1.0000   1.0000   1.0000   1.0000   1.0000
     1.0000   1.0000   1.0000   1.0000   1.0000   1.0000   1.0000   1.0000
     1.0000   1.0000   1.0000   1.0000   1.0000   1.0000   1.0000   1.0000
     1.0000   1.0000   1.0000   1.0000   1.0000   0.0000   0.0000   0.0000
     0.0000   0.0000   0.0000   0.0000   0.0000   0.0000

          k =-0.7071 0.3536 0.0000 ( 29596 PWs)   bands (ev):

   -73.3921 -66.9903 -43.0302 -43.0252 -43.0251 -39.5187 -39.5181 -39.4943
   -32.0639 -18.7673 -18.6889 -18.6375 -18.6369 -18.6034 -18.6032 -14.2187
   -14.2178 -14.2177  -8.0069  -7.7799  -6.5630  -6.4541  -6.4475  -6.4359
    -4.9227  -4.4296  -4.2722  -4.2589  -3.9580  -3.8783  -3.8529  -3.7469
    -3.5883  -3.4036  -3.3623  -3.1995  -2.9488  -2.8350  -2.6956  -2.5685
    -2.2733  -2.2642   1.1382   1.1572   1.2802   3.6012   3.6025   3.7368
     6.5119   6.5122   6.5525   6.6472   6.9604   7.1047

     occupation numbers 
     1.0000   1.0000   1.0000   1.0000   1.0000   1.0000   1.0000   1.0000
     1.0000   1.0000   1.0000   1.0000   1.0000   1.0000   1.0000   1.0000
     1.0000   1.0000   1.0000   1.0000   1.0000   1.0000   1.0000   1.0000
     1.0000   1.0000   1.0000   1.0000   1.0000   1.0000   1.0000   1.0000
     1.0000   1.0000   1.0000   1.0000   1.0000   1.0000   1.0000   1.0000
     1.0000   1.0000   1.0000   1.0000   1.0000   0.0000   0.0000   0.0000
     0.0000   0.0000   0.0000   0.0000   0.0000   0.0000

     the Fermi energy is     2.5779 ev

!    total energy              =    -576.25938978 Ry
     estimated scf accuracy    <       0.00000009 Ry
     smearing contrib. (-TS)   =      -0.00000000 Ry
     internal energy E=F+TS    =    -576.25938978 Ry

     total magnetization       =    -0.00 Bohr mag/cell
     absolute magnetization    =     7.26 Bohr mag/cell

     convergence has been achieved in   5 iterations

     Using ACE for calculation of exact exchange
     ACE projected onto    54 (nbndproj) and applied to    54 (nbnd) bands

     total energy              =    -576.25947737 Ry
     Harris-Foulkes estimate   =    -576.25947742 Ry
     est. exchange err (dexx)  =       0.00008759 Ry
     - averaged Fock potential =      38.75838910 Ry
     + Fock energy (ACE)       =     -19.38372103 Ry

     EXX: now go back to refine exchange calculation

     total cpu time spent up to now is     3443.7 secs

     Self-consistent Calculation

     iteration #  1     ecut=    90.00 Ry     beta= 0.30
     Davidson diagonalization with overlap

---- Real-time Memory Report at c_bands before calling an iterative solver
          2458 MiB given to the printing process from OS
         -1844 MiB allocation reported by mallinfo(arena+hblkhd)
        264789 MiB available memory on the node where the printing process lives
------------------
     ethr =  5.00E-10,  avg # of iterations =  9.8

     total cpu time spent up to now is     3456.5 secs

     total energy              =    -576.25950879 Ry
     estimated scf accuracy    <       0.00001335 Ry

     total magnetization       =     0.00 Bohr mag/cell
     absolute magnetization    =     7.29 Bohr mag/cell

     iteration #  2     ecut=    90.00 Ry     beta= 0.30
     Davidson diagonalization with overlap

---- Real-time Memory Report at c_bands before calling an iterative solver
          2458 MiB given to the printing process from OS
         -1827 MiB allocation reported by mallinfo(arena+hblkhd)
        263790 MiB available memory on the node where the printing process lives
------------------
     ethr =  1.48E-08,  avg # of iterations =  1.0

     total cpu time spent up to now is     3462.7 secs

     total energy              =    -576.25950733 Ry
     estimated scf accuracy    <       0.00000681 Ry

     total magnetization       =     0.00 Bohr mag/cell
     absolute magnetization    =     7.29 Bohr mag/cell

     iteration #  3     ecut=    90.00 Ry     beta= 0.30
     Davidson diagonalization with overlap

---- Real-time Memory Report at c_bands before calling an iterative solver
          2458 MiB given to the printing process from OS
         -1825 MiB allocation reported by mallinfo(arena+hblkhd)
        263775 MiB available memory on the node where the printing process lives
------------------
     ethr =  7.57E-09,  avg # of iterations =  2.9

     total cpu time spent up to now is     3469.3 secs

     total energy              =    -576.25950850 Ry
     estimated scf accuracy    <       0.00000023 Ry

     total magnetization       =     0.00 Bohr mag/cell
     absolute magnetization    =     7.29 Bohr mag/cell

     iteration #  4     ecut=    90.00 Ry     beta= 0.30
     Davidson diagonalization with overlap

---- Real-time Memory Report at c_bands before calling an iterative solver
          2458 MiB given to the printing process from OS
         -1823 MiB allocation reported by mallinfo(arena+hblkhd)
        263760 MiB available memory on the node where the printing process lives
------------------
     ethr =  2.55E-10,  avg # of iterations =  4.3

     Magnetic moment per site  (integrated on atomic sphere of radius R)
     atom   1 (R=0.208)  charge=  7.9772  magn= -0.0017
     atom   2 (R=0.115)  charge= 10.1251  magn= -2.0099
     atom   3 (R=0.112)  charge= 11.0428  magn=  2.3260
     atom   4 (R=0.064)  charge=  1.0113  magn= -0.0475
     atom   5 (R=0.064)  charge=  1.0113  magn= -0.0475
     atom   6 (R=0.064)  charge=  1.0113  magn= -0.0475
     atom   7 (R=0.064)  charge=  1.0113  magn= -0.0475
     atom   8 (R=0.064)  charge=  1.0113  magn= -0.0475
     atom   9 (R=0.064)  charge=  1.0113  magn= -0.0475
     atom  10 (R=0.064)  charge=  1.8195  magn=  0.0560
     atom  11 (R=0.064)  charge=  1.8195  magn=  0.0560
     atom  12 (R=0.064)  charge=  1.8195  magn=  0.0560
     atom  13 (R=0.064)  charge=  1.8195  magn=  0.0560
     atom  14 (R=0.064)  charge=  1.8195  magn=  0.0560
     atom  15 (R=0.064)  charge=  1.8195  magn=  0.0560

     total cpu time spent up to now is     3476.4 secs

     End of self-consistent calculation

 ------ SPIN UP ------------


          k = 0.0000 0.0000 0.0000 ( 29627 PWs)   bands (ev):

   -76.9810 -63.9467 -47.0091 -47.0091 -47.0091 -36.1644 -36.1644 -36.1644
   -32.0640 -18.9128 -18.7063 -18.7063 -18.7063 -18.6652 -18.6652 -14.2212
   -14.2212 -14.2212  -8.5517  -6.5184  -6.5183  -6.5183  -6.5039  -6.5039
    -5.9912  -4.4216  -4.4216  -4.4216  -4.1353  -4.1353  -3.5630  -3.5630
    -3.5630  -3.0715  -3.0715  -3.0715  -2.8983  -2.8983  -2.8983  -2.5406
    -2.5406  -2.5406  -1.7606  -1.7606  -1.7606   4.9402   4.9402   4.9402
     5.3084   5.3084   5.5372   6.4929   6.4929   6.4929

     occupation numbers 
     1.0000   1.0000   1.0000   1.0000   1.0000   1.0000   1.0000   1.0000
     1.0000   1.0000   1.0000   1.0000   1.0000   1.0000   1.0000   1.0000
     1.0000   1.0000   1.0000   1.0000   1.0000   1.0000   1.0000   1.0000
     1.0000   1.0000   1.0000   1.0000   1.0000   1.0000   1.0000   1.0000
     1.0000   1.0000   1.0000   1.0000   1.0000   1.0000   1.0000   1.0000
     1.0000   1.0000   1.0000   1.0000   1.0000   0.0000   0.0000   0.0000
     0.0000   0.0000   0.0000   0.0000   0.0000   0.0000

          k = 0.1768 0.1768-0.1768 ( 29651 PWs)   bands (ev):

   -76.9788 -63.9465 -47.0068 -47.0063 -47.0063 -36.1643 -36.1643 -36.1641
   -32.0640 -18.8903 -18.7323 -18.7010 -18.7010 -18.6720 -18.6720 -14.2206
   -14.2206 -14.2192  -8.3847  -7.1181  -6.5253  -6.5253  -6.4633  -6.4633
    -5.4249  -4.4200  -4.3284  -4.3284  -4.1544  -4.1544  -3.7369  -3.6890
    -3.6890  -3.2791  -3.2791  -3.0078  -2.9774  -2.9054  -2.9054  -2.6174
    -2.4522  -2.4522  -1.6435  -1.6188  -1.6188   5.0321   5.1117   5.1117
     5.3492   5.3493   5.8564   6.3504   6.5548   6.5570

     occupation numbers 
     1.0000   1.0000   1.0000   1.0000   1.0000   1.0000   1.0000   1.0000
     1.0000   1.0000   1.0000   1.0000   1.0000   1.0000   1.0000   1.0000
     1.0000   1.0000   1.0000   1.0000   1.0000   1.0000   1.0000   1.0000
     1.0000   1.0000   1.0000   1.0000   1.0000   1.0000   1.0000   1.0000
     1.0000   1.0000   1.0000   1.0000   1.0000   1.0000   1.0000   1.0000
     1.0000   1.0000   1.0000   1.0000   1.0000   0.0000   0.0000   0.0000
     0.0000   0.0000   0.0000   0.0000   0.0000   0.0000

          k =-0.3536-0.3536 0.3536 ( 29580 PWs)   bands (ev):

   -76.9762 -63.9465 -47.0044 -47.0029 -47.0029 -36.1644 -36.1644 -36.1639
   -32.0640 -18.8556 -18.7705 -18.6879 -18.6879 -18.6865 -18.6865 -14.2200
   -14.2200 -14.2173  -8.0520  -7.6669  -6.5210  -6.5210  -6.4330  -6.4330
    -4.9939  -4.4653  -4.2383  -4.2383  -4.0511  -4.0511  -3.9386  -3.9172
    -3.9172  -3.4968  -3.4967  -3.0476  -2.8963  -2.8560  -2.8560  -2.7421
    -2.4025  -2.4025  -1.5410  -1.5026  -1.5026   5.1536   5.3497   5.3497
     5.4123   5.4124   6.0971   6.3380   6.3383   6.4664

     occupation numbers 
     1.0000   1.0000   1.0000   1.0000   1.0000   1.0000   1.0000   1.0000
     1.0000   1.0000   1.0000   1.0000   1.0000   1.0000   1.0000   1.0000
     1.0000   1.0000   1.0000   1.0000   1.0000   1.0000   1.0000   1.0000
     1.0000   1.0000   1.0000   1.0000   1.0000   1.0000   1.0000   1.0000
     1.0000   1.0000   1.0000   1.0000   1.0000   1.0000   1.0000   1.0000
     1.0000   1.0000   1.0000   1.0000   1.0000   0.0000   0.0000   0.0000
     0.0000   0.0000   0.0000   0.0000   0.0000   0.0000

          k = 0.3536 0.0000 0.0000 ( 29706 PWs)   bands (ev):

   -76.9779 -63.9466 -47.0061 -47.0061 -47.0043 -36.1643 -36.1643 -36.1643
   -32.0640 -18.8846 -18.7218 -18.7078 -18.7078 -18.6831 -18.6655 -14.2201
   -14.2201 -14.2192  -8.3612  -7.1686  -6.5050  -6.4822  -6.4822  -6.4536
    -5.3906  -4.4446  -4.2785  -4.2785  -4.2293  -4.1316  -3.9396  -3.6676
    -3.6676  -3.3043  -3.3043  -3.0987  -3.0380  -3.0380  -2.6033  -2.5426
    -2.4770  -2.4770  -1.7597  -1.5180  -1.5179   4.9465   5.2724   5.2724
     5.3382   5.3396   5.9686   6.5105   6.5610   6.5611

     occupation numbers 
     1.0000   1.0000   1.0000   1.0000   1.0000   1.0000   1.0000   1.0000
     1.0000   1.0000   1.0000   1.0000   1.0000   1.0000   1.0000   1.0000
     1.0000   1.0000   1.0000   1.0000   1.0000   1.0000   1.0000   1.0000
     1.0000   1.0000   1.0000   1.0000   1.0000   1.0000   1.0000   1.0000
     1.0000   1.0000   1.0000   1.0000   1.0000   1.0000   1.0000   1.0000
     1.0000   1.0000   1.0000   1.0000   1.0000   0.0000   0.0000   0.0000
     0.0000   0.0000   0.0000   0.0000   0.0000   0.0000

          k =-0.1768-0.5303 0.5303 ( 29607 PWs)   bands (ev):

   -76.9766 -63.9466 -47.0046 -47.0042 -47.0029 -36.1643 -36.1643 -36.1641
   -32.0641 -18.8533 -18.7561 -18.7027 -18.7005 -18.6919 -18.6719 -14.2195
   -14.2191 -14.2177  -8.1233  -7.5657  -6.5140  -6.4776  -6.4376  -6.4073
    -5.0350  -4.4608  -4.3258  -4.2440  -4.1811  -4.0684  -4.0337  -3.8758
    -3.7868  -3.5049  -3.4460  -3.2275  -3.0132  -2.9691  -2.6982  -2.5664
    -2.3822  -2.3472  -1.6281  -1.4325  -1.4204   5.0832   5.3439   5.3801
     5.5050   5.6161   6.2855   6.4805   6.5248   6.6791

     occupation numbers 
     1.0000   1.0000   1.0000   1.0000   1.0000   1.0000   1.0000   1.0000
     1.0000   1.0000   1.0000   1.0000   1.0000   1.0000   1.0000   1.0000
     1.0000   1.0000   1.0000   1.0000   1.0000   1.0000   1.0000   1.0000
     1.0000   1.0000   1.0000   1.0000   1.0000   1.0000   1.0000   1.0000
     1.0000   1.0000   1.0000   1.0000   1.0000   1.0000   1.0000   1.0000
     1.0000   1.0000   1.0000   1.0000   1.0000   0.0000   0.0000   0.0000
     0.0000   0.0000   0.0000   0.0000   0.0000   0.0000

          k = 0.0000-0.3536 0.3536 ( 29650 PWs)   bands (ev):

   -76.9764 -63.9466 -47.0040 -47.0038 -47.0030 -36.1644 -36.1643 -36.1641
   -32.0640 -18.8622 -18.7536 -18.7089 -18.6882 -18.6863 -18.6757 -14.2200
   -14.2191 -14.2182  -8.1704  -7.5036  -6.5243  -6.4837  -6.4452  -6.4289
    -5.0981  -4.4172  -4.3095  -4.2154  -4.1963  -4.1399  -3.9431  -3.8862
    -3.7097  -3.4657  -3.3985  -3.2398  -2.9709  -2.8606  -2.7312  -2.7129
    -2.4209  -2.3477  -1.5346  -1.5146  -1.5032   5.1770   5.3055   5.3471
     5.3489   5.4101   6.1955   6.3647   6.6194   6.7293

     occupation numbers 
     1.0000   1.0000   1.0000   1.0000   1.0000   1.0000   1.0000   1.0000
     1.0000   1.0000   1.0000   1.0000   1.0000   1.0000   1.0000   1.0000
     1.0000   1.0000   1.0000   1.0000   1.0000   1.0000   1.0000   1.0000
     1.0000   1.0000   1.0000   1.0000   1.0000   1.0000   1.0000   1.0000
     1.0000   1.0000   1.0000   1.0000   1.0000   1.0000   1.0000   1.0000
     1.0000   1.0000   1.0000   1.0000   1.0000   0.0000   0.0000   0.0000
     0.0000   0.0000   0.0000   0.0000   0.0000   0.0000

          k =-0.7071 0.0000 0.0000 ( 29554 PWs)   bands (ev):

   -76.9767 -63.9468 -47.0049 -47.0049 -47.0023 -36.1645 -36.1645 -36.1644
   -32.0641 -18.8504 -18.7331 -18.7104 -18.7092 -18.7092 -18.6655 -14.2190
   -14.2190 -14.2173  -8.1758  -7.4814  -6.5060  -6.4431  -6.4431  -6.3651
    -5.1005  -4.4949  -4.3944  -4.3019  -4.1279  -4.0459  -4.0459  -3.8532
    -3.8532  -3.5157  -3.5157  -3.1255  -3.1165  -3.1165  -2.5445  -2.4460
    -2.4460  -2.2474  -1.7598  -1.3484  -1.3484   4.9611   5.2967   5.3682
     5.9974   5.9974   6.3632   6.6285   6.6288   6.8395

     occupation numbers 
     1.0000   1.0000   1.0000   1.0000   1.0000   1.0000   1.0000   1.0000
     1.0000   1.0000   1.0000   1.0000   1.0000   1.0000   1.0000   1.0000
     1.0000   1.0000   1.0000   1.0000   1.0000   1.0000   1.0000   1.0000
     1.0000   1.0000   1.0000   1.0000   1.0000   1.0000   1.0000   1.0000
     1.0000   1.0000   1.0000   1.0000   1.0000   1.0000   1.0000   1.0000
     1.0000   1.0000   1.0000   1.0000   1.0000   0.0000   0.0000   0.0000
     0.0000   0.0000   0.0000   0.0000   0.0000   0.0000

          k =-0.7071 0.3536 0.0000 ( 29596 PWs)   bands (ev):

   -76.9758 -63.9466 -47.0035 -47.0027 -47.0026 -36.1643 -36.1643 -36.1643
   -32.0641 -18.8431 -18.7576 -18.7101 -18.7096 -18.6790 -18.6790 -14.2190
   -14.2182 -14.2181  -8.0626  -7.6426  -6.5162  -6.4582  -6.4090  -6.4024
    -4.9665  -4.4760  -4.4130  -4.3051  -4.1401  -4.0300  -4.0127  -3.8927
    -3.8487  -3.5149  -3.4654  -3.3112  -3.0598  -2.9085  -2.7746  -2.5721
    -2.3008  -2.2996  -1.5228  -1.5160  -1.3478   5.2143   5.3165   5.3398
     5.3943   5.9981   6.5986   6.6489   6.6533   6.8845

     occupation numbers 
     1.0000   1.0000   1.0000   1.0000   1.0000   1.0000   1.0000   1.0000
     1.0000   1.0000   1.0000   1.0000   1.0000   1.0000   1.0000   1.0000
     1.0000   1.0000   1.0000   1.0000   1.0000   1.0000   1.0000   1.0000
     1.0000   1.0000   1.0000   1.0000   1.0000   1.0000   1.0000   1.0000
     1.0000   1.0000   1.0000   1.0000   1.0000   1.0000   1.0000   1.0000
     1.0000   1.0000   1.0000   1.0000   1.0000   0.0000   0.0000   0.0000
     0.0000   0.0000   0.0000   0.0000   0.0000   0.0000

 ------ SPIN DOWN ----------


          k = 0.0000 0.0000 0.0000 ( 29627 PWs)   bands (ev):

   -73.3666 -67.0429 -42.9968 -42.9968 -42.9968 -39.5785 -39.5785 -39.5785
   -32.0648 -18.8399 -18.6307 -18.6307 -18.6307 -18.5857 -18.5857 -14.2219
   -14.2219 -14.2219  -8.5848  -6.5593  -6.5593  -6.5593  -6.4962  -6.4962
    -5.9800  -4.2492  -4.2492  -4.2491  -3.8632  -3.8632  -3.5650  -3.5650
    -3.5650  -2.9917  -2.9917  -2.9917  -2.8811  -2.8811  -2.8811  -2.4427
    -2.4427  -2.4427   0.6391   0.6392   0.6392   3.8297   3.8298   3.8298
     5.5613   6.3459   6.3459   6.3459   6.4601   6.4602

     occupation numbers 
     1.0000   1.0000   1.0000   1.0000   1.0000   1.0000   1.0000   1.0000
     1.0000   1.0000   1.0000   1.0000   1.0000   1.0000   1.0000   1.0000
     1.0000   1.0000   1.0000   1.0000   1.0000   1.0000   1.0000   1.0000
     1.0000   1.0000   1.0000   1.0000   1.0000   1.0000   1.0000   1.0000
     1.0000   1.0000   1.0000   1.0000   1.0000   1.0000   1.0000   1.0000
     1.0000   1.0000   1.0000   1.0000   1.0000   0.0000   0.0000   0.0000
     0.0000   0.0000   0.0000   0.0000   0.0000   0.0000

          k = 0.1768 0.1768-0.1768 ( 29651 PWs)   bands (ev):

   -73.3731 -67.0104 -43.0055 -43.0055 -43.0048 -39.5405 -39.5384 -39.5384
   -32.0649 -18.8166 -18.6589 -18.6253 -18.6253 -18.5935 -18.5935 -14.2214
   -14.2214 -14.2199  -8.4111  -7.1733  -6.5814  -6.5814  -6.4409  -6.4409
    -5.4029  -4.3262  -4.1755  -4.1755  -3.9382  -3.9382  -3.6074  -3.6074
    -3.5887  -3.1951  -3.1951  -3.0242  -2.9261  -2.8272  -2.8272  -2.5252
    -2.4025  -2.4025   0.8985   0.9098   0.9098   3.6067   3.6675   3.6675
     5.8735   6.4088   6.4093   6.5389   7.0963   7.1012

     occupation numbers 
     1.0000   1.0000   1.0000   1.0000   1.0000   1.0000   1.0000   1.0000
     1.0000   1.0000   1.0000   1.0000   1.0000   1.0000   1.0000   1.0000
     1.0000   1.0000   1.0000   1.0000   1.0000   1.0000   1.0000   1.0000
     1.0000   1.0000   1.0000   1.0000   1.0000   1.0000   1.0000   1.0000
     1.0000   1.0000   1.0000   1.0000   1.0000   1.0000   1.0000   1.0000
     1.0000   1.0000   1.0000   1.0000   1.0000   0.0000   0.0000   0.0000
     0.0000   0.0000   0.0000   0.0000   0.0000   0.0000

          k =-0.3536-0.3536 0.3536 ( 29580 PWs)   bands (ev):

   -73.3726 -67.0156 -43.0048 -43.0048 -43.0043 -39.5465 -39.5446 -39.5445
   -32.0650 -18.7781 -18.7007 -18.6110 -18.6110 -18.6089 -18.6089 -14.2208
   -14.2208 -14.2180  -7.9886  -7.8135  -6.5866  -6.5866  -6.3942  -6.3942
    -4.8961  -4.5519  -4.1322  -4.1322  -3.9186  -3.9186  -3.5835  -3.5835
    -3.5689  -3.5263  -3.5263  -3.1876  -2.8050  -2.7175  -2.7175  -2.6597
    -2.4009  -2.4009   1.1110   1.1258   1.1259   3.3722   3.4914   3.4914
     6.3231   6.7309   6.7313   6.8001   6.9162   6.9168

     occupation numbers 
     1.0000   1.0000   1.0000   1.0000   1.0000   1.0000   1.0000   1.0000
     1.0000   1.0000   1.0000   1.0000   1.0000   1.0000   1.0000   1.0000
     1.0000   1.0000   1.0000   1.0000   1.0000   1.0000   1.0000   1.0000
     1.0000   1.0000   1.0000   1.0000   1.0000   1.0000   1.0000   1.0000
     1.0000   1.0000   1.0000   1.0000   1.0000   1.0000   1.0000   1.0000
     1.0000   1.0000   1.0000   1.0000   1.0000   0.0000   0.0000   0.0000
     0.0000   0.0000   0.0000   0.0000   0.0000   0.0000

          k = 0.3536 0.0000 0.0000 ( 29706 PWs)   bands (ev):

   -73.3758 -66.9963 -43.0133 -43.0065 -43.0065 -39.5329 -39.5329 -39.5008
   -32.0649 -18.8110 -18.6473 -18.6331 -18.6331 -18.6056 -18.5868 -14.2208
   -14.2208 -14.2200  -8.3854  -7.2244  -6.5262  -6.5261  -6.4995  -6.4642
    -5.3572  -4.2844  -4.1673  -4.1673  -4.1068  -3.8610  -3.8203  -3.5249
    -3.5249  -3.2529  -3.2529  -3.0241  -2.9735  -2.9735  -2.5745  -2.4452
    -2.4262  -2.4262   0.6573   1.1163   1.1165   3.6102   3.6102   3.8374
     5.9600   6.2582   6.4774   6.6382   6.7497   7.1280

     occupation numbers 
     1.0000   1.0000   1.0000   1.0000   1.0000   1.0000   1.0000   1.0000
     1.0000   1.0000   1.0000   1.0000   1.0000   1.0000   1.0000   1.0000
     1.0000   1.0000   1.0000   1.0000   1.0000   1.0000   1.0000   1.0000
     1.0000   1.0000   1.0000   1.0000   1.0000   1.0000   1.0000   1.0000
     1.0000   1.0000   1.0000   1.0000   1.0000   1.0000   1.0000   1.0000
     1.0000   1.0000   1.0000   1.0000   1.0000   0.0000   0.0000   0.0000
     0.0000   0.0000   0.0000   0.0000   0.0000   0.0000

          k =-0.1768-0.5303 0.5303 ( 29607 PWs)   bands (ev):

   -73.3758 -66.9969 -43.0103 -43.0083 -43.0078 -39.5266 -39.5252 -39.5163
   -32.0650 -18.7766 -18.6850 -18.6272 -18.6250 -18.6154 -18.5936 -14.2203
   -14.2198 -14.2184  -8.1051  -7.6636  -6.5612  -6.5276  -6.4249  -6.4152
    -4.9792  -4.4411  -4.2594  -4.1023  -4.0487  -3.8758  -3.8574  -3.6143
    -3.4845  -3.4591  -3.4360  -3.1659  -2.9123  -2.8815  -2.6141  -2.5330
    -2.3500  -2.3238   0.9123   1.2391   1.2444   3.5466   3.5998   3.6611
     6.3640   6.5423   6.6491   6.6783   6.9481   7.0196

     occupation numbers 
     1.0000   1.0000   1.0000   1.0000   1.0000   1.0000   1.0000   1.0000
     1.0000   1.0000   1.0000   1.0000   1.0000   1.0000   1.0000   1.0000
     1.0000   1.0000   1.0000   1.0000   1.0000   1.0000   1.0000   1.0000
     1.0000   1.0000   1.0000   1.0000   1.0000   1.0000   1.0000   1.0000
     1.0000   1.0000   1.0000   1.0000   1.0000   1.0000   1.0000   1.0000
     1.0000   1.0000   1.0000   1.0000   1.0000   0.0000   0.0000   0.0000
     0.0000   0.0000   0.0000   0.0000   0.0000   0.0000

          k = 0.0000-0.3536 0.3536 ( 29650 PWs)   bands (ev):

   -73.3779 -66.9871 -43.0138 -43.0105 -43.0101 -39.5181 -39.5164 -39.4983
   -32.0650 -18.7867 -18.6818 -18.6351 -18.6112 -18.6089 -18.5983 -14.2208
   -14.2199 -14.2189  -8.1698  -7.5894  -6.5900  -6.4930  -6.4883  -6.3945
    -5.0448  -4.3705  -4.2990  -4.0874  -3.9675  -3.9556  -3.7869  -3.5786
    -3.5121  -3.4853  -3.2653  -3.2388  -2.8938  -2.7297  -2.7241  -2.6166
    -2.4134  -2.3076   1.1086   1.1303   1.1361   3.4473   3.5736   3.6529
     6.2563   6.5098   6.5461   6.7268   6.9199   7.2476

     occupation numbers 
     1.0000   1.0000   1.0000   1.0000   1.0000   1.0000   1.0000   1.0000
     1.0000   1.0000   1.0000   1.0000   1.0000   1.0000   1.0000   1.0000
     1.0000   1.0000   1.0000   1.0000   1.0000   1.0000   1.0000   1.0000
     1.0000   1.0000   1.0000   1.0000   1.0000   1.0000   1.0000   1.0000
     1.0000   1.0000   1.0000   1.0000   1.0000   1.0000   1.0000   1.0000
     1.0000   1.0000   1.0000   1.0000   1.0000   0.0000   0.0000   0.0000
     0.0000   0.0000   0.0000   0.0000   0.0000   0.0000

          k =-0.7071 0.0000 0.0000 ( 29554 PWs)   bands (ev):

   -73.3706 -67.0207 -43.0042 -43.0009 -43.0009 -39.5567 -39.5567 -39.5409
   -32.0650 -18.7734 -18.6591 -18.6354 -18.6339 -18.6339 -18.5863 -14.2198
   -14.2198 -14.2180  -8.1657  -7.5547  -6.4993  -6.4848  -6.4848  -6.4076
    -5.0620  -4.4228  -4.2210  -4.1202  -4.0491  -4.0491  -3.8559  -3.5908
    -3.5908  -3.4045  -3.4045  -3.0494  -3.0323  -3.0323  -2.4469  -2.4255
    -2.4255  -2.2185   0.6505   1.2643   1.2643   3.7468   3.7468   3.8423
     6.2781   6.4530   6.5559   6.7391   6.7691   7.1208

     occupation numbers 
     1.0000   1.0000   1.0000   1.0000   1.0000   1.0000   1.0000   1.0000
     1.0000   1.0000   1.0000   1.0000   1.0000   1.0000   1.0000   1.0000
     1.0000   1.0000   1.0000   1.0000   1.0000   1.0000   1.0000   1.0000
     1.0000   1.0000   1.0000   1.0000   1.0000   1.0000   1.0000   1.0000
     1.0000   1.0000   1.0000   1.0000   1.0000   1.0000   1.0000   1.0000
     1.0000   1.0000   1.0000   1.0000   1.0000   0.0000   0.0000   0.0000
     0.0000   0.0000   0.0000   0.0000   0.0000   0.0000

          k =-0.7071 0.3536 0.0000 ( 29596 PWs)   bands (ev):

   -73.3779 -66.9850 -43.0137 -43.0104 -43.0103 -39.5141 -39.5136 -39.4976
   -32.0650 -18.7653 -18.6871 -18.6357 -18.6352 -18.6016 -18.6013 -14.2198
   -14.2189 -14.2188  -8.0066  -7.7777  -6.5608  -6.4537  -6.4471  -6.4341
    -4.9210  -4.4284  -4.2714  -4.2581  -3.9559  -3.8763  -3.8510  -3.7456
    -3.5855  -3.4026  -3.3596  -3.1971  -2.9468  -2.8330  -2.6939  -2.5675
    -2.2733  -2.2642   1.1129   1.1311   1.2810   3.6145   3.6153   3.7434
     6.5116   6.5176   6.5621   6.6483   6.8999   7.0819

     occupation numbers 
     1.0000   1.0000   1.0000   1.0000   1.0000   1.0000   1.0000   1.0000
     1.0000   1.0000   1.0000   1.0000   1.0000   1.0000   1.0000   1.0000
     1.0000   1.0000   1.0000   1.0000   1.0000   1.0000   1.0000   1.0000
     1.0000   1.0000   1.0000   1.0000   1.0000   1.0000   1.0000   1.0000
     1.0000   1.0000   1.0000   1.0000   1.0000   1.0000   1.0000   1.0000
     1.0000   1.0000   1.0000   1.0000   1.0000   0.0000   0.0000   0.0000
     0.0000   0.0000   0.0000   0.0000   0.0000   0.0000

     the Fermi energy is     2.5785 ev

!    total energy              =    -576.25950855 Ry
     estimated scf accuracy    <       0.00000006 Ry
     smearing contrib. (-TS)   =      -0.00000000 Ry
     internal energy E=F+TS    =    -576.25950855 Ry

     total magnetization       =     0.00 Bohr mag/cell
     absolute magnetization    =     7.29 Bohr mag/cell

     convergence has been achieved in   4 iterations

     Using ACE for calculation of exact exchange
     ACE projected onto    54 (nbndproj) and applied to    54 (nbnd) bands

     total energy              =    -576.25952006 Ry
     Harris-Foulkes estimate   =    -576.25952007 Ry
     est. exchange err (dexx)  =       0.00001152 Ry
     - averaged Fock potential =      38.77029869 Ry
     + Fock energy (ACE)       =     -19.38658917 Ry

     EXX: now go back to refine exchange calculation

     total cpu time spent up to now is     4232.1 secs

     Self-consistent Calculation

     iteration #  1     ecut=    90.00 Ry     beta= 0.30
     Davidson diagonalization with overlap

---- Real-time Memory Report at c_bands before calling an iterative solver
          2458 MiB given to the printing process from OS
         -1844 MiB allocation reported by mallinfo(arena+hblkhd)
        264765 MiB available memory on the node where the printing process lives
------------------
     ethr =  2.55E-10,  avg # of iterations =  8.6

     total cpu time spent up to now is     4244.4 secs

     total energy              =    -576.25952463 Ry
     estimated scf accuracy    <       0.00000105 Ry

     total magnetization       =     0.00 Bohr mag/cell
     absolute magnetization    =     7.30 Bohr mag/cell

     iteration #  2     ecut=    90.00 Ry     beta= 0.30
     Davidson diagonalization with overlap

---- Real-time Memory Report at c_bands before calling an iterative solver
          2458 MiB given to the printing process from OS
         -1827 MiB allocation reported by mallinfo(arena+hblkhd)
        263788 MiB available memory on the node where the printing process lives
------------------
     ethr =  1.16E-09,  avg # of iterations =  1.0

     total cpu time spent up to now is     4250.9 secs

     total energy              =    -576.25952467 Ry
     estimated scf accuracy    <       0.00000053 Ry

     total magnetization       =    -0.00 Bohr mag/cell
     absolute magnetization    =     7.30 Bohr mag/cell

     iteration #  3     ecut=    90.00 Ry     beta= 0.30
     Davidson diagonalization with overlap

---- Real-time Memory Report at c_bands before calling an iterative solver
          2458 MiB given to the printing process from OS
         -1825 MiB allocation reported by mallinfo(arena+hblkhd)
        263774 MiB available memory on the node where the printing process lives
------------------
     ethr =  5.86E-10,  avg # of iterations =  2.9

     Magnetic moment per site  (integrated on atomic sphere of radius R)
     atom   1 (R=0.208)  charge=  7.9773  magn= -0.0017
     atom   2 (R=0.115)  charge= 10.1255  magn= -2.0115
     atom   3 (R=0.112)  charge= 11.0430  magn=  2.3277
     atom   4 (R=0.064)  charge=  1.0113  magn= -0.0478
     atom   5 (R=0.064)  charge=  1.0113  magn= -0.0478
     atom   6 (R=0.064)  charge=  1.0113  magn= -0.0478
     atom   7 (R=0.064)  charge=  1.0113  magn= -0.0478
     atom   8 (R=0.064)  charge=  1.0113  magn= -0.0478
     atom   9 (R=0.064)  charge=  1.0113  magn= -0.0478
     atom  10 (R=0.064)  charge=  1.8195  magn=  0.0565
     atom  11 (R=0.064)  charge=  1.8195  magn=  0.0565
     atom  12 (R=0.064)  charge=  1.8195  magn=  0.0565
     atom  13 (R=0.064)  charge=  1.8195  magn=  0.0565
     atom  14 (R=0.064)  charge=  1.8195  magn=  0.0565
     atom  15 (R=0.064)  charge=  1.8195  magn=  0.0565

     total cpu time spent up to now is     4258.6 secs

     End of self-consistent calculation

 ------ SPIN UP ------------


          k = 0.0000 0.0000 0.0000 ( 29627 PWs)   bands (ev):

   -76.9822 -63.9378 -47.0109 -47.0109 -47.0109 -36.1557 -36.1557 -36.1557
   -32.0643 -18.9129 -18.7063 -18.7063 -18.7063 -18.6653 -18.6653 -14.2215
   -14.2215 -14.2215  -8.5510  -6.5182  -6.5182  -6.5182  -6.5033  -6.5033
    -5.9910  -4.4216  -4.4216  -4.4216  -4.1348  -4.1348  -3.5628  -3.5628
    -3.5628  -3.0716  -3.0716  -3.0716  -2.8981  -2.8981  -2.8981  -2.5408
    -2.5408  -2.5408  -1.7641  -1.7641  -1.7641   4.9411   4.9411   4.9411
     5.3083   5.3083   5.5371   6.4936   6.4936   6.4936

     occupation numbers 
     1.0000   1.0000   1.0000   1.0000   1.0000   1.0000   1.0000   1.0000
     1.0000   1.0000   1.0000   1.0000   1.0000   1.0000   1.0000   1.0000
     1.0000   1.0000   1.0000   1.0000   1.0000   1.0000   1.0000   1.0000
     1.0000   1.0000   1.0000   1.0000   1.0000   1.0000   1.0000   1.0000
     1.0000   1.0000   1.0000   1.0000   1.0000   1.0000   1.0000   1.0000
     1.0000   1.0000   1.0000   1.0000   1.0000   0.0000   0.0000   0.0000
     0.0000   0.0000   0.0000   0.0000   0.0000   0.0000

          k = 0.1768 0.1768-0.1768 ( 29651 PWs)   bands (ev):

   -76.9799 -63.9377 -47.0085 -47.0079 -47.0079 -36.1556 -36.1556 -36.1554
   -32.0643 -18.8903 -18.7324 -18.7011 -18.7011 -18.6720 -18.6720 -14.2209
   -14.2209 -14.2195  -8.3840  -7.1178  -6.5247  -6.5247  -6.4631  -6.4631
    -5.4249  -4.4199  -4.3284  -4.3284  -4.1540  -4.1540  -3.7369  -3.6887
    -3.6887  -3.2792  -3.2792  -3.0079  -2.9772  -2.9055  -2.9055  -2.6176
    -2.4521  -2.4521  -1.6469  -1.6221  -1.6221   5.0336   5.1129   5.1129
     5.3495   5.3495   5.8562   6.3509   6.5535   6.5544

     occupation numbers 
     1.0000   1.0000   1.0000   1.0000   1.0000   1.0000   1.0000   1.0000
     1.0000   1.0000   1.0000   1.0000   1.0000   1.0000   1.0000   1.0000
     1.0000   1.0000   1.0000   1.0000   1.0000   1.0000   1.0000   1.0000
     1.0000   1.0000   1.0000   1.0000   1.0000   1.0000   1.0000   1.0000
     1.0000   1.0000   1.0000   1.0000   1.0000   1.0000   1.0000   1.0000
     1.0000   1.0000   1.0000   1.0000   1.0000   0.0000   0.0000   0.0000
     0.0000   0.0000   0.0000   0.0000   0.0000   0.0000

          k =-0.3536-0.3536 0.3536 ( 29580 PWs)   bands (ev):

   -76.9775 -63.9376 -47.0062 -47.0047 -47.0047 -36.1556 -36.1556 -36.1552
   -32.0644 -18.8557 -18.7705 -18.6880 -18.6880 -18.6866 -18.6866 -14.2204
   -14.2204 -14.2176  -8.0512  -7.6667  -6.5203  -6.5203  -6.4330  -6.4330
    -4.9943  -4.4648  -4.2382  -4.2382  -4.0507  -4.0507  -3.9388  -3.9173
    -3.9173  -3.4966  -3.4966  -3.0473  -2.8964  -2.8563  -2.8563  -2.7421
    -2.4022  -2.4022  -1.5447  -1.5062  -1.5062   5.1560   5.3517   5.3517
     5.4134   5.4134   6.0967   6.3365   6.3367   6.4659

     occupation numbers 
     1.0000   1.0000   1.0000   1.0000   1.0000   1.0000   1.0000   1.0000
     1.0000   1.0000   1.0000   1.0000   1.0000   1.0000   1.0000   1.0000
     1.0000   1.0000   1.0000   1.0000   1.0000   1.0000   1.0000   1.0000
     1.0000   1.0000   1.0000   1.0000   1.0000   1.0000   1.0000   1.0000
     1.0000   1.0000   1.0000   1.0000   1.0000   1.0000   1.0000   1.0000
     1.0000   1.0000   1.0000   1.0000   1.0000   0.0000   0.0000   0.0000
     0.0000   0.0000   0.0000   0.0000   0.0000   0.0000

          k = 0.3536 0.0000 0.0000 ( 29706 PWs)   bands (ev):

   -76.9793 -63.9377 -47.0081 -47.0081 -47.0063 -36.1556 -36.1556 -36.1555
   -32.0644 -18.8847 -18.7218 -18.7078 -18.7078 -18.6831 -18.6655 -14.2204
   -14.2204 -14.2196  -8.3605  -7.1682  -6.5044  -6.4820  -6.4820  -6.4532
    -5.3905  -4.4446  -4.2785  -4.2785  -4.2290  -4.1312  -3.9391  -3.6675
    -3.6675  -3.3044  -3.3044  -3.0988  -3.0380  -3.0380  -2.6032  -2.5427
    -2.4770  -2.4770  -1.7635  -1.5218  -1.5218   4.9473   5.2737   5.2737
     5.3386   5.3394   5.9684   6.5069   6.5604   6.5605

     occupation numbers 
     1.0000   1.0000   1.0000   1.0000   1.0000   1.0000   1.0000   1.0000
     1.0000   1.0000   1.0000   1.0000   1.0000   1.0000   1.0000   1.0000
     1.0000   1.0000   1.0000   1.0000   1.0000   1.0000   1.0000   1.0000
     1.0000   1.0000   1.0000   1.0000   1.0000   1.0000   1.0000   1.0000
     1.0000   1.0000   1.0000   1.0000   1.0000   1.0000   1.0000   1.0000
     1.0000   1.0000   1.0000   1.0000   1.0000   0.0000   0.0000   0.0000
     0.0000   0.0000   0.0000   0.0000   0.0000   0.0000

          k =-0.1768-0.5303 0.5303 ( 29607 PWs)   bands (ev):

   -76.9777 -63.9377 -47.0063 -47.0058 -47.0046 -36.1556 -36.1556 -36.1554
   -32.0644 -18.8534 -18.7561 -18.7028 -18.7006 -18.6919 -18.6719 -14.2199
   -14.2194 -14.2181  -8.1226  -7.5654  -6.5134  -6.4772  -6.4375  -6.4072
    -5.0350  -4.4606  -4.3254  -4.2437  -4.1810  -4.0680  -4.0336  -3.8757
    -3.7867  -3.5050  -3.4462  -3.2277  -3.0134  -2.9693  -2.6983  -2.5664
    -2.3821  -2.3471  -1.6315  -1.4359  -1.4237   5.0848   5.3444   5.3802
     5.5070   5.6187   6.2845   6.4758   6.5246   6.6741

     occupation numbers 
     1.0000   1.0000   1.0000   1.0000   1.0000   1.0000   1.0000   1.0000
     1.0000   1.0000   1.0000   1.0000   1.0000   1.0000   1.0000   1.0000
     1.0000   1.0000   1.0000   1.0000   1.0000   1.0000   1.0000   1.0000
     1.0000   1.0000   1.0000   1.0000   1.0000   1.0000   1.0000   1.0000
     1.0000   1.0000   1.0000   1.0000   1.0000   1.0000   1.0000   1.0000
     1.0000   1.0000   1.0000   1.0000   1.0000   0.0000   0.0000   0.0000
     0.0000   0.0000   0.0000   0.0000   0.0000   0.0000

          k = 0.0000-0.3536 0.3536 ( 29650 PWs)   bands (ev):

   -76.9778 -63.9377 -47.0060 -47.0059 -47.0050 -36.1556 -36.1555 -36.1554
   -32.0644 -18.8623 -18.7536 -18.7089 -18.6882 -18.6863 -18.6758 -14.2204
   -14.2195 -14.2185  -8.1697  -7.5032  -6.5236  -6.4832  -6.4451  -6.4288
    -5.0981  -4.4170  -4.3092  -4.2154  -4.1958  -4.1399  -3.9433  -3.8856
    -3.7097  -3.4656  -3.3986  -3.2399  -2.9709  -2.8609  -2.7310  -2.7130
    -2.4207  -2.3477  -1.5385  -1.5186  -1.5070   5.1788   5.3078   5.3476
     5.3491   5.4105   6.1948   6.3643   6.6182   6.7149

     occupation numbers 
     1.0000   1.0000   1.0000   1.0000   1.0000   1.0000   1.0000   1.0000
     1.0000   1.0000   1.0000   1.0000   1.0000   1.0000   1.0000   1.0000
     1.0000   1.0000   1.0000   1.0000   1.0000   1.0000   1.0000   1.0000
     1.0000   1.0000   1.0000   1.0000   1.0000   1.0000   1.0000   1.0000
     1.0000   1.0000   1.0000   1.0000   1.0000   1.0000   1.0000   1.0000
     1.0000   1.0000   1.0000   1.0000   1.0000   0.0000   0.0000   0.0000
     0.0000   0.0000   0.0000   0.0000   0.0000   0.0000

          k =-0.7071 0.0000 0.0000 ( 29554 PWs)   bands (ev):

   -76.9779 -63.9378 -47.0067 -47.0067 -47.0041 -36.1557 -36.1557 -36.1556
   -32.0644 -18.8505 -18.7331 -18.7104 -18.7092 -18.7092 -18.6656 -14.2194
   -14.2194 -14.2176  -8.1750  -7.4810  -6.5054  -6.4430  -6.4430  -6.3651
    -5.1001  -4.4949  -4.3940  -4.3016  -4.1274  -4.0456  -4.0456  -3.8532
    -3.8532  -3.5159  -3.5159  -3.1256  -3.1166  -3.1166  -2.5446  -2.4459
    -2.4459  -2.2475  -1.7633  -1.3518  -1.3518   4.9620   5.2972   5.3680
     6.0013   6.0013   6.3635   6.6256   6.6258   6.8398

     occupation numbers 
     1.0000   1.0000   1.0000   1.0000   1.0000   1.0000   1.0000   1.0000
     1.0000   1.0000   1.0000   1.0000   1.0000   1.0000   1.0000   1.0000
     1.0000   1.0000   1.0000   1.0000   1.0000   1.0000   1.0000   1.0000
     1.0000   1.0000   1.0000   1.0000   1.0000   1.0000   1.0000   1.0000
     1.0000   1.0000   1.0000   1.0000   1.0000   1.0000   1.0000   1.0000
     1.0000   1.0000   1.0000   1.0000   1.0000   0.0000   0.0000   0.0000
     0.0000   0.0000   0.0000   0.0000   0.0000   0.0000

          k =-0.7071 0.3536 0.0000 ( 29596 PWs)   bands (ev):

   -76.9772 -63.9378 -47.0055 -47.0047 -47.0046 -36.1556 -36.1556 -36.1556
   -32.0644 -18.8432 -18.7576 -18.7102 -18.7096 -18.6790 -18.6790 -14.2193
   -14.2186 -14.2184  -8.0617  -7.6424  -6.5155  -6.4580  -6.4089  -6.4023
    -4.9664  -4.4759  -4.4125  -4.3049  -4.1399  -4.0294  -4.0126  -3.8925
    -3.8487  -3.5151  -3.4656  -3.3114  -3.0600  -2.9086  -2.7747  -2.5719
    -2.3008  -2.2996  -1.5268  -1.5198  -1.3515   5.2161   5.3168   5.3420
     5.3944   6.0020   6.5984   6.6332   6.6526   6.8850

     occupation numbers 
     1.0000   1.0000   1.0000   1.0000   1.0000   1.0000   1.0000   1.0000
     1.0000   1.0000   1.0000   1.0000   1.0000   1.0000   1.0000   1.0000
     1.0000   1.0000   1.0000   1.0000   1.0000   1.0000   1.0000   1.0000
     1.0000   1.0000   1.0000   1.0000   1.0000   1.0000   1.0000   1.0000
     1.0000   1.0000   1.0000   1.0000   1.0000   1.0000   1.0000   1.0000
     1.0000   1.0000   1.0000   1.0000   1.0000   0.0000   0.0000   0.0000
     0.0000   0.0000   0.0000   0.0000   0.0000   0.0000

 ------ SPIN DOWN ----------


          k = 0.0000 0.0000 0.0000 ( 29627 PWs)   bands (ev):

   -73.3628 -67.0358 -42.9929 -42.9929 -42.9929 -39.5716 -39.5716 -39.5716
   -32.0652 -18.8391 -18.6299 -18.6299 -18.6299 -18.5848 -18.5848 -14.2222
   -14.2222 -14.2222  -8.5848  -6.5592  -6.5592  -6.5592  -6.4954  -6.4954
    -5.9799  -4.2483  -4.2483  -4.2483  -3.8624  -3.8624  -3.5652  -3.5652
    -3.5652  -2.9909  -2.9909  -2.9909  -2.8806  -2.8806  -2.8806  -2.4418
    -2.4418  -2.4418   0.6427   0.6427   0.6427   3.8322   3.8322   3.8322
     5.5611   6.3458   6.3458   6.3458   6.4471   6.4471

     occupation numbers 
     1.0000   1.0000   1.0000   1.0000   1.0000   1.0000   1.0000   1.0000
     1.0000   1.0000   1.0000   1.0000   1.0000   1.0000   1.0000   1.0000
     1.0000   1.0000   1.0000   1.0000   1.0000   1.0000   1.0000   1.0000
     1.0000   1.0000   1.0000   1.0000   1.0000   1.0000   1.0000   1.0000
     1.0000   1.0000   1.0000   1.0000   1.0000   1.0000   1.0000   1.0000
     1.0000   1.0000   1.0000   1.0000   1.0000   0.0000   0.0000   0.0000
     0.0000   0.0000   0.0000   0.0000   0.0000   0.0000

          k = 0.1768 0.1768-0.1768 ( 29651 PWs)   bands (ev):

   -73.3691 -67.0053 -43.0013 -43.0013 -43.0007 -39.5360 -39.5340 -39.5340
   -32.0652 -18.8156 -18.6580 -18.6244 -18.6244 -18.5925 -18.5925 -14.2217
   -14.2217 -14.2203  -8.4109  -7.1729  -6.5808  -6.5808  -6.4402  -6.4402
    -5.4026  -4.3255  -4.1746  -4.1746  -3.9375  -3.9375  -3.6072  -3.6072
    -3.5886  -3.1942  -3.1942  -3.0237  -2.9251  -2.8263  -2.8263  -2.5242
    -2.4018  -2.4018   0.8989   0.9102   0.9102   3.6088   3.6697   3.6697
     5.8734   6.4084   6.4089   6.5386   7.0433   7.0483

     occupation numbers 
     1.0000   1.0000   1.0000   1.0000   1.0000   1.0000   1.0000   1.0000
     1.0000   1.0000   1.0000   1.0000   1.0000   1.0000   1.0000   1.0000
     1.0000   1.0000   1.0000   1.0000   1.0000   1.0000   1.0000   1.0000
     1.0000   1.0000   1.0000   1.0000   1.0000   1.0000   1.0000   1.0000
     1.0000   1.0000   1.0000   1.0000   1.0000   1.0000   1.0000   1.0000
     1.0000   1.0000   1.0000   1.0000   1.0000   0.0000   0.0000   0.0000
     0.0000   0.0000   0.0000   0.0000   0.0000   0.0000

          k =-0.3536-0.3536 0.3536 ( 29580 PWs)   bands (ev):

   -73.3687 -67.0083 -43.0008 -43.0008 -43.0004 -39.5396 -39.5375 -39.5375
   -32.0653 -18.7772 -18.6999 -18.6101 -18.6101 -18.6081 -18.6081 -14.2211
   -14.2211 -14.2183  -7.9892  -7.8129  -6.5861  -6.5861  -6.3939  -6.3939
    -4.8957  -4.5520  -4.1318  -4.1318  -3.9181  -3.9181  -3.5828  -3.5828
    -3.5686  -3.5258  -3.5258  -3.1873  -2.8042  -2.7165  -2.7165  -2.6589
    -2.4005  -2.4005   1.1150   1.1301   1.1301   3.3737   3.4930   3.4930
     6.3229   6.7328   6.7331   6.8006   6.8967   6.8972

     occupation numbers 
     1.0000   1.0000   1.0000   1.0000   1.0000   1.0000   1.0000   1.0000
     1.0000   1.0000   1.0000   1.0000   1.0000   1.0000   1.0000   1.0000
     1.0000   1.0000   1.0000   1.0000   1.0000   1.0000   1.0000   1.0000
     1.0000   1.0000   1.0000   1.0000   1.0000   1.0000   1.0000   1.0000
     1.0000   1.0000   1.0000   1.0000   1.0000   1.0000   1.0000   1.0000
     1.0000   1.0000   1.0000   1.0000   1.0000   0.0000   0.0000   0.0000
     0.0000   0.0000   0.0000   0.0000   0.0000   0.0000

          k = 0.3536 0.0000 0.0000 ( 29706 PWs)   bands (ev):

   -73.3710 -66.9944 -43.0078 -43.0015 -43.0015 -39.5311 -39.5311 -39.5024
   -32.0653 -18.8100 -18.6462 -18.6322 -18.6322 -18.6046 -18.5858 -14.2212
   -14.2212 -14.2203  -8.3849  -7.2234  -6.5256  -6.5256  -6.4984  -6.4631
    -5.3565  -4.2835  -4.1663  -4.1663  -4.1061  -3.8599  -3.8197  -3.5245
    -3.5245  -3.2517  -3.2516  -3.0230  -2.9727  -2.9726  -2.5737  -2.4442
    -2.4255  -2.4255   0.6588   1.1066   1.1068   3.6144   3.6144   3.8396
     5.9602   6.2598   6.4657   6.6379   6.7529   7.1321

     occupation numbers 
     1.0000   1.0000   1.0000   1.0000   1.0000   1.0000   1.0000   1.0000
     1.0000   1.0000   1.0000   1.0000   1.0000   1.0000   1.0000   1.0000
     1.0000   1.0000   1.0000   1.0000   1.0000   1.0000   1.0000   1.0000
     1.0000   1.0000   1.0000   1.0000   1.0000   1.0000   1.0000   1.0000
     1.0000   1.0000   1.0000   1.0000   1.0000   1.0000   1.0000   1.0000
     1.0000   1.0000   1.0000   1.0000   1.0000   0.0000   0.0000   0.0000
     0.0000   0.0000   0.0000   0.0000   0.0000   0.0000

          k =-0.1768-0.5303 0.5303 ( 29607 PWs)   bands (ev):

   -73.3717 -66.9919 -43.0060 -43.0040 -43.0036 -39.5222 -39.5209 -39.5120
   -32.0653 -18.7756 -18.6841 -18.6263 -18.6240 -18.6145 -18.5926 -14.2206
   -14.2202 -14.2188  -8.1050  -7.6629  -6.5605  -6.5271  -6.4242  -6.4147
    -4.9784  -4.4408  -4.2590  -4.1019  -4.0481  -3.8750  -3.8567  -3.6132
    -3.4837  -3.4585  -3.4353  -3.1650  -2.9114  -2.8805  -2.6132  -2.5325
    -2.3495  -2.3235   0.9126   1.2390   1.2443   3.5492   3.6025   3.6633
     6.3636   6.5436   6.6486   6.6800   6.9026   6.9707

     occupation numbers 
     1.0000   1.0000   1.0000   1.0000   1.0000   1.0000   1.0000   1.0000
     1.0000   1.0000   1.0000   1.0000   1.0000   1.0000   1.0000   1.0000
     1.0000   1.0000   1.0000   1.0000   1.0000   1.0000   1.0000   1.0000
     1.0000   1.0000   1.0000   1.0000   1.0000   1.0000   1.0000   1.0000
     1.0000   1.0000   1.0000   1.0000   1.0000   1.0000   1.0000   1.0000
     1.0000   1.0000   1.0000   1.0000   1.0000   0.0000   0.0000   0.0000
     0.0000   0.0000   0.0000   0.0000   0.0000   0.0000

          k = 0.0000-0.3536 0.3536 ( 29650 PWs)   bands (ev):

   -73.3731 -66.9851 -43.0083 -43.0054 -43.0051 -39.5163 -39.5146 -39.4999
   -32.0653 -18.7856 -18.6809 -18.6340 -18.6103 -18.6080 -18.5973 -14.2211
   -14.2202 -14.2193  -8.1692  -7.5887  -6.5892  -6.4921  -6.4873  -6.3937
    -5.0440  -4.3698  -4.2984  -4.0867  -3.9668  -3.9545  -3.7862  -3.5779
    -3.5113  -3.4846  -3.2640  -3.2375  -2.8928  -2.7286  -2.7235  -2.6154
    -2.4129  -2.3069   1.0995   1.1206   1.1371   3.4494   3.5778   3.6573
     6.2557   6.5120   6.5377   6.7274   6.8991   7.2404

     occupation numbers 
     1.0000   1.0000   1.0000   1.0000   1.0000   1.0000   1.0000   1.0000
     1.0000   1.0000   1.0000   1.0000   1.0000   1.0000   1.0000   1.0000
     1.0000   1.0000   1.0000   1.0000   1.0000   1.0000   1.0000   1.0000
     1.0000   1.0000   1.0000   1.0000   1.0000   1.0000   1.0000   1.0000
     1.0000   1.0000   1.0000   1.0000   1.0000   1.0000   1.0000   1.0000
     1.0000   1.0000   1.0000   1.0000   1.0000   0.0000   0.0000   0.0000
     0.0000   0.0000   0.0000   0.0000   0.0000   0.0000

          k =-0.7071 0.0000 0.0000 ( 29554 PWs)   bands (ev):

   -73.3667 -67.0135 -43.0002 -42.9970 -42.9970 -39.5498 -39.5498 -39.5339
   -32.0653 -18.7725 -18.6583 -18.6345 -18.6331 -18.6331 -18.5854 -14.2201
   -14.2201 -14.2183  -8.1658  -7.5542  -6.4985  -6.4848  -6.4848  -6.4075
    -5.0612  -4.4226  -4.2204  -4.1198  -4.0491  -4.0491  -3.8551  -3.5893
    -3.5893  -3.4042  -3.4042  -3.0486  -3.0315  -3.0315  -2.4459  -2.4253
    -2.4253  -2.2185   0.6541   1.2686   1.2686   3.7486   3.7486   3.8448
     6.2784   6.4575   6.5598   6.7392   6.7683   7.1266

     occupation numbers 
     1.0000   1.0000   1.0000   1.0000   1.0000   1.0000   1.0000   1.0000
     1.0000   1.0000   1.0000   1.0000   1.0000   1.0000   1.0000   1.0000
     1.0000   1.0000   1.0000   1.0000   1.0000   1.0000   1.0000   1.0000
     1.0000   1.0000   1.0000   1.0000   1.0000   1.0000   1.0000   1.0000
     1.0000   1.0000   1.0000   1.0000   1.0000   1.0000   1.0000   1.0000
     1.0000   1.0000   1.0000   1.0000   1.0000   0.0000   0.0000   0.0000
     0.0000   0.0000   0.0000   0.0000   0.0000   0.0000

          k =-0.7071 0.3536 0.0000 ( 29596 PWs)   bands (ev):

   -73.3731 -66.9831 -43.0083 -43.0053 -43.0053 -39.5123 -39.5117 -39.4993
   -32.0653 -18.7643 -18.6861 -18.6348 -18.6342 -18.6006 -18.6003 -14.2201
   -14.2193 -14.2192  -8.0064  -7.7765  -6.5597  -6.4533  -6.4466  -6.4330
    -4.9199  -4.4277  -4.2710  -4.2577  -3.9551  -3.8754  -3.8501  -3.7449
    -3.5841  -3.4022  -3.3583  -3.1958  -2.9457  -2.8319  -2.6928  -2.5668
    -2.2730  -2.2639   1.1034   1.1212   1.2825   3.6189   3.6195   3.7457
     6.5115   6.5160   6.5650   6.6487   6.8506   7.0554

     occupation numbers 
     1.0000   1.0000   1.0000   1.0000   1.0000   1.0000   1.0000   1.0000
     1.0000   1.0000   1.0000   1.0000   1.0000   1.0000   1.0000   1.0000
     1.0000   1.0000   1.0000   1.0000   1.0000   1.0000   1.0000   1.0000
     1.0000   1.0000   1.0000   1.0000   1.0000   1.0000   1.0000   1.0000
     1.0000   1.0000   1.0000   1.0000   1.0000   1.0000   1.0000   1.0000
     1.0000   1.0000   1.0000   1.0000   1.0000   0.0000   0.0000   0.0000
     0.0000   0.0000   0.0000   0.0000   0.0000   0.0000

     the Fermi energy is     2.5718 ev

!    total energy              =    -576.25952479 Ry
     estimated scf accuracy    <       0.00000002 Ry
     smearing contrib. (-TS)   =      -0.00000000 Ry
     internal energy E=F+TS    =    -576.25952479 Ry

     total magnetization       =     0.00 Bohr mag/cell
     absolute magnetization    =     7.30 Bohr mag/cell

     convergence has been achieved in   3 iterations

     Using ACE for calculation of exact exchange
     ACE projected onto    54 (nbndproj) and applied to    54 (nbnd) bands

     total energy              =    -576.25952670 Ry
     Harris-Foulkes estimate   =    -576.25952670 Ry
     est. exchange err (dexx)  =       0.00000191 Ry
     - averaged Fock potential =      38.77404672 Ry
     + Fock energy (ACE)       =     -19.38745946 Ry

     EXX: now go back to refine exchange calculation

     total cpu time spent up to now is     5037.5 secs

     Self-consistent Calculation

     iteration #  1     ecut=    90.00 Ry     beta= 0.30
     Davidson diagonalization with overlap

---- Real-time Memory Report at c_bands before calling an iterative solver
          2458 MiB given to the printing process from OS
         -1844 MiB allocation reported by mallinfo(arena+hblkhd)
        264765 MiB available memory on the node where the printing process lives
------------------
     ethr =  5.86E-10,  avg # of iterations =  6.2

     total cpu time spent up to now is     5046.2 secs

     total energy              =    -576.25952761 Ry
     estimated scf accuracy    <       0.00000021 Ry

     total magnetization       =     0.00 Bohr mag/cell
     absolute magnetization    =     7.31 Bohr mag/cell

     iteration #  2     ecut=    90.00 Ry     beta= 0.30
     Davidson diagonalization with overlap

---- Real-time Memory Report at c_bands before calling an iterative solver
          2458 MiB given to the printing process from OS
         -1827 MiB allocation reported by mallinfo(arena+hblkhd)
        263790 MiB available memory on the node where the printing process lives
------------------
     ethr =  2.31E-10,  avg # of iterations =  1.7

     Magnetic moment per site  (integrated on atomic sphere of radius R)
     atom   1 (R=0.208)  charge=  7.9773  magn= -0.0017
     atom   2 (R=0.115)  charge= 10.1258  magn= -2.0121
     atom   3 (R=0.112)  charge= 11.0429  magn=  2.3283
     atom   4 (R=0.064)  charge=  1.0114  magn= -0.0480
     atom   5 (R=0.064)  charge=  1.0114  magn= -0.0480
     atom   6 (R=0.064)  charge=  1.0114  magn= -0.0480
     atom   7 (R=0.064)  charge=  1.0114  magn= -0.0480
     atom   8 (R=0.064)  charge=  1.0114  magn= -0.0480
     atom   9 (R=0.064)  charge=  1.0114  magn= -0.0480
     atom  10 (R=0.064)  charge=  1.8195  magn=  0.0567
     atom  11 (R=0.064)  charge=  1.8195  magn=  0.0567
     atom  12 (R=0.064)  charge=  1.8195  magn=  0.0567
     atom  13 (R=0.064)  charge=  1.8195  magn=  0.0567
     atom  14 (R=0.064)  charge=  1.8195  magn=  0.0567
     atom  15 (R=0.064)  charge=  1.8195  magn=  0.0567

     total cpu time spent up to now is     5052.1 secs

     End of self-consistent calculation

 ------ SPIN UP ------------


          k = 0.0000 0.0000 0.0000 ( 29627 PWs)   bands (ev):

   -76.9826 -63.9366 -47.0114 -47.0114 -47.0114 -36.1545 -36.1545 -36.1545
   -32.0644 -18.9129 -18.7063 -18.7063 -18.7063 -18.6653 -18.6653 -14.2215
   -14.2215 -14.2215  -8.5508  -6.5182  -6.5182  -6.5182  -6.5031  -6.5031
    -5.9909  -4.4215  -4.4215  -4.4215  -4.1347  -4.1347  -3.5627  -3.5627
    -3.5627  -3.0716  -3.0716  -3.0716  -2.8981  -2.8981  -2.8981  -2.5408
    -2.5408  -2.5408  -1.7651  -1.7651  -1.7651   4.9412   4.9412   4.9412
     5.3081   5.3081   5.5370   6.4938   6.4938   6.4938

     occupation numbers 
     1.0000   1.0000   1.0000   1.0000   1.0000   1.0000   1.0000   1.0000
     1.0000   1.0000   1.0000   1.0000   1.0000   1.0000   1.0000   1.0000
     1.0000   1.0000   1.0000   1.0000   1.0000   1.0000   1.0000   1.0000
     1.0000   1.0000   1.0000   1.0000   1.0000   1.0000   1.0000   1.0000
     1.0000   1.0000   1.0000   1.0000   1.0000   1.0000   1.0000   1.0000
     1.0000   1.0000   1.0000   1.0000   1.0000   0.0000   0.0000   0.0000
     0.0000   0.0000   0.0000   0.0000   0.0000   0.0000

          k = 0.1768 0.1768-0.1768 ( 29651 PWs)   bands (ev):

   -76.9802 -63.9366 -47.0091 -47.0084 -47.0084 -36.1545 -36.1545 -36.1543
   -32.0644 -18.8903 -18.7324 -18.7011 -18.7011 -18.6720 -18.6720 -14.2210
   -14.2210 -14.2196  -8.3838  -7.1177  -6.5245  -6.5245  -6.4630  -6.4630
    -5.4249  -4.4198  -4.3283  -4.3283  -4.1540  -4.1540  -3.7368  -3.6886
    -3.6886  -3.2792  -3.2792  -3.0079  -2.9771  -2.9055  -2.9055  -2.6176
    -2.4521  -2.4521  -1.6478  -1.6229  -1.6229   5.0339   5.1131   5.1131
     5.3494   5.3494   5.8561   6.3510   6.5529   6.5534

     occupation numbers 
     1.0000   1.0000   1.0000   1.0000   1.0000   1.0000   1.0000   1.0000
     1.0000   1.0000   1.0000   1.0000   1.0000   1.0000   1.0000   1.0000
     1.0000   1.0000   1.0000   1.0000   1.0000   1.0000   1.0000   1.0000
     1.0000   1.0000   1.0000   1.0000   1.0000   1.0000   1.0000   1.0000
     1.0000   1.0000   1.0000   1.0000   1.0000   1.0000   1.0000   1.0000
     1.0000   1.0000   1.0000   1.0000   1.0000   0.0000   0.0000   0.0000
     0.0000   0.0000   0.0000   0.0000   0.0000   0.0000

          k =-0.3536-0.3536 0.3536 ( 29580 PWs)   bands (ev):

   -76.9779 -63.9365 -47.0068 -47.0053 -47.0053 -36.1545 -36.1545 -36.1540
   -32.0644 -18.8557 -18.7705 -18.6880 -18.6880 -18.6866 -18.6866 -14.2204
   -14.2204 -14.2177  -8.0510  -7.6665  -6.5201  -6.5201  -6.4329  -6.4329
    -4.9944  -4.4646  -4.2382  -4.2382  -4.0505  -4.0505  -3.9388  -3.9173
    -3.9173  -3.4965  -3.4965  -3.0472  -2.8965  -2.8564  -2.8564  -2.7422
    -2.4022  -2.4022  -1.5457  -1.5073  -1.5073   5.1565   5.3521   5.3521
     5.4136   5.4136   6.0966   6.3360   6.3360   6.4658

     occupation numbers 
     1.0000   1.0000   1.0000   1.0000   1.0000   1.0000   1.0000   1.0000
     1.0000   1.0000   1.0000   1.0000   1.0000   1.0000   1.0000   1.0000
     1.0000   1.0000   1.0000   1.0000   1.0000   1.0000   1.0000   1.0000
     1.0000   1.0000   1.0000   1.0000   1.0000   1.0000   1.0000   1.0000
     1.0000   1.0000   1.0000   1.0000   1.0000   1.0000   1.0000   1.0000
     1.0000   1.0000   1.0000   1.0000   1.0000   0.0000   0.0000   0.0000
     0.0000   0.0000   0.0000   0.0000   0.0000   0.0000

          k = 0.3536 0.0000 0.0000 ( 29706 PWs)   bands (ev):

   -76.9798 -63.9366 -47.0087 -47.0087 -47.0069 -36.1545 -36.1545 -36.1544
   -32.0644 -18.8846 -18.7218 -18.7078 -18.7078 -18.6831 -18.6655 -14.2205
   -14.2205 -14.2196  -8.3603  -7.1680  -6.5042  -6.4820  -6.4820  -6.4531
    -5.3904  -4.4445  -4.2784  -4.2784  -4.2290  -4.1311  -3.9389  -3.6674
    -3.6674  -3.3044  -3.3044  -3.0988  -3.0381  -3.0381  -2.6031  -2.5428
    -2.4770  -2.4770  -1.7646  -1.5229  -1.5229   4.9474   5.2739   5.2739
     5.3385   5.3391   5.9683   6.5055   6.5601   6.5601

     occupation numbers 
     1.0000   1.0000   1.0000   1.0000   1.0000   1.0000   1.0000   1.0000
     1.0000   1.0000   1.0000   1.0000   1.0000   1.0000   1.0000   1.0000
     1.0000   1.0000   1.0000   1.0000   1.0000   1.0000   1.0000   1.0000
     1.0000   1.0000   1.0000   1.0000   1.0000   1.0000   1.0000   1.0000
     1.0000   1.0000   1.0000   1.0000   1.0000   1.0000   1.0000   1.0000
     1.0000   1.0000   1.0000   1.0000   1.0000   0.0000   0.0000   0.0000
     0.0000   0.0000   0.0000   0.0000   0.0000   0.0000

          k =-0.1768-0.5303 0.5303 ( 29607 PWs)   bands (ev):

   -76.9781 -63.9366 -47.0068 -47.0063 -47.0051 -36.1545 -36.1545 -36.1543
   -32.0644 -18.8534 -18.7561 -18.7028 -18.7006 -18.6919 -18.6719 -14.2199
   -14.2195 -14.2181  -8.1223  -7.5652  -6.5132  -6.4771  -6.4374  -6.4071
    -5.0350  -4.4605  -4.3254  -4.2436  -4.1810  -4.0678  -4.0335  -3.8757
    -3.7866  -3.5050  -3.4462  -3.2277  -3.0135  -2.9693  -2.6983  -2.5664
    -2.3821  -2.3471  -1.6324  -1.4368  -1.4246   5.0851   5.3444   5.3801
     5.5073   5.6191   6.2840   6.4738   6.5245   6.6717

     occupation numbers 
     1.0000   1.0000   1.0000   1.0000   1.0000   1.0000   1.0000   1.0000
     1.0000   1.0000   1.0000   1.0000   1.0000   1.0000   1.0000   1.0000
     1.0000   1.0000   1.0000   1.0000   1.0000   1.0000   1.0000   1.0000
     1.0000   1.0000   1.0000   1.0000   1.0000   1.0000   1.0000   1.0000
     1.0000   1.0000   1.0000   1.0000   1.0000   1.0000   1.0000   1.0000
     1.0000   1.0000   1.0000   1.0000   1.0000   0.0000   0.0000   0.0000
     0.0000   0.0000   0.0000   0.0000   0.0000   0.0000

          k = 0.0000-0.3536 0.3536 ( 29650 PWs)   bands (ev):

   -76.9783 -63.9366 -47.0067 -47.0065 -47.0056 -36.1545 -36.1544 -36.1542
   -32.0644 -18.8623 -18.7535 -18.7089 -18.6882 -18.6863 -18.6757 -14.2204
   -14.2195 -14.2186  -8.1695  -7.5031  -6.5234  -6.4830  -6.4451  -6.4287
    -5.0981  -4.4169  -4.3091  -4.2154  -4.1957  -4.1399  -3.9433  -3.8854
    -3.7096  -3.4656  -3.3987  -3.2399  -2.9709  -2.8610  -2.7310  -2.7130
    -2.4206  -2.3477  -1.5396  -1.5197  -1.5081   5.1792   5.3083   5.3475
     5.3489   5.4104   6.1945   6.3642   6.6177   6.7090

     occupation numbers 
     1.0000   1.0000   1.0000   1.0000   1.0000   1.0000   1.0000   1.0000
     1.0000   1.0000   1.0000   1.0000   1.0000   1.0000   1.0000   1.0000
     1.0000   1.0000   1.0000   1.0000   1.0000   1.0000   1.0000   1.0000
     1.0000   1.0000   1.0000   1.0000   1.0000   1.0000   1.0000   1.0000
     1.0000   1.0000   1.0000   1.0000   1.0000   1.0000   1.0000   1.0000
     1.0000   1.0000   1.0000   1.0000   1.0000   0.0000   0.0000   0.0000
     0.0000   0.0000   0.0000   0.0000   0.0000   0.0000

          k =-0.7071 0.0000 0.0000 ( 29554 PWs)   bands (ev):

   -76.9783 -63.9367 -47.0072 -47.0072 -47.0046 -36.1545 -36.1545 -36.1545
   -32.0645 -18.8505 -18.7331 -18.7104 -18.7092 -18.7092 -18.6656 -14.2194
   -14.2194 -14.2177  -8.1748  -7.4809  -6.5052  -6.4429  -6.4429  -6.3651
    -5.0999  -4.4948  -4.3939  -4.3015  -4.1273  -4.0455  -4.0455  -3.8532
    -3.8532  -3.5160  -3.5160  -3.1256  -3.1167  -3.1167  -2.5447  -2.4459
    -2.4459  -2.2475  -1.7642  -1.3528  -1.3528   4.9621   5.2972   5.3678
     6.0021   6.0021   6.3636   6.6234   6.6236   6.8399

     occupation numbers 
     1.0000   1.0000   1.0000   1.0000   1.0000   1.0000   1.0000   1.0000
     1.0000   1.0000   1.0000   1.0000   1.0000   1.0000   1.0000   1.0000
     1.0000   1.0000   1.0000   1.0000   1.0000   1.0000   1.0000   1.0000
     1.0000   1.0000   1.0000   1.0000   1.0000   1.0000   1.0000   1.0000
     1.0000   1.0000   1.0000   1.0000   1.0000   1.0000   1.0000   1.0000
     1.0000   1.0000   1.0000   1.0000   1.0000   0.0000   0.0000   0.0000
     0.0000   0.0000   0.0000   0.0000   0.0000   0.0000

          k =-0.7071 0.3536 0.0000 ( 29596 PWs)   bands (ev):

   -76.9777 -63.9367 -47.0062 -47.0054 -47.0053 -36.1544 -36.1544 -36.1544
   -32.0645 -18.8432 -18.7575 -18.7101 -18.7096 -18.6790 -18.6790 -14.2194
   -14.2186 -14.2185  -8.0614  -7.6422  -6.5153  -6.4579  -6.4088  -6.4022
    -4.9663  -4.4758  -4.4124  -4.3048  -4.1400  -4.0292  -4.0126  -3.8925
    -3.8487  -3.5152  -3.4656  -3.3115  -3.0601  -2.9086  -2.7748  -2.5718
    -2.3008  -2.2996  -1.5279  -1.5209  -1.3526   5.2164   5.3167   5.3425
     5.3942   6.0027   6.5984   6.6250   6.6522   6.8851

     occupation numbers 
     1.0000   1.0000   1.0000   1.0000   1.0000   1.0000   1.0000   1.0000
     1.0000   1.0000   1.0000   1.0000   1.0000   1.0000   1.0000   1.0000
     1.0000   1.0000   1.0000   1.0000   1.0000   1.0000   1.0000   1.0000
     1.0000   1.0000   1.0000   1.0000   1.0000   1.0000   1.0000   1.0000
     1.0000   1.0000   1.0000   1.0000   1.0000   1.0000   1.0000   1.0000
     1.0000   1.0000   1.0000   1.0000   1.0000   0.0000   0.0000   0.0000
     0.0000   0.0000   0.0000   0.0000   0.0000   0.0000

 ------ SPIN DOWN ----------


          k = 0.0000 0.0000 0.0000 ( 29627 PWs)   bands (ev):

   -73.3620 -67.0344 -42.9921 -42.9921 -42.9921 -39.5701 -39.5701 -39.5701
   -32.0652 -18.8386 -18.6295 -18.6295 -18.6295 -18.5844 -18.5844 -14.2223
   -14.2223 -14.2223  -8.5849  -6.5592  -6.5592  -6.5592  -6.4951  -6.4951
    -5.9799  -4.2480  -4.2480  -4.2480  -3.8623  -3.8623  -3.5654  -3.5654
    -3.5654  -2.9905  -2.9905  -2.9905  -2.8804  -2.8804  -2.8804  -2.4413
    -2.4413  -2.4413   0.6437   0.6437   0.6437   3.8329   3.8329   3.8329
     5.5611   6.3456   6.3456   6.3456   6.4370   6.4370

     occupation numbers 
     1.0000   1.0000   1.0000   1.0000   1.0000   1.0000   1.0000   1.0000
     1.0000   1.0000   1.0000   1.0000   1.0000   1.0000   1.0000   1.0000
     1.0000   1.0000   1.0000   1.0000   1.0000   1.0000   1.0000   1.0000
     1.0000   1.0000   1.0000   1.0000   1.0000   1.0000   1.0000   1.0000
     1.0000   1.0000   1.0000   1.0000   1.0000   1.0000   1.0000   1.0000
     1.0000   1.0000   1.0000   1.0000   1.0000   0.0000   0.0000   0.0000
     0.0000   0.0000   0.0000   0.0000   0.0000   0.0000

          k = 0.1768 0.1768-0.1768 ( 29651 PWs)   bands (ev):

   -73.3682 -67.0047 -43.0004 -43.0004 -42.9998 -39.5355 -39.5335 -39.5335
   -32.0653 -18.8152 -18.6575 -18.6240 -18.6240 -18.5921 -18.5921 -14.2217
   -14.2217 -14.2203  -8.4109  -7.1728  -6.5806  -6.5806  -6.4399  -6.4399
    -5.4024  -4.3252  -4.1743  -4.1743  -3.9374  -3.9374  -3.6072  -3.6072
    -3.5885  -3.1939  -3.1939  -3.0235  -2.9246  -2.8259  -2.8259  -2.5237
    -2.4014  -2.4014   0.8987   0.9100   0.9100   3.6093   3.6702   3.6702
     5.8734   6.4066   6.4069   6.5384   6.9879   6.9926

     occupation numbers 
     1.0000   1.0000   1.0000   1.0000   1.0000   1.0000   1.0000   1.0000
     1.0000   1.0000   1.0000   1.0000   1.0000   1.0000   1.0000   1.0000
     1.0000   1.0000   1.0000   1.0000   1.0000   1.0000   1.0000   1.0000
     1.0000   1.0000   1.0000   1.0000   1.0000   1.0000   1.0000   1.0000
     1.0000   1.0000   1.0000   1.0000   1.0000   1.0000   1.0000   1.0000
     1.0000   1.0000   1.0000   1.0000   1.0000   0.0000   0.0000   0.0000
     0.0000   0.0000   0.0000   0.0000   0.0000   0.0000

          k =-0.3536-0.3536 0.3536 ( 29580 PWs)   bands (ev):

   -73.3679 -67.0068 -42.9999 -42.9999 -42.9995 -39.5380 -39.5359 -39.5359
   -32.0653 -18.7767 -18.6995 -18.6097 -18.6097 -18.6077 -18.6077 -14.2212
   -14.2212 -14.2184  -7.9895  -7.8127  -6.5859  -6.5859  -6.3938  -6.3938
    -4.8954  -4.5521  -4.1317  -4.1317  -3.9180  -3.9180  -3.5825  -3.5825
    -3.5685  -3.5257  -3.5257  -3.1872  -2.8037  -2.7161  -2.7161  -2.6584
    -2.4003  -2.4003   1.1163   1.1315   1.1316   3.3740   3.4934   3.4934
     6.3228   6.7323   6.7326   6.8007   6.8791   6.8795

     occupation numbers 
     1.0000   1.0000   1.0000   1.0000   1.0000   1.0000   1.0000   1.0000
     1.0000   1.0000   1.0000   1.0000   1.0000   1.0000   1.0000   1.0000
     1.0000   1.0000   1.0000   1.0000   1.0000   1.0000   1.0000   1.0000
     1.0000   1.0000   1.0000   1.0000   1.0000   1.0000   1.0000   1.0000
     1.0000   1.0000   1.0000   1.0000   1.0000   1.0000   1.0000   1.0000
     1.0000   1.0000   1.0000   1.0000   1.0000   0.0000   0.0000   0.0000
     0.0000   0.0000   0.0000   0.0000   0.0000   0.0000

          k = 0.3536 0.0000 0.0000 ( 29706 PWs)   bands (ev):

   -73.3699 -66.9953 -43.0065 -43.0003 -43.0003 -39.5320 -39.5319 -39.5048
   -32.0653 -18.8095 -18.6457 -18.6317 -18.6317 -18.6041 -18.5854 -14.2212
   -14.2212 -14.2204  -8.3847  -7.2230  -6.5254  -6.5254  -6.4980  -6.4626
    -5.3562  -4.2832  -4.1659  -4.1659  -4.1059  -3.8597  -3.8196  -3.5244
    -3.5244  -3.2511  -3.2511  -3.0224  -2.9722  -2.9722  -2.5734  -2.4437
    -2.4251  -2.4251   0.6587   1.1018   1.1019   3.6157   3.6157   3.8401
     5.9603   6.2603   6.4570   6.6377   6.7538   7.1326

     occupation numbers 
     1.0000   1.0000   1.0000   1.0000   1.0000   1.0000   1.0000   1.0000
     1.0000   1.0000   1.0000   1.0000   1.0000   1.0000   1.0000   1.0000
     1.0000   1.0000   1.0000   1.0000   1.0000   1.0000   1.0000   1.0000
     1.0000   1.0000   1.0000   1.0000   1.0000   1.0000   1.0000   1.0000
     1.0000   1.0000   1.0000   1.0000   1.0000   1.0000   1.0000   1.0000
     1.0000   1.0000   1.0000   1.0000   1.0000   0.0000   0.0000   0.0000
     0.0000   0.0000   0.0000   0.0000   0.0000   0.0000

          k =-0.1768-0.5303 0.5303 ( 29607 PWs)   bands (ev):

   -73.3709 -66.9913 -43.0051 -43.0031 -43.0027 -39.5217 -39.5204 -39.5115
   -32.0654 -18.7752 -18.6837 -18.6259 -18.6236 -18.6141 -18.5922 -14.2207
   -14.2202 -14.2188  -8.1051  -7.6627  -6.5603  -6.5269  -6.4240  -6.4145
    -4.9780  -4.4407  -4.2589  -4.1018  -4.0479  -3.8749  -3.8565  -3.6128
    -3.4834  -3.4582  -3.4350  -3.1646  -2.9109  -2.8800  -2.6128  -2.5322
    -2.3492  -2.3233   0.9124   1.2387   1.2440   3.5498   3.6033   3.6638
     6.3634   6.5424   6.6476   6.6801   6.8714   6.9319

     occupation numbers 
     1.0000   1.0000   1.0000   1.0000   1.0000   1.0000   1.0000   1.0000
     1.0000   1.0000   1.0000   1.0000   1.0000   1.0000   1.0000   1.0000
     1.0000   1.0000   1.0000   1.0000   1.0000   1.0000   1.0000   1.0000
     1.0000   1.0000   1.0000   1.0000   1.0000   1.0000   1.0000   1.0000
     1.0000   1.0000   1.0000   1.0000   1.0000   1.0000   1.0000   1.0000
     1.0000   1.0000   1.0000   1.0000   1.0000   0.0000   0.0000   0.0000
     0.0000   0.0000   0.0000   0.0000   0.0000   0.0000

          k = 0.0000-0.3536 0.3536 ( 29650 PWs)   bands (ev):

   -73.3719 -66.9861 -43.0070 -43.0042 -43.0038 -39.5171 -39.5154 -39.5023
   -32.0654 -18.7852 -18.6805 -18.6335 -18.6098 -18.6075 -18.5968 -14.2212
   -14.2203 -14.2193  -8.1690  -7.5884  -6.5889  -6.4917  -6.4869  -6.3933
    -5.0437  -4.3695  -4.2982  -4.0865  -3.9666  -3.9541  -3.7860  -3.5776
    -3.5110  -3.4844  -3.2635  -3.2370  -2.8923  -2.7281  -2.7232  -2.6148
    -2.4127  -2.3065   1.0948   1.1157   1.1369   3.4500   3.5791   3.6586
     6.2553   6.5123   6.5300   6.7268   6.8809   7.2288

     occupation numbers 
     1.0000   1.0000   1.0000   1.0000   1.0000   1.0000   1.0000   1.0000
     1.0000   1.0000   1.0000   1.0000   1.0000   1.0000   1.0000   1.0000
     1.0000   1.0000   1.0000   1.0000   1.0000   1.0000   1.0000   1.0000
     1.0000   1.0000   1.0000   1.0000   1.0000   1.0000   1.0000   1.0000
     1.0000   1.0000   1.0000   1.0000   1.0000   1.0000   1.0000   1.0000
     1.0000   1.0000   1.0000   1.0000   1.0000   0.0000   0.0000   0.0000
     0.0000   0.0000   0.0000   0.0000   0.0000   0.0000

          k =-0.7071 0.0000 0.0000 ( 29554 PWs)   bands (ev):

   -73.3659 -67.0120 -42.9994 -42.9961 -42.9961 -39.5482 -39.5482 -39.5323
   -32.0654 -18.7721 -18.6579 -18.6341 -18.6327 -18.6327 -18.5850 -14.2202
   -14.2202 -14.2184  -8.1659  -7.5541  -6.4982  -6.4848  -6.4848  -6.4076
    -5.0609  -4.4226  -4.2201  -4.1198  -4.0492  -4.0492  -3.8549  -3.5887
    -3.5887  -3.4042  -3.4042  -3.0482  -3.0311  -3.0311  -2.4455  -2.4252
    -2.4252  -2.2184   0.6551   1.2701   1.2701   3.7491   3.7491   3.8455
     6.2784   6.4583   6.5608   6.7392   6.7679   7.1279

     occupation numbers 
     1.0000   1.0000   1.0000   1.0000   1.0000   1.0000   1.0000   1.0000
     1.0000   1.0000   1.0000   1.0000   1.0000   1.0000   1.0000   1.0000
     1.0000   1.0000   1.0000   1.0000   1.0000   1.0000   1.0000   1.0000
     1.0000   1.0000   1.0000   1.0000   1.0000   1.0000   1.0000   1.0000
     1.0000   1.0000   1.0000   1.0000   1.0000   1.0000   1.0000   1.0000
     1.0000   1.0000   1.0000   1.0000   1.0000   0.0000   0.0000   0.0000
     0.0000   0.0000   0.0000   0.0000   0.0000   0.0000

          k =-0.7071 0.3536 0.0000 ( 29596 PWs)   bands (ev):

   -73.3719 -66.9840 -43.0069 -43.0041 -43.0040 -39.5131 -39.5126 -39.5017
   -32.0654 -18.7638 -18.6857 -18.6343 -18.6338 -18.6001 -18.5999 -14.2202
   -14.2193 -14.2192  -8.0064  -7.7759  -6.5593  -6.4531  -6.4464  -6.4326
    -4.9194  -4.4274  -4.2708  -4.2577  -3.9548  -3.8751  -3.8497  -3.7446
    -3.5835  -3.4021  -3.3577  -3.1953  -2.9452  -2.8314  -2.6924  -2.5665
    -2.2728  -2.2637   1.0985   1.1163   1.2826   3.6203   3.6207   3.7464
     6.5114   6.5125   6.5654   6.6488   6.8146   7.0304

     occupation numbers 
     1.0000   1.0000   1.0000   1.0000   1.0000   1.0000   1.0000   1.0000
     1.0000   1.0000   1.0000   1.0000   1.0000   1.0000   1.0000   1.0000
     1.0000   1.0000   1.0000   1.0000   1.0000   1.0000   1.0000   1.0000
     1.0000   1.0000   1.0000   1.0000   1.0000   1.0000   1.0000   1.0000
     1.0000   1.0000   1.0000   1.0000   1.0000   1.0000   1.0000   1.0000
     1.0000   1.0000   1.0000   1.0000   1.0000   0.0000   0.0000   0.0000
     0.0000   0.0000   0.0000   0.0000   0.0000   0.0000

     the Fermi energy is     2.5608 ev

!    total energy              =    -576.25952764 Ry
     estimated scf accuracy    <       0.00000010 Ry
     smearing contrib. (-TS)   =      -0.00000000 Ry
     internal energy E=F+TS    =    -576.25952764 Ry

     total magnetization       =     0.00 Bohr mag/cell
     absolute magnetization    =     7.31 Bohr mag/cell

     convergence has been achieved in   2 iterations

     Using ACE for calculation of exact exchange
     ACE projected onto    54 (nbndproj) and applied to    54 (nbnd) bands

     total energy              =    -576.25952802 Ry
     Harris-Foulkes estimate   =    -576.25952801 Ry
     est. exchange err (dexx)  =       0.00000038 Ry
     - averaged Fock potential =      38.77519422 Ry
     + Fock energy (ACE)       =     -19.38773514 Ry

     EXX: now go back to refine exchange calculation

     total cpu time spent up to now is     5854.5 secs

     Self-consistent Calculation

     iteration #  1     ecut=    90.00 Ry     beta= 0.30
     Davidson diagonalization with overlap

---- Real-time Memory Report at c_bands before calling an iterative solver
          2458 MiB given to the printing process from OS
         -1844 MiB allocation reported by mallinfo(arena+hblkhd)
        264765 MiB available memory on the node where the printing process lives
------------------
     ethr =  2.31E-10,  avg # of iterations =  5.9

     total cpu time spent up to now is     5864.8 secs

     total energy              =    -576.25952831 Ry
     estimated scf accuracy    <       0.00000021 Ry

     total magnetization       =     0.00 Bohr mag/cell
     absolute magnetization    =     7.32 Bohr mag/cell

     iteration #  2     ecut=    90.00 Ry     beta= 0.30
     Davidson diagonalization with overlap

---- Real-time Memory Report at c_bands before calling an iterative solver
          2458 MiB given to the printing process from OS
         -1827 MiB allocation reported by mallinfo(arena+hblkhd)
        263791 MiB available memory on the node where the printing process lives
------------------
     ethr =  2.32E-10,  avg # of iterations =  1.6

     Magnetic moment per site  (integrated on atomic sphere of radius R)
     atom   1 (R=0.208)  charge=  7.9773  magn= -0.0017
     atom   2 (R=0.115)  charge= 10.1256  magn= -2.0121
     atom   3 (R=0.112)  charge= 11.0430  magn=  2.3285
     atom   4 (R=0.064)  charge=  1.0113  magn= -0.0481
     atom   5 (R=0.064)  charge=  1.0113  magn= -0.0481
     atom   6 (R=0.064)  charge=  1.0113  magn= -0.0481
     atom   7 (R=0.064)  charge=  1.0113  magn= -0.0481
     atom   8 (R=0.064)  charge=  1.0113  magn= -0.0481
     atom   9 (R=0.064)  charge=  1.0113  magn= -0.0481
     atom  10 (R=0.064)  charge=  1.8196  magn=  0.0569
     atom  11 (R=0.064)  charge=  1.8196  magn=  0.0569
     atom  12 (R=0.064)  charge=  1.8196  magn=  0.0569
     atom  13 (R=0.064)  charge=  1.8196  magn=  0.0569
     atom  14 (R=0.064)  charge=  1.8196  magn=  0.0569
     atom  15 (R=0.064)  charge=  1.8196  magn=  0.0569

     total cpu time spent up to now is     5871.4 secs

     End of self-consistent calculation

 ------ SPIN UP ------------


          k = 0.0000 0.0000 0.0000 ( 29627 PWs)   bands (ev):

   -76.9825 -63.9340 -47.0114 -47.0114 -47.0114 -36.1520 -36.1520 -36.1520
   -32.0644 -18.9132 -18.7067 -18.7067 -18.7067 -18.6656 -18.6656 -14.2215
   -14.2215 -14.2215  -8.5506  -6.5183  -6.5183  -6.5183  -6.5032  -6.5032
    -5.9909  -4.4216  -4.4216  -4.4216  -4.1345  -4.1345  -3.5627  -3.5627
    -3.5627  -3.0719  -3.0719  -3.0719  -2.8981  -2.8981  -2.8981  -2.5412
    -2.5412  -2.5412  -1.7653  -1.7653  -1.7653   4.9418   4.9418   4.9418
     5.3083   5.3083   5.5370   6.4940   6.4940   6.4940

     occupation numbers 
     1.0000   1.0000   1.0000   1.0000   1.0000   1.0000   1.0000   1.0000
     1.0000   1.0000   1.0000   1.0000   1.0000   1.0000   1.0000   1.0000
     1.0000   1.0000   1.0000   1.0000   1.0000   1.0000   1.0000   1.0000
     1.0000   1.0000   1.0000   1.0000   1.0000   1.0000   1.0000   1.0000
     1.0000   1.0000   1.0000   1.0000   1.0000   1.0000   1.0000   1.0000
     1.0000   1.0000   1.0000   1.0000   1.0000   0.0000   0.0000   0.0000
     0.0000   0.0000   0.0000   0.0000   0.0000   0.0000

          k = 0.1768 0.1768-0.1768 ( 29651 PWs)   bands (ev):

   -76.9802 -63.9339 -47.0091 -47.0083 -47.0083 -36.1520 -36.1520 -36.1517
   -32.0644 -18.8906 -18.7327 -18.7014 -18.7014 -18.6723 -18.6723 -14.2210
   -14.2210 -14.2196  -8.3836  -7.1177  -6.5246  -6.5246  -6.4632  -6.4632
    -5.4250  -4.4199  -4.3284  -4.3284  -4.1538  -4.1538  -3.7368  -3.6886
    -3.6886  -3.2795  -3.2795  -3.0083  -2.9771  -2.9058  -2.9058  -2.6180
    -2.4523  -2.4523  -1.6481  -1.6232  -1.6232   5.0345   5.1137   5.1137
     5.3496   5.3496   5.8561   6.3512   6.5528   6.5531

     occupation numbers 
     1.0000   1.0000   1.0000   1.0000   1.0000   1.0000   1.0000   1.0000
     1.0000   1.0000   1.0000   1.0000   1.0000   1.0000   1.0000   1.0000
     1.0000   1.0000   1.0000   1.0000   1.0000   1.0000   1.0000   1.0000
     1.0000   1.0000   1.0000   1.0000   1.0000   1.0000   1.0000   1.0000
     1.0000   1.0000   1.0000   1.0000   1.0000   1.0000   1.0000   1.0000
     1.0000   1.0000   1.0000   1.0000   1.0000   0.0000   0.0000   0.0000
     0.0000   0.0000   0.0000   0.0000   0.0000   0.0000

          k =-0.3536-0.3536 0.3536 ( 29580 PWs)   bands (ev):

   -76.9779 -63.9339 -47.0068 -47.0053 -47.0053 -36.1519 -36.1519 -36.1515
   -32.0644 -18.8560 -18.7708 -18.6883 -18.6883 -18.6869 -18.6869 -14.2204
   -14.2204 -14.2177  -8.0506  -7.6668  -6.5201  -6.5201  -6.4331  -6.4331
    -4.9947  -4.4645  -4.2381  -4.2381  -4.0505  -4.0505  -3.9389  -3.9173
    -3.9173  -3.4967  -3.4967  -3.0471  -2.8968  -2.8568  -2.8568  -2.7425
    -2.4022  -2.4022  -1.5461  -1.5076  -1.5076   5.1573   5.3527   5.3528
     5.4140   5.4140   6.0965   6.3358   6.3358   6.4658

     occupation numbers 
     1.0000   1.0000   1.0000   1.0000   1.0000   1.0000   1.0000   1.0000
     1.0000   1.0000   1.0000   1.0000   1.0000   1.0000   1.0000   1.0000
     1.0000   1.0000   1.0000   1.0000   1.0000   1.0000   1.0000   1.0000
     1.0000   1.0000   1.0000   1.0000   1.0000   1.0000   1.0000   1.0000
     1.0000   1.0000   1.0000   1.0000   1.0000   1.0000   1.0000   1.0000
     1.0000   1.0000   1.0000   1.0000   1.0000   0.0000   0.0000   0.0000
     0.0000   0.0000   0.0000   0.0000   0.0000   0.0000

          k = 0.3536 0.0000 0.0000 ( 29706 PWs)   bands (ev):

   -76.9798 -63.9340 -47.0088 -47.0088 -47.0070 -36.1519 -36.1519 -36.1518
   -32.0644 -18.8850 -18.7221 -18.7082 -18.7082 -18.6834 -18.6658 -14.2205
   -14.2205 -14.2196  -8.3600  -7.1681  -6.5043  -6.4821  -6.4821  -6.4532
    -5.3905  -4.4446  -4.2785  -4.2785  -4.2289  -4.1309  -3.9388  -3.6674
    -3.6674  -3.3047  -3.3047  -3.0991  -3.0383  -3.0383  -2.6032  -2.5431
    -2.4772  -2.4772  -1.7649  -1.5233  -1.5233   4.9479   5.2746   5.2746
     5.3387   5.3393   5.9683   6.5050   6.5600   6.5601

     occupation numbers 
     1.0000   1.0000   1.0000   1.0000   1.0000   1.0000   1.0000   1.0000
     1.0000   1.0000   1.0000   1.0000   1.0000   1.0000   1.0000   1.0000
     1.0000   1.0000   1.0000   1.0000   1.0000   1.0000   1.0000   1.0000
     1.0000   1.0000   1.0000   1.0000   1.0000   1.0000   1.0000   1.0000
     1.0000   1.0000   1.0000   1.0000   1.0000   1.0000   1.0000   1.0000
     1.0000   1.0000   1.0000   1.0000   1.0000   0.0000   0.0000   0.0000
     0.0000   0.0000   0.0000   0.0000   0.0000   0.0000

          k =-0.1768-0.5303 0.5303 ( 29607 PWs)   bands (ev):

   -76.9780 -63.9340 -47.0068 -47.0062 -47.0051 -36.1520 -36.1520 -36.1518
   -32.0645 -18.8537 -18.7564 -18.7031 -18.7009 -18.6923 -18.6722 -14.2199
   -14.2195 -14.2181  -8.1220  -7.5654  -6.5132  -6.4772  -6.4375  -6.4072
    -5.0352  -4.4605  -4.3252  -4.2435  -4.1809  -4.0677  -4.0335  -3.8757
    -3.7866  -3.5053  -3.4465  -3.2280  -3.0138  -2.9697  -2.6987  -2.5665
    -2.3822  -2.3472  -1.6326  -1.4371  -1.4249   5.0857   5.3447   5.3803
     5.5081   5.6200   6.2839   6.4727   6.5245   6.6706

     occupation numbers 
     1.0000   1.0000   1.0000   1.0000   1.0000   1.0000   1.0000   1.0000
     1.0000   1.0000   1.0000   1.0000   1.0000   1.0000   1.0000   1.0000
     1.0000   1.0000   1.0000   1.0000   1.0000   1.0000   1.0000   1.0000
     1.0000   1.0000   1.0000   1.0000   1.0000   1.0000   1.0000   1.0000
     1.0000   1.0000   1.0000   1.0000   1.0000   1.0000   1.0000   1.0000
     1.0000   1.0000   1.0000   1.0000   1.0000   0.0000   0.0000   0.0000
     0.0000   0.0000   0.0000   0.0000   0.0000   0.0000

          k = 0.0000-0.3536 0.3536 ( 29650 PWs)   bands (ev):

   -76.9783 -63.9339 -47.0067 -47.0066 -47.0057 -36.1520 -36.1519 -36.1517
   -32.0644 -18.8626 -18.7538 -18.7092 -18.6885 -18.6867 -18.6761 -14.2204
   -14.2195 -14.2186  -8.1692  -7.5032  -6.5235  -6.4831  -6.4452  -6.4289
    -5.0983  -4.4170  -4.3089  -4.2154  -4.1956  -4.1399  -3.9433  -3.8852
    -3.7096  -3.4658  -3.3990  -3.2402  -2.9712  -2.8614  -2.7310  -2.7133
    -2.4207  -2.3479  -1.5400  -1.5201  -1.5084   5.1798   5.3091   5.3480
     5.3491   5.4107   6.1944   6.3642   6.6175   6.7060

     occupation numbers 
     1.0000   1.0000   1.0000   1.0000   1.0000   1.0000   1.0000   1.0000
     1.0000   1.0000   1.0000   1.0000   1.0000   1.0000   1.0000   1.0000
     1.0000   1.0000   1.0000   1.0000   1.0000   1.0000   1.0000   1.0000
     1.0000   1.0000   1.0000   1.0000   1.0000   1.0000   1.0000   1.0000
     1.0000   1.0000   1.0000   1.0000   1.0000   1.0000   1.0000   1.0000
     1.0000   1.0000   1.0000   1.0000   1.0000   0.0000   0.0000   0.0000
     0.0000   0.0000   0.0000   0.0000   0.0000   0.0000

          k =-0.7071 0.0000 0.0000 ( 29554 PWs)   bands (ev):

   -76.9783 -63.9341 -47.0072 -47.0072 -47.0046 -36.1520 -36.1520 -36.1519
   -32.0645 -18.8508 -18.7334 -18.7108 -18.7096 -18.7096 -18.6659 -14.2194
   -14.2194 -14.2177  -8.1745  -7.4810  -6.5053  -6.4431  -6.4431  -6.3652
    -5.1000  -4.4949  -4.3936  -4.3015  -4.1271  -4.0455  -4.0455  -3.8531
    -3.8531  -3.5165  -3.5165  -3.1259  -3.1170  -3.1170  -2.5450  -2.4460
    -2.4460  -2.2476  -1.7645  -1.3531  -1.3531   4.9626   5.2974   5.3680
     6.0032   6.0032   6.3637   6.6221   6.6223   6.8400

     occupation numbers 
     1.0000   1.0000   1.0000   1.0000   1.0000   1.0000   1.0000   1.0000
     1.0000   1.0000   1.0000   1.0000   1.0000   1.0000   1.0000   1.0000
     1.0000   1.0000   1.0000   1.0000   1.0000   1.0000   1.0000   1.0000
     1.0000   1.0000   1.0000   1.0000   1.0000   1.0000   1.0000   1.0000
     1.0000   1.0000   1.0000   1.0000   1.0000   1.0000   1.0000   1.0000
     1.0000   1.0000   1.0000   1.0000   1.0000   0.0000   0.0000   0.0000
     0.0000   0.0000   0.0000   0.0000   0.0000   0.0000

          k =-0.7071 0.3536 0.0000 ( 29596 PWs)   bands (ev):

   -76.9777 -63.9340 -47.0062 -47.0054 -47.0053 -36.1519 -36.1519 -36.1519
   -32.0645 -18.8435 -18.7578 -18.7105 -18.7099 -18.6794 -18.6793 -14.2194
   -14.2186 -14.2185  -8.0610  -7.6425  -6.5154  -6.4580  -6.4089  -6.4023
    -4.9666  -4.4758  -4.4121  -4.3048  -4.1399  -4.0291  -4.0126  -3.8924
    -3.8486  -3.5157  -3.4660  -3.3118  -3.0604  -2.9089  -2.7751  -2.5718
    -2.3009  -2.2997  -1.5283  -1.5213  -1.3530   5.2170   5.3169   5.3432
     5.3944   6.0039   6.5984   6.6196   6.6522   6.8853

     occupation numbers 
     1.0000   1.0000   1.0000   1.0000   1.0000   1.0000   1.0000   1.0000
     1.0000   1.0000   1.0000   1.0000   1.0000   1.0000   1.0000   1.0000
     1.0000   1.0000   1.0000   1.0000   1.0000   1.0000   1.0000   1.0000
     1.0000   1.0000   1.0000   1.0000   1.0000   1.0000   1.0000   1.0000
     1.0000   1.0000   1.0000   1.0000   1.0000   1.0000   1.0000   1.0000
     1.0000   1.0000   1.0000   1.0000   1.0000   0.0000   0.0000   0.0000
     0.0000   0.0000   0.0000   0.0000   0.0000   0.0000

 ------ SPIN DOWN ----------


          k = 0.0000 0.0000 0.0000 ( 29627 PWs)   bands (ev):

   -73.3612 -67.0319 -42.9912 -42.9912 -42.9912 -39.5678 -39.5678 -39.5678
   -32.0652 -18.8386 -18.6294 -18.6294 -18.6294 -18.5844 -18.5844 -14.2223
   -14.2223 -14.2223  -8.5849  -6.5593  -6.5593  -6.5593  -6.4951  -6.4951
    -5.9799  -4.2479  -4.2479  -4.2479  -3.8620  -3.8620  -3.5655  -3.5655
    -3.5655  -2.9904  -2.9904  -2.9904  -2.8803  -2.8803  -2.8803  -2.4412
    -2.4412  -2.4412   0.6451   0.6451   0.6451   3.8338   3.8338   3.8338
     5.5610   6.3455   6.3455   6.3455   6.4316   6.4317

     occupation numbers 
     1.0000   1.0000   1.0000   1.0000   1.0000   1.0000   1.0000   1.0000
     1.0000   1.0000   1.0000   1.0000   1.0000   1.0000   1.0000   1.0000
     1.0000   1.0000   1.0000   1.0000   1.0000   1.0000   1.0000   1.0000
     1.0000   1.0000   1.0000   1.0000   1.0000   1.0000   1.0000   1.0000
     1.0000   1.0000   1.0000   1.0000   1.0000   1.0000   1.0000   1.0000
     1.0000   1.0000   1.0000   1.0000   1.0000   0.0000   0.0000   0.0000
     0.0000   0.0000   0.0000   0.0000   0.0000   0.0000

          k = 0.1768 0.1768-0.1768 ( 29651 PWs)   bands (ev):

   -73.3674 -67.0026 -42.9995 -42.9995 -42.9990 -39.5336 -39.5316 -39.5316
   -32.0653 -18.8152 -18.6575 -18.6239 -18.6239 -18.5921 -18.5921 -14.2217
   -14.2217 -14.2203  -8.4108  -7.1728  -6.5806  -6.5806  -6.4399  -6.4399
    -5.4024  -4.3252  -4.1742  -4.1742  -3.9372  -3.9372  -3.6071  -3.6071
    -3.5885  -3.1938  -3.1938  -3.0234  -2.9246  -2.8258  -2.8258  -2.5236
    -2.4013  -2.4013   0.8997   0.9109   0.9109   3.6099   3.6708   3.6708
     5.8733   6.4054   6.4057   6.5384   6.9399   6.9439

     occupation numbers 
     1.0000   1.0000   1.0000   1.0000   1.0000   1.0000   1.0000   1.0000
     1.0000   1.0000   1.0000   1.0000   1.0000   1.0000   1.0000   1.0000
     1.0000   1.0000   1.0000   1.0000   1.0000   1.0000   1.0000   1.0000
     1.0000   1.0000   1.0000   1.0000   1.0000   1.0000   1.0000   1.0000
     1.0000   1.0000   1.0000   1.0000   1.0000   1.0000   1.0000   1.0000
     1.0000   1.0000   1.0000   1.0000   1.0000   0.0000   0.0000   0.0000
     0.0000   0.0000   0.0000   0.0000   0.0000   0.0000

          k =-0.3536-0.3536 0.3536 ( 29580 PWs)   bands (ev):

   -73.3670 -67.0043 -42.9990 -42.9990 -42.9986 -39.5356 -39.5335 -39.5335
   -32.0654 -18.7767 -18.6995 -18.6097 -18.6097 -18.6077 -18.6077 -14.2212
   -14.2212 -14.2184  -7.9895  -7.8128  -6.5860  -6.5860  -6.3938  -6.3938
    -4.8955  -4.5521  -4.1316  -4.1316  -3.9178  -3.9178  -3.5824  -3.5824
    -3.5685  -3.5257  -3.5257  -3.1870  -2.8037  -2.7160  -2.7160  -2.6584
    -2.4003  -2.4003   1.1180   1.1332   1.1332   3.3744   3.4938   3.4938
     6.3228   6.7317   6.7319   6.8008   6.8650   6.8654

     occupation numbers 
     1.0000   1.0000   1.0000   1.0000   1.0000   1.0000   1.0000   1.0000
     1.0000   1.0000   1.0000   1.0000   1.0000   1.0000   1.0000   1.0000
     1.0000   1.0000   1.0000   1.0000   1.0000   1.0000   1.0000   1.0000
     1.0000   1.0000   1.0000   1.0000   1.0000   1.0000   1.0000   1.0000
     1.0000   1.0000   1.0000   1.0000   1.0000   1.0000   1.0000   1.0000
     1.0000   1.0000   1.0000   1.0000   1.0000   0.0000   0.0000   0.0000
     0.0000   0.0000   0.0000   0.0000   0.0000   0.0000

          k = 0.3536 0.0000 0.0000 ( 29706 PWs)   bands (ev):

   -73.3690 -66.9940 -43.0054 -42.9993 -42.9993 -39.5307 -39.5307 -39.5042
   -32.0653 -18.8094 -18.6457 -18.6317 -18.6317 -18.6041 -18.5854 -14.2212
   -14.2212 -14.2204  -8.3846  -7.2229  -6.5254  -6.5254  -6.4979  -6.4625
    -5.3561  -4.2831  -4.1658  -4.1658  -4.1057  -3.8594  -3.8193  -3.5243
    -3.5243  -3.2509  -3.2509  -3.0223  -2.9721  -2.9721  -2.5732  -2.4436
    -2.4250  -2.4250   0.6596   1.1006   1.1006   3.6165   3.6165   3.8408
     5.9603   6.2606   6.4526   6.6376   6.7544   7.1337

     occupation numbers 
     1.0000   1.0000   1.0000   1.0000   1.0000   1.0000   1.0000   1.0000
     1.0000   1.0000   1.0000   1.0000   1.0000   1.0000   1.0000   1.0000
     1.0000   1.0000   1.0000   1.0000   1.0000   1.0000   1.0000   1.0000
     1.0000   1.0000   1.0000   1.0000   1.0000   1.0000   1.0000   1.0000
     1.0000   1.0000   1.0000   1.0000   1.0000   1.0000   1.0000   1.0000
     1.0000   1.0000   1.0000   1.0000   1.0000   0.0000   0.0000   0.0000
     0.0000   0.0000   0.0000   0.0000   0.0000   0.0000

          k =-0.1768-0.5303 0.5303 ( 29607 PWs)   bands (ev):

   -73.3700 -66.9892 -43.0042 -43.0022 -43.0019 -39.5198 -39.5185 -39.5095
   -32.0654 -18.7751 -18.6836 -18.6259 -18.6236 -18.6140 -18.5922 -14.2207
   -14.2202 -14.2188  -8.1050  -7.6627  -6.5603  -6.5269  -6.4240  -6.4145
    -4.9780  -4.4406  -4.2588  -4.1017  -4.0478  -3.8746  -3.8564  -3.6126
    -3.4833  -3.4582  -3.4350  -3.1645  -2.9109  -2.8799  -2.6127  -2.5321
    -2.3491  -2.3233   0.9133   1.2397   1.2450   3.5504   3.6038   3.6644
     6.3634   6.5419   6.6468   6.6804   6.8507   6.9034

     occupation numbers 
     1.0000   1.0000   1.0000   1.0000   1.0000   1.0000   1.0000   1.0000
     1.0000   1.0000   1.0000   1.0000   1.0000   1.0000   1.0000   1.0000
     1.0000   1.0000   1.0000   1.0000   1.0000   1.0000   1.0000   1.0000
     1.0000   1.0000   1.0000   1.0000   1.0000   1.0000   1.0000   1.0000
     1.0000   1.0000   1.0000   1.0000   1.0000   1.0000   1.0000   1.0000
     1.0000   1.0000   1.0000   1.0000   1.0000   0.0000   0.0000   0.0000
     0.0000   0.0000   0.0000   0.0000   0.0000   0.0000

          k = 0.0000-0.3536 0.3536 ( 29650 PWs)   bands (ev):

   -73.3710 -66.9848 -43.0059 -43.0032 -43.0028 -39.5159 -39.5142 -39.5018
   -32.0654 -18.7851 -18.6804 -18.6335 -18.6098 -18.6075 -18.5968 -14.2212
   -14.2203 -14.2193  -8.1689  -7.5884  -6.5888  -6.4916  -6.4868  -6.3933
    -5.0436  -4.3694  -4.2981  -4.0864  -3.9663  -3.9540  -3.7858  -3.5775
    -3.5109  -3.4842  -3.2633  -3.2368  -2.8922  -2.7280  -2.7230  -2.6147
    -2.4126  -2.3064   1.0936   1.1144   1.1378   3.4504   3.5799   3.6595
     6.2552   6.5127   6.5246   6.7264   6.8676   7.2136

     occupation numbers 
     1.0000   1.0000   1.0000   1.0000   1.0000   1.0000   1.0000   1.0000
     1.0000   1.0000   1.0000   1.0000   1.0000   1.0000   1.0000   1.0000
     1.0000   1.0000   1.0000   1.0000   1.0000   1.0000   1.0000   1.0000
     1.0000   1.0000   1.0000   1.0000   1.0000   1.0000   1.0000   1.0000
     1.0000   1.0000   1.0000   1.0000   1.0000   1.0000   1.0000   1.0000
     1.0000   1.0000   1.0000   1.0000   1.0000   0.0000   0.0000   0.0000
     0.0000   0.0000   0.0000   0.0000   0.0000   0.0000

          k =-0.7071 0.0000 0.0000 ( 29554 PWs)   bands (ev):

   -73.3651 -67.0095 -42.9985 -42.9952 -42.9952 -39.5458 -39.5458 -39.5299
   -32.0654 -18.7721 -18.6579 -18.6341 -18.6327 -18.6327 -18.5850 -14.2202
   -14.2202 -14.2184  -8.1659  -7.5542  -6.4982  -6.4849  -6.4849  -6.4077
    -5.0608  -4.4225  -4.2201  -4.1196  -4.0492  -4.0492  -3.8547  -3.5885
    -3.5885  -3.4042  -3.4042  -3.0482  -3.0311  -3.0311  -2.4454  -2.4252
    -2.4252  -2.2184   0.6565   1.2719   1.2719   3.7495   3.7495   3.8464
     6.2784   6.4593   6.5617   6.7391   6.7677   7.1294

     occupation numbers 
     1.0000   1.0000   1.0000   1.0000   1.0000   1.0000   1.0000   1.0000
     1.0000   1.0000   1.0000   1.0000   1.0000   1.0000   1.0000   1.0000
     1.0000   1.0000   1.0000   1.0000   1.0000   1.0000   1.0000   1.0000
     1.0000   1.0000   1.0000   1.0000   1.0000   1.0000   1.0000   1.0000
     1.0000   1.0000   1.0000   1.0000   1.0000   1.0000   1.0000   1.0000
     1.0000   1.0000   1.0000   1.0000   1.0000   0.0000   0.0000   0.0000
     0.0000   0.0000   0.0000   0.0000   0.0000   0.0000

          k =-0.7071 0.3536 0.0000 ( 29596 PWs)   bands (ev):

   -73.3710 -66.9827 -43.0058 -43.0031 -43.0030 -39.5119 -39.5114 -39.5012
   -32.0654 -18.7637 -18.6857 -18.6343 -18.6338 -18.6001 -18.5998 -14.2202
   -14.2193 -14.2192  -8.0062  -7.7759  -6.5592  -6.4530  -6.4464  -6.4325
    -4.9193  -4.4273  -4.2707  -4.2575  -3.9546  -3.8748  -3.8496  -3.7445
    -3.5833  -3.4021  -3.3575  -3.1951  -2.9451  -2.8313  -2.6922  -2.5663
    -2.2727  -2.2636   1.0973   1.1150   1.2835   3.6211   3.6216   3.7470
     6.5103   6.5114   6.5658   6.6488   6.7912   7.0110

     occupation numbers 
     1.0000   1.0000   1.0000   1.0000   1.0000   1.0000   1.0000   1.0000
     1.0000   1.0000   1.0000   1.0000   1.0000   1.0000   1.0000   1.0000
     1.0000   1.0000   1.0000   1.0000   1.0000   1.0000   1.0000   1.0000
     1.0000   1.0000   1.0000   1.0000   1.0000   1.0000   1.0000   1.0000
     1.0000   1.0000   1.0000   1.0000   1.0000   1.0000   1.0000   1.0000
     1.0000   1.0000   1.0000   1.0000   1.0000   0.0000   0.0000   0.0000
     0.0000   0.0000   0.0000   0.0000   0.0000   0.0000

     the Fermi energy is     2.5466 ev

!    total energy              =    -576.25952827 Ry
     estimated scf accuracy    <       0.00000009 Ry
     smearing contrib. (-TS)   =      -0.00000000 Ry
     internal energy E=F+TS    =    -576.25952827 Ry

     total magnetization       =     0.00 Bohr mag/cell
     absolute magnetization    =     7.32 Bohr mag/cell

     convergence has been achieved in   2 iterations

     Using ACE for calculation of exact exchange
     ACE projected onto    54 (nbndproj) and applied to    54 (nbnd) bands

!!   total energy              =    -576.25952840 Ry
     Harris-Foulkes estimate   =    -576.25952844 Ry
     est. exchange err (dexx)  =       0.00000012 Ry
     - averaged Fock potential =      38.77556584 Ry
     + Fock energy (ACE)       =     -19.38783082 Ry

     EXX self-consistency reached

     Writing all to output data dir /tmp/scratch/48374856/hse_lcm/hse_lcm.save/ :
     XML data file, charge density, pseudopotentials, collected wavefunctions

     init_run     :      3.28s CPU      3.99s WALL (       1 calls)
     electrons    :    432.67s CPU    514.47s WALL (       8 calls)

     Called by init_run:
     aceinit0     :      0.00s CPU      0.00s WALL (       1 calls)
     wfcinit      :      1.68s CPU      2.19s WALL (       1 calls)
     wfcinit:atom :      0.03s CPU      0.04s WALL (       2 calls)
     wfcinit:wfcr :      1.59s CPU      2.09s WALL (       2 calls)
     potinit      :      0.81s CPU      0.94s WALL (       1 calls)
     hinit0       :      0.50s CPU      0.52s WALL (       1 calls)

     Called by electrons:
     c_bands      :    312.71s CPU    372.38s WALL (      66 calls)
     sum_band     :     60.73s CPU     75.40s WALL (      66 calls)
     v_of_rho     :     17.84s CPU     20.90s WALL (      68 calls)
     v_h          :      0.61s CPU      0.86s WALL (      68 calls)
     v_xc         :     17.19s CPU     20.02s WALL (      68 calls)
     mix_rho      :     24.96s CPU     28.71s WALL (      66 calls)

     Called by c_bands:
     init_us_2    :      1.99s CPU      2.04s WALL (     266 calls)
     cegterg      :    281.54s CPU    340.25s WALL (     132 calls)

     Called by sum_band:
     sum_band:wei :      0.26s CPU      0.29s WALL (      66 calls)
     sum_band:loo :     51.41s CPU     62.92s WALL (      66 calls)
     sum_band:buf :      0.28s CPU      0.37s WALL (     132 calls)
     sum_band:ini :      1.05s CPU      1.03s WALL (     132 calls)

     Called by *egterg:
     cdiaghg      :      2.44s CPU      2.74s WALL (     585 calls)
     cegterg:over :      8.09s CPU      8.79s WALL (     467 calls)
     cegterg:upda :      2.95s CPU      2.95s WALL (     467 calls)
     cegterg:last :      4.16s CPU      4.25s WALL (     309 calls)
     h_psi        :    259.36s CPU    317.33s WALL (     601 calls)
     g_psi        :      0.50s CPU      0.45s WALL (     467 calls)

     Called by h_psi:
     h_psi:calbec :      8.31s CPU      8.78s WALL (     601 calls)
     vloc_psi     :    240.43s CPU    297.28s WALL (     601 calls)
                                        0.00s GPU  (     601 calls)
     add_vuspsi   :      4.44s CPU      4.79s WALL (     601 calls)

     General routines
     calbec       :     11.69s CPU     12.37s WALL (    1029 calls)
     fft          :      9.08s CPU     12.34s WALL (    1272 calls)
     ffts         :     13.57s CPU     17.90s WALL (    3968 calls)
     fftw         :    250.08s CPU    317.37s WALL (   47226 calls)
     fftc         :   3871.13s CPU   5087.53s WALL (  746496 calls)
     fftcw        :      9.66s CPU     11.70s WALL (    2592 calls)

     Parallel routines

     EXX routines
     exx_grid     :      0.01s CPU      0.00s WALL (       1 calls)
     exxinit      :    195.57s CPU    322.99s WALL (       8 calls)
     vexx         :   4590.69s CPU   5823.29s WALL (      16 calls)
     matcalc      :      3.57s CPU      3.83s WALL (     428 calls)
     aceupdate    :      0.08s CPU      0.08s WALL (      16 calls)
     vexxace      :      5.23s CPU      5.62s WALL (     382 calls)
     aceinit      :   4590.97s CPU   5823.59s WALL (      16 calls)

     PWSCF        :      1h27m CPU      1h51m WALL


   This run was terminated on:  21:54: 0   4Oct2026            

=------------------------------------------------------------------------------=
   JOB DONE.
=------------------------------------------------------------------------------=
Note: The following floating-point exceptions are signalling: IEEE_UNDERFLOW_FLAG IEEE_DENORMAL
Note: The following floating-point exceptions are signalling: IEEE_UNDERFLOW_FLAG IEEE_DENORMAL
Note: The following floating-point exceptions are signalling: IEEE_UNDERFLOW_FLAG IEEE_DENORMAL
Note: The following floating-point exceptions are signalling: IEEE_UNDERFLOW_FLAG IEEE_DENORMAL
Note: The following floating-point exceptions are signalling: IEEE_UNDERFLOW_FLAG IEEE_DENORMAL
Note: The following floating-point exceptions are signalling: IEEE_UNDERFLOW_FLAG IEEE_DENORMAL
Note: The following floating-point exceptions are signalling: IEEE_UNDERFLOW_FLAG IEEE_DENORMAL
Note: The following floating-point exceptions are signalling: IEEE_UNDERFLOW_FLAG IEEE_DENORMAL
Note: The following floating-point exceptions are signalling: IEEE_UNDERFLOW_FLAG IEEE_DENORMAL
Note: The following floating-point exceptions are signalling: IEEE_UNDERFLOW_FLAG IEEE_DENORMAL
Note: The following floating-point exceptions are signalling: IEEE_UNDERFLOW_FLAG IEEE_DENORMAL
Note: The following floating-point exceptions are signalling: IEEE_UNDERFLOW_FLAG IEEE_DENORMAL
Note: The following floating-point exceptions are signalling: IEEE_UNDERFLOW_FLAG IEEE_DENORMAL
Note: The following floating-point exceptions are signalling: IEEE_UNDERFLOW_FLAG IEEE_DENORMAL
Note: The following floating-point exceptions are signalling: IEEE_UNDERFLOW_FLAG IEEE_DENORMAL
Note: The following floating-point exceptions are signalling: IEEE_UNDERFLOW_FLAG IEEE_DENORMAL
Note: The following floating-point exceptions are signalling: IEEE_UNDERFLOW_FLAG IEEE_DENORMAL
Note: The following floating-point exceptions are signalling: IEEE_UNDERFLOW_FLAG IEEE_DENORMAL
Note: The following floating-point exceptions are signalling: IEEE_UNDERFLOW_FLAG IEEE_DENORMAL
Note: The following floating-point exceptions are signalling: IEEE_UNDERFLOW_FLAG IEEE_DENORMAL
Note: The following floating-point exceptions are signalling: IEEE_UNDERFLOW_FLAG IEEE_DENORMAL
Note: The following floating-point exceptions are signalling: IEEE_UNDERFLOW_FLAG IEEE_DENORMAL
Note: The following floating-point exceptions are signalling: IEEE_UNDERFLOW_FLAG IEEE_DENORMAL
Note: The following floating-point exceptions are signalling: IEEE_UNDERFLOW_FLAG IEEE_DENORMAL
Note: The following floating-point exceptions are signalling: IEEE_UNDERFLOW_FLAG IEEE_DENORMAL
Note: The following floating-point exceptions are signalling: IEEE_UNDERFLOW_FLAG IEEE_DENORMAL
Note: The following floating-point exceptions are signalling: IEEE_UNDERFLOW_FLAG IEEE_DENORMAL
Note: The following floating-point exceptions are signalling: IEEE_UNDERFLOW_FLAG IEEE_DENORMAL
Note: The following floating-point exceptions are signalling: IEEE_UNDERFLOW_FLAG IEEE_DENORMAL
Note: The following floating-point exceptions are signalling: IEEE_UNDERFLOW_FLAG IEEE_DENORMAL
Note: The following floating-point exceptions are signalling: IEEE_UNDERFLOW_FLAG IEEE_DENORMAL
Note: The following floating-point exceptions are signalling: IEEE_UNDERFLOW_FLAG IEEE_DENORMAL
Note: The following floating-point exceptions are signalling: IEEE_UNDERFLOW_FLAG IEEE_DENORMAL
Note: The following floating-point exceptions are signalling: IEEE_UNDERFLOW_FLAG IEEE_DENORMAL
Note: The following floating-point exceptions are signalling: IEEE_UNDERFLOW_FLAG IEEE_DENORMAL
Note: The following floating-point exceptions are signalling: IEEE_UNDERFLOW_FLAG IEEE_DENORMAL
Note: The following floating-point exceptions are signalling: IEEE_UNDERFLOW_FLAG IEEE_DENORMAL
Note: The following floating-point exceptions are signalling: IEEE_UNDERFLOW_FLAG IEEE_DENORMAL
Note: The following floating-point exceptions are signalling: IEEE_UNDERFLOW_FLAG IEEE_DENORMAL
Note: The following floating-point exceptions are signalling: IEEE_UNDERFLOW_FLAG IEEE_DENORMAL
Note: The following floating-point exceptions are signalling: IEEE_UNDERFLOW_FLAG IEEE_DENORMAL
Note: The following floating-point exceptions are signalling: IEEE_UNDERFLOW_FLAG IEEE_DENORMAL
Note: The following floating-point exceptions are signalling: IEEE_UNDERFLOW_FLAG IEEE_DENORMAL
Note: The following floating-point exceptions are signalling: IEEE_UNDERFLOW_FLAG IEEE_DENORMAL
Note: The following floating-point exceptions are signalling: IEEE_UNDERFLOW_FLAG IEEE_DENORMAL
Note: The following floating-point exceptions are signalling: IEEE_UNDERFLOW_FLAG IEEE_DENORMAL
Note: The following floating-point exceptions are signalling: IEEE_UNDERFLOW_FLAG IEEE_DENORMAL
Note: The following floating-point exceptions are signalling: IEEE_UNDERFLOW_FLAG IEEE_DENORMAL
Note: The following floating-point exceptions are signalling: IEEE_UNDERFLOW_FLAG IEEE_DENORMAL
Note: The following floating-point exceptions are signalling: IEEE_UNDERFLOW_FLAG IEEE_DENORMAL
Note: The following floating-point exceptions are signalling: IEEE_UNDERFLOW_FLAG IEEE_DENORMAL
Note: The following floating-point exceptions are signalling: IEEE_UNDERFLOW_FLAG IEEE_DENORMAL
Note: The following floating-point exceptions are signalling: IEEE_UNDERFLOW_FLAG IEEE_DENORMAL
Note: The following floating-point exceptions are signalling: IEEE_UNDERFLOW_FLAG IEEE_DENORMAL
Note: The following floating-point exceptions are signalling: IEEE_UNDERFLOW_FLAG IEEE_DENORMAL
Note: The following floating-point exceptions are signalling: IEEE_UNDERFLOW_FLAG IEEE_DENORMAL
Note: The following floating-point exceptions are signalling: IEEE_UNDERFLOW_FLAG IEEE_DENORMAL
Note: The following floating-point exceptions are signalling: IEEE_UNDERFLOW_FLAG IEEE_DENORMAL
Note: The following floating-point exceptions are signalling: IEEE_UNDERFLOW_FLAG IEEE_DENORMAL
Note: The following floating-point exceptions are signalling: IEEE_UNDERFLOW_FLAG IEEE_DENORMAL
Note: The following floating-point exceptions are signalling: IEEE_UNDERFLOW_FLAG IEEE_DENORMAL
Note: The following floating-point exceptions are signalling: IEEE_UNDERFLOW_FLAG IEEE_DENORMAL
Note: The following floating-point exceptions are signalling: IEEE_UNDERFLOW_FLAG IEEE_DENORMAL
Note: The following floating-point exceptions are signalling: IEEE_UNDERFLOW_FLAG IEEE_DENORMAL
