
     Program PWSCF v.7.5 starts on  2Oct2026 at  7:42:38 

     This program is part of the open-source Quantum ESPRESSO suite
     for quantum simulation of materials; please cite
         "P. Giannozzi et al., J. Phys.:Condens. Matter 21 395502 (2009);
         "P. Giannozzi et al., J. Phys.:Condens. Matter 29 465901 (2017);
         "P. Giannozzi et al., J. Chem. Phys. 152 154105 (2020);
          URL http://www.quantum-espresso.org", 
     in publications or presentations arising from this work. More details at
     http://www.quantum-espresso.org/quote

     Parallel version (MPI & OpenMP), running on      32 processor cores
     Number of MPI processes:                32
     Threads/MPI process:                     1

     MPI processes distributed on     1 nodes
     695534 MiB available memory on the printing compute node when the environment starts

     Reading input from single.in

     Current dimensions of program PWSCF are:
     Max number of different atomic species (ntypx) = 10
     Max number of k-points (npk) =  40000
     Max angular momentum in pseudopotentials (lmaxx) =  4
     Found identity + ( -0.5000  0.0000  0.0000) symmetry
     This is a supercell, fractional translations are disabled
     Message from routine setup:
     using ibrav=0 with symmetry is DISCOURAGED, use correct ibrav instead

     K-points division:     npool     =      16
     R & G space division:  proc/nbgrp/npool/nimage =       2
     Subspace diagonalization in iterative solution of the eigenvalue problem:
     a serial algorithm will be used


     Parallelization info
     --------------------
     sticks:   dense  smooth     PW     G-vecs:    dense   smooth      PW
     Min        3290    3290    887               192182   192182   26847
     Max        3291    3291    888               192185   192185   26848
     Sum        6581    6581   1775               384367   384367   53695

     Using Slab Decomposition



     bravais-lattice index     =            0
     lattice parameter (alat)  =      21.4102  a.u.
     unit-cell volume          =    3330.2042 (a.u.)^3
     number of atoms/cell      =           36
     number of atomic types    =            5
     number of electrons       =       328.00
     number of Kohn-Sham states=          197
     kinetic-energy cutoff     =      90.0000  Ry
     charge density cutoff     =     360.0000  Ry
     scf convergence threshold =      3.6E-07
     mixing beta               =       0.3000
     number of iterations used =            8  local-TF  mixing
     Exchange-correlation= PBE
                           (   1   4   3   4   0   0   0)
     Hubbard projectors: ortho-atomic
     Hubbard parameters of DFT+U (Dudarev formulation) in eV:
     U(Mn-3d) =  4.0000
     U(Fe-3d) =  4.0000

     Internal variables: lda_plus_u =T, lda_plus_u_kind = 0

     Internal variables: orbital_resolved =F, hub_pot_fix =F, apply_U = F

     celldm(1)=  21.410248  celldm(2)=   0.000000  celldm(3)=   0.000000
     celldm(4)=   0.000000  celldm(5)=   0.000000  celldm(6)=   0.000000

     crystal axes: (cart. coord. in units of alat)
               a(1) = (   1.000000   0.000000   0.000000 )  
               a(2) = (   0.000000   0.500000   0.000000 )  
               a(3) = (   0.000000   0.000000   0.678634 )  

     reciprocal axes: (cart. coord. in units 2 pi/alat)
               b(1) = (  1.000000  0.000000  0.000000 )  
               b(2) = (  0.000000  2.000000  0.000000 )  
               b(3) = (  0.000000  0.000000  1.473548 )  


     PseudoPot. # 1 for Ba read from file:
     /data/pseudo/dojo_sr/Ba.upf
     MD5 check sum: d1993ebf099ea5c29fdb9ecc5bd2bc91
     Pseudo is Norm-conserving + core correction, Zval = 10.0
     Generated using ONCVPSP code by D. R. Hamann
     Using radial grid of 1958 points,  6 beta functions with: 
                l(1) =   0
                l(2) =   0
                l(3) =   1
                l(4) =   1
                l(5) =   2
                l(6) =   2

     PseudoPot. # 2 for Y  read from file:
     /data/pseudo/dojo_sr/Y.upf
     MD5 check sum: 28b7a77fe5d3539441de961898735449
     Pseudo is Norm-conserving + core correction, Zval = 11.0
     Generated using ONCVPSP code by D. R. Hamann
     Using radial grid of 1766 points,  6 beta functions with: 
                l(1) =   0
                l(2) =   0
                l(3) =   1
                l(4) =   1
                l(5) =   2
                l(6) =   2

     PseudoPot. # 3 for Mn read from file:
     /data/pseudo/dojo_sr/Mn.upf
     MD5 check sum: ae71e1481ef25a952ba54bed1e0db183
     Pseudo is Norm-conserving + core correction, Zval = 15.0
     Generated using ONCVPSP code by D. R. Hamann
     Using radial grid of 1464 points,  6 beta functions with: 
                l(1) =   0
                l(2) =   0
                l(3) =   1
                l(4) =   1
                l(5) =   2
                l(6) =   2

     PseudoPot. # 4 for Fe read from file:
     /data/pseudo/dojo_sr/Fe.upf
     MD5 check sum: a5f07f5dca5be6cacb81ceb54992e4ae
     Pseudo is Norm-conserving + core correction, Zval = 16.0
     Generated using ONCVPSP code by D. R. Hamann
     Using radial grid of 1426 points,  6 beta functions with: 
                l(1) =   0
                l(2) =   0
                l(3) =   1
                l(4) =   1
                l(5) =   2
                l(6) =   2

     PseudoPot. # 5 for O  read from file:
     /data/pseudo/dojo_sr/O.upf
     MD5 check sum: 3e3f909f7470e8921608ab6b1f57bbae
     Pseudo is Norm-conserving + core correction, Zval =  6.0
     Generated using ONCVPSP code by D. R. Hamann
     Using radial grid of  936 points,  5 beta functions with: 
                l(1) =   0
                l(2) =   0
                l(3) =   1
                l(4) =   1
                l(5) =   2

     atomic species   valence    mass     pseudopotential
     Ba               10.00   137.32700     Ba( 1.00)
     Y                11.00    88.90580     Y ( 1.00)
     Mn               15.00    54.93800     Mn( 1.00)
     Fe               16.00    55.84500     Fe( 1.00)
     O                 6.00    15.99900     O ( 1.00)

     Starting magnetic structure 
     atomic species   magnetization
     Ba              0.000
     Y               0.000
     Mn              0.300
     Fe              0.263
     O               0.000

      2 Sym. Ops. (no inversion) found


                                    s                        frac. trans.

      isym =  1     identity                                     

 cryst.   s( 1) = (     1          0          0      )
                  (     0          1          0      )
                  (     0          0          1      )

 cart.    s( 1) = (  1.0000000  0.0000000  0.0000000 )
                  (  0.0000000  1.0000000  0.0000000 )
                  (  0.0000000  0.0000000  1.0000000 )


      isym =  2     180 deg rotation - cart. axis [0,0,1]        

 cryst.   s( 2) = (    -1          0          0      )
                  (     0         -1          0      )
                  (     0          0          1      )

 cart.    s( 2) = ( -1.0000000  0.0000000  0.0000000 )
                  (  0.0000000 -1.0000000  0.0000000 )
                  (  0.0000000  0.0000000  1.0000000 )


   Cartesian axes

     site n.     atom                  positions (alat units)
         1        Ba     tau(   1) = (   0.0000000   0.0000000   0.0000000  )
         2        Ba     tau(   2) = (   0.5000000   0.0000000   0.0000000  )
         3        Ba     tau(   3) = (   0.2500000   0.2500000   0.0000000  )
         4        Ba     tau(   4) = (   0.7500000   0.2500000   0.0000000  )
         5        Y      tau(   5) = (   0.0000000   0.0000000   0.3393171  )
         6        Y      tau(   6) = (   0.5000000   0.0000000   0.3393171  )
         7        Y      tau(   7) = (   0.2500000   0.2500000   0.3393171  )
         8        Y      tau(   8) = (   0.7500000   0.2500000   0.3393171  )
         9        Mn     tau(   9) = (   0.0000000   0.2500000   0.1770748  )
        10        Mn     tau(  10) = (   0.5000000   0.2500000   0.1770748  )
        11        Mn     tau(  11) = (   0.2500000   0.0000000   0.5015594  )
        12        Mn     tau(  12) = (   0.7500000   0.0000000   0.5015594  )
        13        Fe     tau(  13) = (   0.2500000   0.0000000   0.1752777  )
        14        Fe     tau(  14) = (   0.7500000   0.0000000   0.1752777  )
        15        Fe     tau(  15) = (   0.0000000   0.2500000   0.5033565  )
        16        Fe     tau(  16) = (   0.5000000   0.2500000   0.5033565  )
        17        O      tau(  17) = (   0.2500000   0.0000000   0.0059494  )
        18        O      tau(  18) = (   0.7500000   0.0000000   0.0059494  )
        19        O      tau(  19) = (   0.0000000   0.2500000   0.6726848  )
        20        O      tau(  20) = (   0.5000000   0.2500000   0.6726848  )
        21        O      tau(  21) = (   0.1072243   0.1143747   0.4653985  )
        22        O      tau(  22) = (   0.6072243   0.1143747   0.4653985  )
        23        O      tau(  23) = (   0.3927757   0.3856253   0.4653985  )
        24        O      tau(  24) = (   0.8927757   0.3856253   0.4653985  )
        25        O      tau(  25) = (   0.1356253   0.3572243   0.4653985  )
        26        O      tau(  26) = (   0.6356253   0.3572243   0.4653985  )
        27        O      tau(  27) = (   0.3643747   0.1427757   0.4653985  )
        28        O      tau(  28) = (   0.8643747   0.1427757   0.4653985  )
        29        O      tau(  29) = (   0.1427757   0.1356253   0.2132358  )
        30        O      tau(  30) = (   0.6427757   0.1356253   0.2132358  )
        31        O      tau(  31) = (   0.3572243   0.3643747   0.2132358  )
        32        O      tau(  32) = (   0.8572243   0.3643747   0.2132358  )
        33        O      tau(  33) = (   0.1143747   0.3927757   0.2132358  )
        34        O      tau(  34) = (   0.6143747   0.3927757   0.2132358  )
        35        O      tau(  35) = (   0.3856253   0.1072243   0.2132358  )
        36        O      tau(  36) = (   0.8856253   0.1072243   0.2132358  )

   Crystallographic axes

     site n.     atom                  positions (cryst. coord.)
         1        Ba     tau(   1) = (  0.0000000  0.0000000  0.0000000  )
         2        Ba     tau(   2) = (  0.5000000  0.0000000  0.0000000  )
         3        Ba     tau(   3) = (  0.2500000  0.5000000  0.0000000  )
         4        Ba     tau(   4) = (  0.7500000  0.5000000  0.0000000  )
         5        Y      tau(   5) = (  0.0000000  0.0000000  0.5000000  )
         6        Y      tau(   6) = (  0.5000000  0.0000000  0.5000000  )
         7        Y      tau(   7) = (  0.2500000  0.5000000  0.5000000  )
         8        Y      tau(   8) = (  0.7500000  0.5000000  0.5000000  )
         9        Mn     tau(   9) = (  0.0000000  0.5000000  0.2609282  )
        10        Mn     tau(  10) = (  0.5000000  0.5000000  0.2609282  )
        11        Mn     tau(  11) = (  0.2500000  0.0000000  0.7390718  )
        12        Mn     tau(  12) = (  0.7500000  0.0000000  0.7390718  )
        13        Fe     tau(  13) = (  0.2500000  0.0000000  0.2582801  )
        14        Fe     tau(  14) = (  0.7500000  0.0000000  0.2582801  )
        15        Fe     tau(  15) = (  0.0000000  0.5000000  0.7417199  )
        16        Fe     tau(  16) = (  0.5000000  0.5000000  0.7417199  )
        17        O      tau(  17) = (  0.2500000  0.0000000  0.0087668  )
        18        O      tau(  18) = (  0.7500000  0.0000000  0.0087668  )
        19        O      tau(  19) = (  0.0000000  0.5000000  0.9912332  )
        20        O      tau(  20) = (  0.5000000  0.5000000  0.9912332  )
        21        O      tau(  21) = (  0.1072243  0.2287493  0.6857869  )
        22        O      tau(  22) = (  0.6072243  0.2287493  0.6857869  )
        23        O      tau(  23) = (  0.3927757  0.7712507  0.6857869  )
        24        O      tau(  24) = (  0.8927757  0.7712507  0.6857869  )
        25        O      tau(  25) = (  0.1356253  0.7144487  0.6857869  )
        26        O      tau(  26) = (  0.6356253  0.7144487  0.6857869  )
        27        O      tau(  27) = (  0.3643747  0.2855513  0.6857869  )
        28        O      tau(  28) = (  0.8643747  0.2855513  0.6857869  )
        29        O      tau(  29) = (  0.1427757  0.2712507  0.3142131  )
        30        O      tau(  30) = (  0.6427757  0.2712507  0.3142131  )
        31        O      tau(  31) = (  0.3572243  0.7287493  0.3142131  )
        32        O      tau(  32) = (  0.8572243  0.7287493  0.3142131  )
        33        O      tau(  33) = (  0.1143747  0.7855513  0.3142131  )
        34        O      tau(  34) = (  0.6143747  0.7855513  0.3142131  )
        35        O      tau(  35) = (  0.3856253  0.2144487  0.3142131  )
        36        O      tau(  36) = (  0.8856253  0.2144487  0.3142131  )

     number of k points=    12  Gaussian smearing, width (Ry)=  0.0050
                       cart. coord. in units 2pi/alat
        k(    1) = (   0.0000000   0.0000000   0.0000000), wk =   0.0416667
        k(    2) = (   0.0000000   0.0000000   0.4911826), wk =   0.0833333
        k(    3) = (   0.0000000   0.5000000   0.0000000), wk =   0.0833333
        k(    4) = (   0.0000000   0.5000000   0.4911826), wk =   0.1666667
        k(    5) = (   0.0000000  -1.0000000   0.0000000), wk =   0.0416667
        k(    6) = (   0.0000000  -1.0000000   0.4911826), wk =   0.0833333
        k(    7) = (  -0.5000000   0.0000000   0.0000000), wk =   0.0416667
        k(    8) = (  -0.5000000   0.0000000   0.4911826), wk =   0.0833333
        k(    9) = (  -0.5000000   0.5000000   0.0000000), wk =   0.0833333
        k(   10) = (  -0.5000000   0.5000000   0.4911826), wk =   0.1666667
        k(   11) = (  -0.5000000  -1.0000000   0.0000000), wk =   0.0416667
        k(   12) = (  -0.5000000  -1.0000000   0.4911826), wk =   0.0833333

                       cryst. coord.
        k(    1) = (   0.0000000   0.0000000   0.0000000), wk =   0.0416667
        k(    2) = (   0.0000000   0.0000000   0.3333333), wk =   0.0833333
        k(    3) = (   0.0000000   0.2500000   0.0000000), wk =   0.0833333
        k(    4) = (   0.0000000   0.2500000   0.3333333), wk =   0.1666667
        k(    5) = (   0.0000000  -0.5000000   0.0000000), wk =   0.0416667
        k(    6) = (   0.0000000  -0.5000000   0.3333333), wk =   0.0833333
        k(    7) = (  -0.5000000   0.0000000   0.0000000), wk =   0.0416667
        k(    8) = (  -0.5000000   0.0000000   0.3333333), wk =   0.0833333
        k(    9) = (  -0.5000000   0.2500000   0.0000000), wk =   0.0833333
        k(   10) = (  -0.5000000   0.2500000   0.3333333), wk =   0.1666667
        k(   11) = (  -0.5000000  -0.5000000   0.0000000), wk =   0.0416667
        k(   12) = (  -0.5000000  -0.5000000   0.3333333), wk =   0.0833333

     Dense  grid:   384367 G-vectors     FFT dimensions: ( 135,  72,  90)

     Dynamical RAM for                 wfc:      72.17 MB

     Dynamical RAM for     wfc (w. buffer):     216.50 MB

     Dynamical RAM for             U proj.:      14.65 MB

     Dynamical RAM for  U proj. (w. buff.):      43.96 MB

     Dynamical RAM for           str. fact:      14.66 MB

     Dynamical RAM for           local pot:       0.00 MB

     Dynamical RAM for          nlocal pot:     200.75 MB

     Dynamical RAM for                qrad:       7.61 MB

     Dynamical RAM for          rho,v,vnew:      37.62 MB

     Dynamical RAM for               rhoin:      12.54 MB

     Dynamical RAM for            rho*nmix:      93.84 MB

     Dynamical RAM for           G-vectors:      12.46 MB

     Dynamical RAM for          h,s,v(r/c):       7.11 MB

     Dynamical RAM for          <psi|beta>:       1.65 MB

     Dynamical RAM for                 psi:     144.34 MB

     Dynamical RAM for                hpsi:     144.34 MB

     Dynamical RAM for      wfcinit/wfcrot:     145.22 MB

     Estimated static dynamical RAM per process >     583.73 MB

     Estimated max dynamical RAM per process >     974.99 MB

     Estimated total dynamical RAM >      27.72 GB
     Generating pointlists ...
     new r_m :   0.1032 (alat units)  2.2086 (a.u.) for type    1
     new r_m :   0.0830 (alat units)  1.7768 (a.u.) for type    2
     new r_m :   0.0755 (alat units)  1.6164 (a.u.) for type    3
     new r_m :   0.0698 (alat units)  1.4955 (a.u.) for type    4
     new r_m :   0.0698 (alat units)  1.4955 (a.u.) for type    5

     Initial potential from superposition of free atoms

     starting charge     327.9122, renormalised to     328.0000

     HUBBARD ENERGY =    0.4704  (Ry)

     STARTING HUBBARD OCCUPATIONS:

     =================== HUBBARD OCCUPATIONS ===================
     ------------------------ ATOM    9 ------------------------
     Tr[ns(  9)] (up, down, total) =   5.00000  0.00000  5.00000
     Atomic magnetic moment for atom   9 =   5.00000
     SPIN  1
     eigenvalues:
       1.000  1.000  1.000  1.000  1.000
     eigenvectors (columns):
       1.000  0.000  0.000  0.000  0.000
       0.000  1.000  0.000  0.000  0.000
       0.000  0.000  1.000  0.000  0.000
       0.000  0.000  0.000  1.000  0.000
       0.000  0.000  0.000  0.000  1.000
     occupation matrix ns (before diag.):
       1.000  0.000  0.000  0.000  0.000
       0.000  1.000  0.000  0.000  0.000
       0.000  0.000  1.000  0.000  0.000
       0.000  0.000  0.000  1.000  0.000
       0.000  0.000  0.000  0.000  1.000
     SPIN  2
     eigenvalues:
       0.000  0.000  0.000  0.000  0.000
     eigenvectors (columns):
       1.000  0.000  0.000  0.000  0.000
       0.000  1.000  0.000  0.000  0.000
       0.000  0.000  1.000  0.000  0.000
       0.000  0.000  0.000  1.000  0.000
       0.000  0.000  0.000  0.000  1.000
     occupation matrix ns (before diag.):
       0.000  0.000  0.000  0.000  0.000
       0.000  0.000  0.000  0.000  0.000
       0.000  0.000  0.000  0.000  0.000
       0.000  0.000  0.000  0.000  0.000
       0.000  0.000  0.000  0.000  0.000
     ------------------------ ATOM   10 ------------------------
     Tr[ns( 10)] (up, down, total) =   5.00000  0.00000  5.00000
     Atomic magnetic moment for atom  10 =   5.00000
     SPIN  1
     eigenvalues:
       1.000  1.000  1.000  1.000  1.000
     eigenvectors (columns):
       1.000  0.000  0.000  0.000  0.000
       0.000  1.000  0.000  0.000  0.000
       0.000  0.000  1.000  0.000  0.000
       0.000  0.000  0.000  1.000  0.000
       0.000  0.000  0.000  0.000  1.000
     occupation matrix ns (before diag.):
       1.000  0.000  0.000  0.000  0.000
       0.000  1.000  0.000  0.000  0.000
       0.000  0.000  1.000  0.000  0.000
       0.000  0.000  0.000  1.000  0.000
       0.000  0.000  0.000  0.000  1.000
     SPIN  2
     eigenvalues:
       0.000  0.000  0.000  0.000  0.000
     eigenvectors (columns):
       1.000  0.000  0.000  0.000  0.000
       0.000  1.000  0.000  0.000  0.000
       0.000  0.000  1.000  0.000  0.000
       0.000  0.000  0.000  1.000  0.000
       0.000  0.000  0.000  0.000  1.000
     occupation matrix ns (before diag.):
       0.000  0.000  0.000  0.000  0.000
       0.000  0.000  0.000  0.000  0.000
       0.000  0.000  0.000  0.000  0.000
       0.000  0.000  0.000  0.000  0.000
       0.000  0.000  0.000  0.000  0.000
     ------------------------ ATOM   11 ------------------------
     Tr[ns( 11)] (up, down, total) =   5.00000  0.00000  5.00000
     Atomic magnetic moment for atom  11 =   5.00000
     SPIN  1
     eigenvalues:
       1.000  1.000  1.000  1.000  1.000
     eigenvectors (columns):
       1.000  0.000  0.000  0.000  0.000
       0.000  1.000  0.000  0.000  0.000
       0.000  0.000  1.000  0.000  0.000
       0.000  0.000  0.000  1.000  0.000
       0.000  0.000  0.000  0.000  1.000
     occupation matrix ns (before diag.):
       1.000  0.000  0.000  0.000  0.000
       0.000  1.000  0.000  0.000  0.000
       0.000  0.000  1.000  0.000  0.000
       0.000  0.000  0.000  1.000  0.000
       0.000  0.000  0.000  0.000  1.000
     SPIN  2
     eigenvalues:
       0.000  0.000  0.000  0.000  0.000
     eigenvectors (columns):
       1.000  0.000  0.000  0.000  0.000
       0.000  1.000  0.000  0.000  0.000
       0.000  0.000  1.000  0.000  0.000
       0.000  0.000  0.000  1.000  0.000
       0.000  0.000  0.000  0.000  1.000
     occupation matrix ns (before diag.):
       0.000  0.000  0.000  0.000  0.000
       0.000  0.000  0.000  0.000  0.000
       0.000  0.000  0.000  0.000  0.000
       0.000  0.000  0.000  0.000  0.000
       0.000  0.000  0.000  0.000  0.000
     ------------------------ ATOM   12 ------------------------
     Tr[ns( 12)] (up, down, total) =   5.00000  0.00000  5.00000
     Atomic magnetic moment for atom  12 =   5.00000
     SPIN  1
     eigenvalues:
       1.000  1.000  1.000  1.000  1.000
     eigenvectors (columns):
       1.000  0.000  0.000  0.000  0.000
       0.000  1.000  0.000  0.000  0.000
       0.000  0.000  1.000  0.000  0.000
       0.000  0.000  0.000  1.000  0.000
       0.000  0.000  0.000  0.000  1.000
     occupation matrix ns (before diag.):
       1.000  0.000  0.000  0.000  0.000
       0.000  1.000  0.000  0.000  0.000
       0.000  0.000  1.000  0.000  0.000
       0.000  0.000  0.000  1.000  0.000
       0.000  0.000  0.000  0.000  1.000
     SPIN  2
     eigenvalues:
       0.000  0.000  0.000  0.000  0.000
     eigenvectors (columns):
       1.000  0.000  0.000  0.000  0.000
       0.000  1.000  0.000  0.000  0.000
       0.000  0.000  1.000  0.000  0.000
       0.000  0.000  0.000  1.000  0.000
       0.000  0.000  0.000  0.000  1.000
     occupation matrix ns (before diag.):
       0.000  0.000  0.000  0.000  0.000
       0.000  0.000  0.000  0.000  0.000
       0.000  0.000  0.000  0.000  0.000
       0.000  0.000  0.000  0.000  0.000
       0.000  0.000  0.000  0.000  0.000
     ------------------------ ATOM   13 ------------------------
     Tr[ns( 13)] (up, down, total) =   5.00000  1.00000  6.00000
     Atomic magnetic moment for atom  13 =   4.00000
     SPIN  1
     eigenvalues:
       1.000  1.000  1.000  1.000  1.000
     eigenvectors (columns):
       1.000  0.000  0.000  0.000  0.000
       0.000  1.000  0.000  0.000  0.000
       0.000  0.000  1.000  0.000  0.000
       0.000  0.000  0.000  1.000  0.000
       0.000  0.000  0.000  0.000  1.000
     occupation matrix ns (before diag.):
       1.000  0.000  0.000  0.000  0.000
       0.000  1.000  0.000  0.000  0.000
       0.000  0.000  1.000  0.000  0.000
       0.000  0.000  0.000  1.000  0.000
       0.000  0.000  0.000  0.000  1.000
     SPIN  2
     eigenvalues:
       0.200  0.200  0.200  0.200  0.200
     eigenvectors (columns):
       1.000  0.000  0.000  0.000  0.000
       0.000  1.000  0.000  0.000  0.000
       0.000  0.000  1.000  0.000  0.000
       0.000  0.000  0.000  1.000  0.000
       0.000  0.000  0.000  0.000  1.000
     occupation matrix ns (before diag.):
       0.200  0.000  0.000  0.000  0.000
       0.000  0.200  0.000  0.000  0.000
       0.000  0.000  0.200  0.000  0.000
       0.000  0.000  0.000  0.200  0.000
       0.000  0.000  0.000  0.000  0.200
     ------------------------ ATOM   14 ------------------------
     Tr[ns( 14)] (up, down, total) =   5.00000  1.00000  6.00000
     Atomic magnetic moment for atom  14 =   4.00000
     SPIN  1
     eigenvalues:
       1.000  1.000  1.000  1.000  1.000
     eigenvectors (columns):
       1.000  0.000  0.000  0.000  0.000
       0.000  1.000  0.000  0.000  0.000
       0.000  0.000  1.000  0.000  0.000
       0.000  0.000  0.000  1.000  0.000
       0.000  0.000  0.000  0.000  1.000
     occupation matrix ns (before diag.):
       1.000  0.000  0.000  0.000  0.000
       0.000  1.000  0.000  0.000  0.000
       0.000  0.000  1.000  0.000  0.000
       0.000  0.000  0.000  1.000  0.000
       0.000  0.000  0.000  0.000  1.000
     SPIN  2
     eigenvalues:
       0.200  0.200  0.200  0.200  0.200
     eigenvectors (columns):
       1.000  0.000  0.000  0.000  0.000
       0.000  1.000  0.000  0.000  0.000
       0.000  0.000  1.000  0.000  0.000
       0.000  0.000  0.000  1.000  0.000
       0.000  0.000  0.000  0.000  1.000
     occupation matrix ns (before diag.):
       0.200  0.000  0.000  0.000  0.000
       0.000  0.200  0.000  0.000  0.000
       0.000  0.000  0.200  0.000  0.000
       0.000  0.000  0.000  0.200  0.000
       0.000  0.000  0.000  0.000  0.200
     ------------------------ ATOM   15 ------------------------
     Tr[ns( 15)] (up, down, total) =   5.00000  1.00000  6.00000
     Atomic magnetic moment for atom  15 =   4.00000
     SPIN  1
     eigenvalues:
       1.000  1.000  1.000  1.000  1.000
     eigenvectors (columns):
       1.000  0.000  0.000  0.000  0.000
       0.000  1.000  0.000  0.000  0.000
       0.000  0.000  1.000  0.000  0.000
       0.000  0.000  0.000  1.000  0.000
       0.000  0.000  0.000  0.000  1.000
     occupation matrix ns (before diag.):
       1.000  0.000  0.000  0.000  0.000
       0.000  1.000  0.000  0.000  0.000
       0.000  0.000  1.000  0.000  0.000
       0.000  0.000  0.000  1.000  0.000
       0.000  0.000  0.000  0.000  1.000
     SPIN  2
     eigenvalues:
       0.200  0.200  0.200  0.200  0.200
     eigenvectors (columns):
       1.000  0.000  0.000  0.000  0.000
       0.000  1.000  0.000  0.000  0.000
       0.000  0.000  1.000  0.000  0.000
       0.000  0.000  0.000  1.000  0.000
       0.000  0.000  0.000  0.000  1.000
     occupation matrix ns (before diag.):
       0.200  0.000  0.000  0.000  0.000
       0.000  0.200  0.000  0.000  0.000
       0.000  0.000  0.200  0.000  0.000
       0.000  0.000  0.000  0.200  0.000
       0.000  0.000  0.000  0.000  0.200
     ------------------------ ATOM   16 ------------------------
     Tr[ns( 16)] (up, down, total) =   5.00000  1.00000  6.00000
     Atomic magnetic moment for atom  16 =   4.00000
     SPIN  1
     eigenvalues:
       1.000  1.000  1.000  1.000  1.000
     eigenvectors (columns):
       1.000  0.000  0.000  0.000  0.000
       0.000  1.000  0.000  0.000  0.000
       0.000  0.000  1.000  0.000  0.000
       0.000  0.000  0.000  1.000  0.000
       0.000  0.000  0.000  0.000  1.000
     occupation matrix ns (before diag.):
       1.000  0.000  0.000  0.000  0.000
       0.000  1.000  0.000  0.000  0.000
       0.000  0.000  1.000  0.000  0.000
       0.000  0.000  0.000  1.000  0.000
       0.000  0.000  0.000  0.000  1.000
     SPIN  2
     eigenvalues:
       0.200  0.200  0.200  0.200  0.200
     eigenvectors (columns):
       1.000  0.000  0.000  0.000  0.000
       0.000  1.000  0.000  0.000  0.000
       0.000  0.000  1.000  0.000  0.000
       0.000  0.000  0.000  1.000  0.000
       0.000  0.000  0.000  0.000  1.000
     occupation matrix ns (before diag.):
       0.200  0.000  0.000  0.000  0.000
       0.000  0.200  0.000  0.000  0.000
       0.000  0.000  0.200  0.000  0.000
       0.000  0.000  0.000  0.200  0.000
       0.000  0.000  0.000  0.000  0.200

     Number of occupied Hubbard levels =   44.0000

     Atomic wfc used for Hubbard projectors are orthogonalized

     Starting wfcs are  220 randomized atomic wfcs

     total cpu time spent up to now is       12.5 secs

     per-process dynamical memory:   621.6 Mb

     Self-consistent Calculation

     iteration #  1     ecut=    90.00 Ry     beta= 0.30
     Davidson diagonalization with overlap

---- Real-time Memory Report at c_bands before calling an iterative solver
           898 MiB given to the printing process from OS
           607 MiB allocation reported by mallinfo(arena+hblkhd)
        676845 MiB available memory on the node where the printing process lives
------------------
     ethr =  1.00E-02,  avg # of iterations =  4.3

     =================== HUBBARD OCCUPATIONS ===================
     ------------------------ ATOM    9 ------------------------
     Tr[ns(  9)] (up, down, total) =   4.96815  0.19516  5.16331
     Atomic magnetic moment for atom   9 =   4.77298
     SPIN  1
     eigenvalues:
       0.984  0.995  0.996  0.996  0.997
     eigenvectors (columns):
       1.000 -0.001 -0.000  0.000  0.001
       0.000 -0.000  0.933  0.359 -0.000
       0.000 -0.000  0.359 -0.933 -0.000
       0.001  0.098 -0.000  0.000 -0.995
       0.001  0.995  0.000 -0.000  0.098
     occupation matrix ns (before diag.):
       0.984 -0.000 -0.000 -0.000 -0.000
      -0.000  0.996 -0.000  0.000  0.000
      -0.000 -0.000  0.996  0.000  0.000
      -0.000  0.000  0.000  0.997 -0.000
      -0.000  0.000  0.000 -0.000  0.995
     SPIN  2
     eigenvalues:
       0.024  0.024  0.024  0.048  0.075
     eigenvectors (columns):
       0.000 -0.000  0.000 -1.000 -0.000
       0.000  0.062  0.998  0.000  0.000
       0.000 -0.998  0.062  0.000  0.000
      -0.979 -0.000  0.000 -0.000 -0.202
      -0.202 -0.000  0.000 -0.000  0.979
     occupation matrix ns (before diag.):
       0.048 -0.000 -0.000  0.000 -0.000
      -0.000  0.024  0.000  0.000  0.000
      -0.000  0.000  0.024  0.000  0.000
       0.000  0.000  0.000  0.026 -0.010
      -0.000  0.000  0.000 -0.010  0.073
     ------------------------ ATOM   10 ------------------------
     Tr[ns( 10)] (up, down, total) =   4.96816  0.19516  5.16332
     Atomic magnetic moment for atom  10 =   4.77300
     SPIN  1
     eigenvalues:
       0.984  0.995  0.996  0.996  0.997
     eigenvectors (columns):
       1.000 -0.000 -0.000 -0.000  0.001
       0.000 -0.000 -0.228  0.974 -0.000
       0.000 -0.000  0.974  0.228 -0.000
       0.001  0.094 -0.000 -0.000 -0.996
       0.000  0.996  0.000  0.000  0.094
     occupation matrix ns (before diag.):
       0.984 -0.000 -0.000 -0.000 -0.000
      -0.000  0.996  0.000  0.000  0.000
      -0.000  0.000  0.996  0.000  0.000
      -0.000  0.000  0.000  0.997 -0.000
      -0.000  0.000  0.000 -0.000  0.995
     SPIN  2
     eigenvalues:
       0.024  0.024  0.024  0.048  0.075
     eigenvectors (columns):
      -0.000 -0.000 -0.000  1.000 -0.000
      -0.000 -0.462  0.887 -0.000  0.000
      -0.000 -0.887 -0.462 -0.000  0.000
       0.979 -0.000 -0.000  0.000 -0.202
       0.202 -0.000 -0.000  0.000  0.979
     occupation matrix ns (before diag.):
       0.048 -0.000 -0.000  0.000 -0.000
      -0.000  0.024 -0.000  0.000  0.000
      -0.000 -0.000  0.024  0.000  0.000
       0.000  0.000  0.000  0.026 -0.010
      -0.000  0.000  0.000 -0.010  0.073
     ------------------------ ATOM   11 ------------------------
     Tr[ns( 11)] (up, down, total) =   4.96815  0.19516  5.16331
     Atomic magnetic moment for atom  11 =   4.77298
     SPIN  1
     eigenvalues:
       0.984  0.995  0.996  0.996  0.997
     eigenvectors (columns):
       1.000 -0.001 -0.000  0.000  0.001
       0.000 -0.005 -0.236 -0.972  0.003
      -0.000  0.000 -0.972  0.236 -0.000
       0.001  0.094 -0.000 -0.003 -0.996
       0.000  0.996 -0.001 -0.005  0.094
     occupation matrix ns (before diag.):
       0.984 -0.000  0.000 -0.000 -0.000
      -0.000  0.996 -0.000 -0.000  0.000
       0.000 -0.000  0.996  0.000 -0.000
      -0.000 -0.000  0.000  0.997 -0.000
      -0.000  0.000 -0.000 -0.000  0.995
     SPIN  2
     eigenvalues:
       0.024  0.024  0.024  0.048  0.075
     eigenvectors (columns):
       0.000  0.000 -0.000  1.000 -0.000
       0.011  0.396 -0.918 -0.000 -0.000
      -0.007  0.918  0.396  0.000 -0.000
      -0.979 -0.002 -0.013  0.000 -0.202
      -0.202 -0.000 -0.003  0.000  0.979
     occupation matrix ns (before diag.):
       0.048 -0.000  0.000  0.000 -0.000
      -0.000  0.024 -0.000  0.000 -0.000
       0.000 -0.000  0.024 -0.000 -0.000
       0.000  0.000 -0.000  0.026 -0.010
      -0.000 -0.000 -0.000 -0.010  0.073
     ------------------------ ATOM   12 ------------------------
     Tr[ns( 12)] (up, down, total) =   4.96815  0.19516  5.16331
     Atomic magnetic moment for atom  12 =   4.77298
     SPIN  1
     eigenvalues:
       0.984  0.995  0.996  0.996  0.997
     eigenvectors (columns):
       1.000 -0.001  0.000 -0.000  0.001
      -0.000  0.005 -0.236 -0.972 -0.003
       0.000 -0.000 -0.972  0.236  0.000
       0.001  0.094  0.000  0.003 -0.996
       0.000  0.996  0.001  0.005  0.094
     occupation matrix ns (before diag.):
       0.984  0.000 -0.000 -0.000 -0.000
       0.000  0.996 -0.000  0.000 -0.000
      -0.000 -0.000  0.996 -0.000  0.000
      -0.000  0.000 -0.000  0.997 -0.000
      -0.000 -0.000  0.000 -0.000  0.995
     SPIN  2
     eigenvalues:
       0.024  0.024  0.024  0.048  0.075
     eigenvectors (columns):
      -0.000  0.000  0.000  1.000 -0.000
       0.011 -0.396 -0.918  0.000  0.000
      -0.007 -0.918  0.396 -0.000  0.000
       0.979 -0.002  0.013  0.000 -0.202
       0.202 -0.000  0.003  0.000  0.979
     occupation matrix ns (before diag.):
       0.048  0.000 -0.000  0.000 -0.000
       0.000  0.024 -0.000 -0.000  0.000
      -0.000 -0.000  0.024  0.000  0.000
       0.000 -0.000  0.000  0.026 -0.010
      -0.000  0.000  0.000 -0.010  0.073
     ------------------------ ATOM   13 ------------------------
     Tr[ns( 13)] (up, down, total) =   4.97236  0.32228  5.29464
     Atomic magnetic moment for atom  13 =   4.65008
     SPIN  1
     eigenvalues:
       0.986  0.994  0.997  0.997  0.998
     eigenvectors (columns):
      -1.000 -0.000  0.000 -0.000  0.000
       0.000  0.002  0.082 -0.997 -0.002
       0.000 -0.000  0.997  0.082 -0.003
      -0.000  0.151 -0.003  0.002 -0.989
      -0.000  0.989  0.000  0.002  0.151
     occupation matrix ns (before diag.):
       0.986  0.000  0.000 -0.000 -0.000
       0.000  0.997 -0.000  0.000 -0.000
       0.000 -0.000  0.997  0.000 -0.000
      -0.000  0.000  0.000  0.998 -0.001
      -0.000 -0.000 -0.000 -0.001  0.994
     SPIN  2
     eigenvalues:
       0.038  0.045  0.045  0.080  0.114
     eigenvectors (columns):
      -0.000  0.000  0.000 -1.000  0.000
      -0.000  0.109 -0.994 -0.000  0.000
      -0.000 -0.994 -0.109 -0.000  0.000
       0.976 -0.000 -0.000 -0.000  0.219
      -0.219  0.000  0.000  0.000  0.976
     occupation matrix ns (before diag.):
       0.080  0.000  0.000  0.000 -0.000
       0.000  0.045  0.000  0.000  0.000
       0.000  0.000  0.045  0.000 -0.000
       0.000  0.000  0.000  0.042  0.016
      -0.000  0.000 -0.000  0.016  0.110
     ------------------------ ATOM   14 ------------------------
     Tr[ns( 14)] (up, down, total) =   4.97236  0.32228  5.29464
     Atomic magnetic moment for atom  14 =   4.65008
     SPIN  1
     eigenvalues:
       0.986  0.994  0.997  0.997  0.998
     eigenvectors (columns):
      -1.000 -0.000 -0.000  0.000  0.000
      -0.000 -0.002  0.082 -0.997  0.002
      -0.000  0.000  0.997  0.082  0.003
      -0.000  0.151  0.003 -0.002 -0.989
      -0.000  0.989 -0.000 -0.002  0.151
     occupation matrix ns (before diag.):
       0.986 -0.000 -0.000 -0.000 -0.000
      -0.000  0.997 -0.000 -0.000  0.000
      -0.000 -0.000  0.997 -0.000  0.000
      -0.000 -0.000 -0.000  0.998 -0.001
      -0.000  0.000  0.000 -0.001  0.994
     SPIN  2
     eigenvalues:
       0.038  0.045  0.045  0.080  0.114
     eigenvectors (columns):
      -0.000  0.000 -0.000  1.000  0.000
       0.000 -0.109 -0.994 -0.000 -0.000
       0.000  0.994 -0.109 -0.000 -0.000
       0.976 -0.000  0.000  0.000  0.219
      -0.219  0.000 -0.000 -0.000  0.976
     occupation matrix ns (before diag.):
       0.080 -0.000 -0.000  0.000 -0.000
      -0.000  0.045  0.000 -0.000 -0.000
      -0.000  0.000  0.045 -0.000  0.000
       0.000 -0.000 -0.000  0.042  0.016
      -0.000 -0.000  0.000  0.016  0.110
     ------------------------ ATOM   15 ------------------------
     Tr[ns( 15)] (up, down, total) =   4.97234  0.32228  5.29462
     Atomic magnetic moment for atom  15 =   4.65007
     SPIN  1
     eigenvalues:
       0.986  0.994  0.997  0.997  0.998
     eigenvectors (columns):
      -1.000  0.000  0.000  0.000  0.000
      -0.000 -0.000 -0.886 -0.465 -0.000
      -0.000 -0.000  0.465 -0.886 -0.000
      -0.000  0.150  0.000  0.000 -0.989
       0.000  0.989  0.000 -0.000  0.150
     occupation matrix ns (before diag.):
       0.986 -0.000 -0.000 -0.000  0.000
      -0.000  0.997  0.000  0.000  0.000
      -0.000  0.000  0.997  0.000  0.000
      -0.000  0.000  0.000  0.998 -0.001
       0.000  0.000  0.000 -0.001  0.994
     SPIN  2
     eigenvalues:
       0.038  0.045  0.045  0.080  0.114
     eigenvectors (columns):
      -0.000 -0.000 -0.000 -1.000  0.000
      -0.000 -0.868  0.496  0.000  0.000
      -0.000 -0.496 -0.868  0.000  0.000
       0.976 -0.000 -0.000  0.000  0.219
      -0.219  0.000  0.000  0.000  0.976
     occupation matrix ns (before diag.):
       0.080 -0.000 -0.000  0.000  0.000
      -0.000  0.045 -0.000  0.000  0.000
      -0.000 -0.000  0.045  0.000  0.000
       0.000  0.000  0.000  0.042  0.016
       0.000  0.000  0.000  0.016  0.110
     ------------------------ ATOM   16 ------------------------
     Tr[ns( 16)] (up, down, total) =   4.97234  0.32228  5.29462
     Atomic magnetic moment for atom  16 =   4.65007
     SPIN  1
     eigenvalues:
       0.986  0.994  0.997  0.997  0.998
     eigenvectors (columns):
      -1.000  0.001  0.000  0.000  0.000
      -0.000 -0.000 -0.987  0.161 -0.000
      -0.000 -0.000 -0.161 -0.987 -0.000
      -0.000  0.150  0.000  0.000 -0.989
       0.001  0.989 -0.000 -0.000  0.150
     occupation matrix ns (before diag.):
       0.986 -0.000 -0.000 -0.000  0.000
      -0.000  0.997 -0.000  0.000  0.000
      -0.000 -0.000  0.997  0.000  0.000
      -0.000  0.000  0.000  0.998 -0.001
       0.000  0.000  0.000 -0.001  0.994
     SPIN  2
     eigenvalues:
       0.038  0.045  0.045  0.080  0.114
     eigenvectors (columns):
      -0.000 -0.000  0.000  1.000 -0.000
      -0.000 -0.516 -0.856 -0.000  0.000
      -0.000 -0.856  0.516 -0.000  0.000
       0.976 -0.000  0.000  0.000  0.219
      -0.219  0.000 -0.000  0.000  0.976
     occupation matrix ns (before diag.):
       0.080 -0.000 -0.000  0.000 -0.000
      -0.000  0.045 -0.000  0.000  0.000
      -0.000 -0.000  0.045  0.000  0.000
       0.000  0.000  0.000  0.042  0.016
      -0.000  0.000  0.000  0.016  0.110

     Number of occupied Hubbard levels =   41.8318

     HUBBARD ENERGY =    0.3186  (Ry)

     total cpu time spent up to now is       37.1 secs

     total energy              =   -3089.19618160 Ry
     estimated scf accuracy    <      11.81014441 Ry

     total magnetization       =    40.00 Bohr mag/cell
     absolute magnetization    =    40.00 Bohr mag/cell

     iteration #  2     ecut=    90.00 Ry     beta= 0.30
     Davidson diagonalization with overlap

---- Real-time Memory Report at c_bands before calling an iterative solver
          1116 MiB given to the printing process from OS
           730 MiB allocation reported by mallinfo(arena+hblkhd)
        674079 MiB available memory on the node where the printing process lives
------------------
     ethr =  3.60E-03,  avg # of iterations =  1.1

     =================== HUBBARD OCCUPATIONS ===================
     ------------------------ ATOM    9 ------------------------
     Tr[ns(  9)] (up, down, total) =   4.96399  0.24248  5.20648
     Atomic magnetic moment for atom   9 =   4.72151
     SPIN  1
     eigenvalues:
       0.982  0.994  0.996  0.996  0.997
     eigenvectors (columns):
       1.000 -0.000 -0.000  0.000  0.001
       0.000 -0.000  0.974  0.226 -0.000
       0.000 -0.000  0.226 -0.974 -0.000
       0.001 -0.023 -0.000  0.000 -1.000
       0.000  1.000  0.000 -0.000 -0.023
     occupation matrix ns (before diag.):
       0.982 -0.000 -0.000 -0.000 -0.000
      -0.000  0.996 -0.000  0.000  0.000
      -0.000 -0.000  0.996  0.000  0.000
      -0.000  0.000  0.000  0.997  0.000
      -0.000  0.000  0.000  0.000  0.994
     SPIN  2
     eigenvalues:
       0.031  0.031  0.031  0.058  0.091
     eigenvectors (columns):
      -0.000 -0.000  0.000 -1.000 -0.000
       0.000 -0.231  0.973  0.000  0.000
       0.000 -0.973 -0.231  0.000  0.000
      -0.981 -0.000  0.000  0.000 -0.196
      -0.196 -0.000  0.000 -0.000  0.981
     occupation matrix ns (before diag.):
       0.058 -0.000 -0.000  0.000 -0.000
      -0.000  0.031 -0.000  0.000  0.000
      -0.000 -0.000  0.031  0.000  0.000
       0.000  0.000  0.000  0.034 -0.011
      -0.000  0.000  0.000 -0.011  0.088
     ------------------------ ATOM   10 ------------------------
     Tr[ns( 10)] (up, down, total) =   4.96399  0.24253  5.20652
     Atomic magnetic moment for atom  10 =   4.72146
     SPIN  1
     eigenvalues:
       0.982  0.994  0.996  0.996  0.997
     eigenvectors (columns):
       1.000 -0.000 -0.000 -0.000  0.001
       0.000 -0.000  0.343  0.939 -0.000
       0.000 -0.000  0.939 -0.343 -0.000
       0.000 -0.026 -0.000 -0.000 -1.000
       0.000  1.000  0.000  0.000 -0.026
     occupation matrix ns (before diag.):
       0.982 -0.000 -0.000 -0.000 -0.000
      -0.000  0.996 -0.000  0.000  0.000
      -0.000 -0.000  0.996  0.000  0.000
      -0.000  0.000  0.000  0.997  0.000
      -0.000  0.000  0.000  0.000  0.994
     SPIN  2
     eigenvalues:
       0.031  0.031  0.031  0.058  0.091
     eigenvectors (columns):
      -0.000 -0.000 -0.000 -1.000 -0.000
      -0.000 -0.450  0.893  0.000  0.000
      -0.000 -0.893 -0.450  0.000  0.000
       0.981 -0.000 -0.000  0.000 -0.196
       0.196 -0.000 -0.000 -0.000  0.981
     occupation matrix ns (before diag.):
       0.058 -0.000 -0.000  0.000 -0.000
      -0.000  0.031 -0.000  0.000  0.000
      -0.000 -0.000  0.031  0.000  0.000
       0.000  0.000  0.000  0.034 -0.011
      -0.000  0.000  0.000 -0.011  0.088
     ------------------------ ATOM   11 ------------------------
     Tr[ns( 11)] (up, down, total) =   4.96400  0.24251  5.20651
     Atomic magnetic moment for atom  11 =   4.72149
     SPIN  1
     eigenvalues:
       0.982  0.994  0.996  0.996  0.997
     eigenvectors (columns):
      -1.000 -0.000 -0.000  0.000  0.000
      -0.000 -0.001 -0.469 -0.883  0.000
       0.000 -0.000 -0.883  0.469 -0.000
      -0.000 -0.025  0.000 -0.000 -1.000
      -0.000  1.000 -0.001 -0.001 -0.025
     occupation matrix ns (before diag.):
       0.982 -0.000  0.000 -0.000 -0.000
      -0.000  0.996 -0.000 -0.000  0.000
       0.000 -0.000  0.996  0.000  0.000
      -0.000 -0.000  0.000  0.997  0.000
      -0.000  0.000  0.000  0.000  0.994
     SPIN  2
     eigenvalues:
       0.031  0.031  0.031  0.058  0.091
     eigenvectors (columns):
      -0.000 -0.000  0.000 -1.000 -0.000
       0.011 -0.341  0.940  0.000 -0.000
       0.024 -0.940 -0.341 -0.000 -0.000
      -0.980 -0.026  0.002  0.000 -0.196
      -0.196 -0.005  0.000 -0.000  0.981
     occupation matrix ns (before diag.):
       0.058 -0.000  0.000 -0.000 -0.000
      -0.000  0.031 -0.000  0.000 -0.000
       0.000 -0.000  0.031  0.000  0.000
      -0.000  0.000  0.000  0.034 -0.011
      -0.000 -0.000  0.000 -0.011  0.088
     ------------------------ ATOM   12 ------------------------
     Tr[ns( 12)] (up, down, total) =   4.96400  0.24251  5.20651
     Atomic magnetic moment for atom  12 =   4.72149
     SPIN  1
     eigenvalues:
       0.982  0.994  0.996  0.996  0.997
     eigenvectors (columns):
      -1.000 -0.000  0.000 -0.000  0.000
       0.000  0.001 -0.469 -0.883 -0.000
      -0.000  0.000 -0.883  0.469  0.000
      -0.000 -0.025 -0.000  0.000 -1.000
      -0.000  1.000  0.001  0.001 -0.025
     occupation matrix ns (before diag.):
       0.982  0.000 -0.000 -0.000 -0.000
       0.000  0.996 -0.000  0.000 -0.000
      -0.000 -0.000  0.996 -0.000 -0.000
      -0.000  0.000 -0.000  0.997  0.000
      -0.000 -0.000 -0.000  0.000  0.994
     SPIN  2
     eigenvalues:
       0.031  0.031  0.031  0.058  0.091
     eigenvectors (columns):
       0.000  0.000  0.000 -1.000 -0.000
       0.011 -0.341 -0.940 -0.000  0.000
       0.024 -0.940  0.341  0.000  0.000
       0.980  0.026  0.002  0.000 -0.196
       0.196  0.005  0.000 -0.000  0.981
     occupation matrix ns (before diag.):
       0.058  0.000 -0.000 -0.000 -0.000
       0.000  0.031 -0.000 -0.000  0.000
      -0.000 -0.000  0.031 -0.000 -0.000
      -0.000 -0.000 -0.000  0.034 -0.011
      -0.000  0.000 -0.000 -0.011  0.088
     ------------------------ ATOM   13 ------------------------
     Tr[ns( 13)] (up, down, total) =   4.97446  0.40786  5.38232
     Atomic magnetic moment for atom  13 =   4.56661
     SPIN  1
     eigenvalues:
       0.988  0.994  0.997  0.997  0.998
     eigenvectors (columns):
       1.000 -0.000  0.000 -0.000  0.000
      -0.000  0.001  0.925  0.380 -0.001
      -0.000 -0.000  0.380 -0.925  0.000
       0.000  0.174 -0.001 -0.000 -0.985
       0.000  0.985 -0.000 -0.000  0.174
     occupation matrix ns (before diag.):
       0.988  0.000  0.000 -0.000 -0.000
       0.000  0.997 -0.000  0.000 -0.000
       0.000 -0.000  0.997  0.000  0.000
      -0.000  0.000  0.000  0.998 -0.001
      -0.000 -0.000  0.000 -0.001  0.994
     SPIN  2
     eigenvalues:
       0.048  0.058  0.058  0.100  0.143
     eigenvectors (columns):
      -0.000 -0.000  0.000 -1.000 -0.000
      -0.000 -0.536 -0.844 -0.000  0.000
      -0.000 -0.844  0.536  0.000 -0.000
       0.976 -0.000  0.000 -0.000  0.216
      -0.216  0.000  0.000 -0.000  0.976
     occupation matrix ns (before diag.):
       0.100  0.000 -0.000  0.000 -0.000
       0.000  0.058 -0.000  0.000  0.000
      -0.000 -0.000  0.058  0.000 -0.000
       0.000  0.000  0.000  0.053  0.020
      -0.000  0.000 -0.000  0.020  0.138
     ------------------------ ATOM   14 ------------------------
     Tr[ns( 14)] (up, down, total) =   4.97446  0.40786  5.38232
     Atomic magnetic moment for atom  14 =   4.56661
     SPIN  1
     eigenvalues:
       0.988  0.994  0.997  0.997  0.998
     eigenvectors (columns):
       1.000 -0.000 -0.000  0.000  0.000
       0.000 -0.001  0.925  0.380  0.001
       0.000  0.000  0.380 -0.925 -0.000
       0.000  0.174  0.001  0.000 -0.985
       0.000  0.985  0.000  0.000  0.174
     occupation matrix ns (before diag.):
       0.988 -0.000 -0.000 -0.000 -0.000
      -0.000  0.997 -0.000 -0.000  0.000
      -0.000 -0.000  0.997 -0.000 -0.000
      -0.000 -0.000 -0.000  0.998 -0.001
      -0.000  0.000 -0.000 -0.001  0.994
     SPIN  2
     eigenvalues:
       0.048  0.058  0.058  0.100  0.143
     eigenvectors (columns):
      -0.000 -0.000 -0.000  1.000 -0.000
       0.000  0.536 -0.844 -0.000 -0.000
       0.000  0.844  0.536  0.000  0.000
       0.976 -0.000 -0.000  0.000  0.216
      -0.216  0.000 -0.000  0.000  0.976
     occupation matrix ns (before diag.):
       0.100 -0.000  0.000  0.000 -0.000
      -0.000  0.058 -0.000 -0.000 -0.000
       0.000 -0.000  0.058 -0.000  0.000
       0.000 -0.000 -0.000  0.053  0.020
      -0.000 -0.000  0.000  0.020  0.138
     ------------------------ ATOM   15 ------------------------
     Tr[ns( 15)] (up, down, total) =   4.97447  0.40784  5.38231
     Atomic magnetic moment for atom  15 =   4.56663
     SPIN  1
     eigenvalues:
       0.988  0.994  0.997  0.997  0.998
     eigenvectors (columns):
      -1.000  0.000  0.000  0.000  0.000
      -0.000 -0.000 -0.958 -0.288 -0.000
      -0.000 -0.000  0.288 -0.958 -0.000
       0.000  0.174  0.000  0.000 -0.985
       0.000  0.985 -0.000 -0.000  0.174
     occupation matrix ns (before diag.):
       0.988 -0.000 -0.000  0.000  0.000
      -0.000  0.997  0.000  0.000  0.000
      -0.000  0.000  0.997  0.000  0.000
       0.000  0.000  0.000  0.998 -0.001
       0.000  0.000  0.000 -0.001  0.994
     SPIN  2
     eigenvalues:
       0.048  0.058  0.058  0.100  0.143
     eigenvectors (columns):
      -0.000 -0.000 -0.000 -1.000  0.000
      -0.000  0.887 -0.463  0.000  0.000
      -0.000 -0.463 -0.887  0.000  0.000
       0.976  0.000 -0.000  0.000  0.216
      -0.216  0.000  0.000  0.000  0.976
     occupation matrix ns (before diag.):
       0.100 -0.000 -0.000  0.000  0.000
      -0.000  0.058  0.000  0.000  0.000
      -0.000  0.000  0.058  0.000  0.000
       0.000  0.000  0.000  0.053  0.020
       0.000  0.000  0.000  0.020  0.138
     ------------------------ ATOM   16 ------------------------
     Tr[ns( 16)] (up, down, total) =   4.97446  0.40789  5.38235
     Atomic magnetic moment for atom  16 =   4.56658
     SPIN  1
     eigenvalues:
       0.988  0.994  0.997  0.997  0.998
     eigenvectors (columns):
      -1.000  0.001  0.000  0.000  0.000
      -0.000 -0.000 -0.967 -0.256 -0.000
      -0.000 -0.000  0.256 -0.967 -0.000
      -0.000  0.174  0.000  0.000 -0.985
       0.001  0.985 -0.000 -0.000  0.174
     occupation matrix ns (before diag.):
       0.988 -0.000 -0.000 -0.000  0.000
      -0.000  0.997  0.000  0.000  0.000
      -0.000  0.000  0.997  0.000  0.000
      -0.000  0.000  0.000  0.998 -0.001
       0.000  0.000  0.000 -0.001  0.994
     SPIN  2
     eigenvalues:
       0.048  0.058  0.058  0.100  0.143
     eigenvectors (columns):
      -0.000 -0.000 -0.000  1.000 -0.000
      -0.000  0.072 -0.997 -0.000  0.000
      -0.000 -0.997 -0.072 -0.000  0.000
       0.977 -0.000 -0.000  0.000  0.215
      -0.215  0.000  0.000  0.000  0.977
     occupation matrix ns (before diag.):
       0.100 -0.000 -0.000  0.000 -0.000
      -0.000  0.058  0.000  0.000  0.000
      -0.000  0.000  0.058  0.000  0.000
       0.000  0.000  0.000  0.053  0.020
      -0.000  0.000  0.000  0.020  0.138

     Number of occupied Hubbard levels =   42.3553

     HUBBARD ENERGY =    0.3706  (Ry)

     total cpu time spent up to now is       57.3 secs

     total energy              =   -3087.82649407 Ry
     estimated scf accuracy    <       4.82460878 Ry

     total magnetization       =    40.00 Bohr mag/cell
     absolute magnetization    =    40.00 Bohr mag/cell

     iteration #  3     ecut=    90.00 Ry     beta= 0.30
     Davidson diagonalization with overlap

---- Real-time Memory Report at c_bands before calling an iterative solver
          1229 MiB given to the printing process from OS
           742 MiB allocation reported by mallinfo(arena+hblkhd)
        674006 MiB available memory on the node where the printing process lives
------------------
     ethr =  1.47E-03,  avg # of iterations =  2.6

     =================== HUBBARD OCCUPATIONS ===================
     ------------------------ ATOM    9 ------------------------
     Tr[ns(  9)] (up, down, total) =   4.95959  0.30869  5.26828
     Atomic magnetic moment for atom   9 =   4.65090
     SPIN  1
     eigenvalues:
       0.979  0.992  0.996  0.996  0.997
     eigenvectors (columns):
       1.000 -0.000 -0.000  0.000  0.000
       0.000 -0.000  0.624  0.781 -0.000
       0.000 -0.000  0.781 -0.624 -0.000
       0.000 -0.105 -0.000  0.000 -0.994
       0.000  0.994  0.000 -0.000 -0.105
     occupation matrix ns (before diag.):
       0.979 -0.000 -0.000 -0.000 -0.000
      -0.000  0.996 -0.000  0.000  0.000
      -0.000 -0.000  0.996  0.000  0.000
      -0.000  0.000  0.000  0.997  0.000
      -0.000  0.000  0.000  0.000  0.992
     SPIN  2
     eigenvalues:
       0.043  0.043  0.043  0.070  0.109
     eigenvectors (columns):
      -0.000 -0.000  0.000  1.000 -0.000
      -0.386  0.923  0.000 -0.000  0.000
      -0.923 -0.386  0.000 -0.000  0.000
       0.000 -0.000  0.985 -0.000 -0.172
       0.000 -0.000  0.172  0.000  0.985
     occupation matrix ns (before diag.):
       0.070 -0.000 -0.000 -0.000 -0.000
      -0.000  0.043 -0.000  0.000  0.000
      -0.000 -0.000  0.043  0.000  0.000
      -0.000  0.000  0.000  0.045 -0.011
      -0.000  0.000  0.000 -0.011  0.107
     ------------------------ ATOM   10 ------------------------
     Tr[ns( 10)] (up, down, total) =   4.95958  0.30878  5.26836
     Atomic magnetic moment for atom  10 =   4.65080
     SPIN  1
     eigenvalues:
       0.979  0.992  0.996  0.996  0.997
     eigenvectors (columns):
       1.000 -0.000 -0.000 -0.000  0.000
       0.000 -0.000  0.236  0.972 -0.000
       0.000 -0.000  0.972 -0.236 -0.000
       0.000 -0.107 -0.000 -0.000 -0.994
       0.000  0.994  0.000  0.000 -0.107
     occupation matrix ns (before diag.):
       0.979 -0.000 -0.000 -0.000 -0.000
      -0.000  0.996 -0.000  0.000  0.000
      -0.000 -0.000  0.996  0.000  0.000
      -0.000  0.000  0.000  0.997  0.000
      -0.000  0.000  0.000  0.000  0.992
     SPIN  2
     eigenvalues:
       0.043  0.043  0.043  0.070  0.109
     eigenvectors (columns):
      -0.000 -0.000 -0.000  1.000 -0.000
      -0.694  0.720  0.000 -0.000  0.000
      -0.720 -0.694  0.000 -0.000  0.000
       0.000  0.000  0.985  0.000 -0.172
       0.000  0.000  0.172  0.000  0.985
     occupation matrix ns (before diag.):
       0.070 -0.000 -0.000  0.000 -0.000
      -0.000  0.043 -0.000  0.000  0.000
      -0.000 -0.000  0.043  0.000  0.000
       0.000  0.000  0.000  0.045 -0.011
      -0.000  0.000  0.000 -0.011  0.107
     ------------------------ ATOM   11 ------------------------
     Tr[ns( 11)] (up, down, total) =   4.95960  0.30873  5.26833
     Atomic magnetic moment for atom  11 =   4.65087
     SPIN  1
     eigenvalues:
       0.979  0.992  0.996  0.996  0.997
     eigenvectors (columns):
      -1.000 -0.000 -0.000  0.000  0.000
      -0.000  0.000 -0.229 -0.973  0.000
       0.000 -0.001 -0.973  0.229  0.001
      -0.000 -0.107 -0.001  0.000 -0.994
      -0.000  0.994 -0.001  0.000 -0.107
     occupation matrix ns (before diag.):
       0.979 -0.000  0.000 -0.000 -0.000
      -0.000  0.996 -0.000 -0.000 -0.000
       0.000 -0.000  0.996 -0.000  0.000
      -0.000 -0.000 -0.000  0.997  0.000
      -0.000 -0.000  0.000  0.000  0.992
     SPIN  2
     eigenvalues:
       0.043  0.043  0.043  0.070  0.109
     eigenvectors (columns):
      -0.000  0.000  0.000  1.000 -0.000
      -0.827  0.476  0.300 -0.000  0.000
      -0.501 -0.865 -0.008  0.000  0.000
       0.252 -0.155  0.940 -0.000 -0.172
       0.044 -0.027  0.164  0.000  0.985
     occupation matrix ns (before diag.):
       0.070 -0.000  0.000 -0.000 -0.000
      -0.000  0.043 -0.000  0.000  0.000
       0.000 -0.000  0.043 -0.000  0.000
      -0.000  0.000 -0.000  0.045 -0.011
      -0.000  0.000  0.000 -0.011  0.107
     ------------------------ ATOM   12 ------------------------
     Tr[ns( 12)] (up, down, total) =   4.95960  0.30873  5.26833
     Atomic magnetic moment for atom  12 =   4.65087
     SPIN  1
     eigenvalues:
       0.979  0.992  0.996  0.996  0.997
     eigenvectors (columns):
      -1.000 -0.000  0.000 -0.000  0.000
       0.000 -0.000 -0.229 -0.973 -0.000
      -0.000  0.001 -0.973  0.229 -0.001
      -0.000 -0.107  0.001 -0.000 -0.994
      -0.000  0.994  0.001 -0.000 -0.107
     occupation matrix ns (before diag.):
       0.979  0.000 -0.000 -0.000 -0.000
       0.000  0.996 -0.000  0.000  0.000
      -0.000 -0.000  0.996  0.000 -0.000
      -0.000  0.000  0.000  0.997  0.000
      -0.000  0.000 -0.000  0.000  0.992
     SPIN  2
     eigenvalues:
       0.043  0.043  0.043  0.070  0.109
     eigenvectors (columns):
       0.000  0.000 -0.000  1.000 -0.000
      -0.827 -0.476  0.300  0.000 -0.000
      -0.501  0.865 -0.008 -0.000 -0.000
      -0.252 -0.155 -0.940 -0.000 -0.172
      -0.044 -0.027 -0.164  0.000  0.985
     occupation matrix ns (before diag.):
       0.070  0.000 -0.000 -0.000 -0.000
       0.000  0.043 -0.000 -0.000 -0.000
      -0.000 -0.000  0.043  0.000 -0.000
      -0.000 -0.000  0.000  0.045 -0.011
      -0.000 -0.000 -0.000 -0.011  0.107
     ------------------------ ATOM   13 ------------------------
     Tr[ns( 13)] (up, down, total) =   4.97584  0.79918  5.77502
     Atomic magnetic moment for atom  13 =   4.17666
     SPIN  1
     eigenvalues:
       0.990  0.993  0.997  0.997  0.998
     eigenvectors (columns):
       1.000 -0.000 -0.000 -0.000 -0.000
       0.000  0.000  0.833 -0.554 -0.001
      -0.000  0.000 -0.554 -0.833 -0.001
      -0.000  0.178 -0.000  0.001 -0.984
       0.000  0.984  0.000  0.000  0.178
     occupation matrix ns (before diag.):
       0.990 -0.000  0.000  0.000 -0.000
      -0.000  0.997  0.000  0.000 -0.000
       0.000  0.000  0.997  0.000 -0.000
       0.000  0.000  0.000  0.998 -0.001
      -0.000 -0.000 -0.000 -0.001  0.993
     SPIN  2
     eigenvalues:
       0.100  0.129  0.129  0.192  0.250
     eigenvectors (columns):
      -0.000 -0.000  0.000 -1.000 -0.000
       0.000 -0.725 -0.688 -0.000  0.000
       0.000 -0.688  0.725  0.000 -0.000
       0.979  0.000  0.000 -0.000  0.204
      -0.204 -0.000  0.000 -0.000  0.979
     occupation matrix ns (before diag.):
       0.192  0.000 -0.000  0.000 -0.000
       0.000  0.129 -0.000  0.000  0.000
      -0.000 -0.000  0.129 -0.000 -0.000
       0.000  0.000 -0.000  0.106  0.030
      -0.000  0.000 -0.000  0.030  0.244
     ------------------------ ATOM   14 ------------------------
     Tr[ns( 14)] (up, down, total) =   4.97584  0.79918  5.77502
     Atomic magnetic moment for atom  14 =   4.17666
     SPIN  1
     eigenvalues:
       0.990  0.993  0.997  0.997  0.998
     eigenvectors (columns):
       1.000 -0.000  0.000  0.000 -0.000
      -0.000 -0.000  0.833 -0.554  0.001
       0.000 -0.000 -0.554 -0.833  0.001
      -0.000  0.178  0.000 -0.001 -0.984
       0.000  0.984 -0.000 -0.000  0.178
     occupation matrix ns (before diag.):
       0.990  0.000 -0.000  0.000 -0.000
       0.000  0.997  0.000 -0.000  0.000
      -0.000  0.000  0.997 -0.000  0.000
       0.000 -0.000 -0.000  0.998 -0.001
      -0.000  0.000  0.000 -0.001  0.993
     SPIN  2
     eigenvalues:
       0.100  0.129  0.129  0.192  0.250
     eigenvectors (columns):
      -0.000 -0.000 -0.000  1.000 -0.000
      -0.000  0.725 -0.688 -0.000 -0.000
      -0.000  0.688  0.725  0.000  0.000
       0.979  0.000 -0.000  0.000  0.204
      -0.204 -0.000 -0.000  0.000  0.979
     occupation matrix ns (before diag.):
       0.192 -0.000  0.000  0.000 -0.000
      -0.000  0.129 -0.000 -0.000 -0.000
       0.000 -0.000  0.129  0.000  0.000
       0.000 -0.000  0.000  0.106  0.030
      -0.000 -0.000  0.000  0.030  0.244
     ------------------------ ATOM   15 ------------------------
     Tr[ns( 15)] (up, down, total) =   4.97584  0.79913  5.77497
     Atomic magnetic moment for atom  15 =   4.17671
     SPIN  1
     eigenvalues:
       0.990  0.993  0.997  0.997  0.998
     eigenvectors (columns):
      -1.000  0.000 -0.000  0.000 -0.000
      -0.000 -0.000 -0.101 -0.995 -0.000
      -0.000 -0.000  0.995 -0.101 -0.000
       0.000  0.179 -0.000  0.000 -0.984
       0.000  0.984  0.000 -0.000  0.179
     occupation matrix ns (before diag.):
       0.990 -0.000 -0.000  0.000  0.000
      -0.000  0.997  0.000  0.000  0.000
      -0.000  0.000  0.997  0.000  0.000
       0.000  0.000  0.000  0.998 -0.001
       0.000  0.000  0.000 -0.001  0.993
     SPIN  2
     eigenvalues:
       0.100  0.129  0.129  0.192  0.250
     eigenvectors (columns):
       0.000  0.000 -0.000 -1.000  0.000
      -0.000  1.000  0.026  0.000  0.000
      -0.000  0.026 -1.000  0.000  0.000
       0.979  0.000 -0.000  0.000  0.204
      -0.204 -0.000  0.000  0.000  0.979
     occupation matrix ns (before diag.):
       0.192 -0.000 -0.000 -0.000  0.000
      -0.000  0.129 -0.000  0.000  0.000
      -0.000 -0.000  0.129  0.000  0.000
      -0.000  0.000  0.000  0.106  0.030
       0.000  0.000  0.000  0.030  0.244
     ------------------------ ATOM   16 ------------------------
     Tr[ns( 16)] (up, down, total) =   4.97584  0.79922  5.77506
     Atomic magnetic moment for atom  16 =   4.17662
     SPIN  1
     eigenvalues:
       0.990  0.993  0.997  0.997  0.998
     eigenvectors (columns):
       1.000 -0.000 -0.000  0.000 -0.000
       0.000 -0.000  0.969 -0.247 -0.000
       0.000 -0.000 -0.247 -0.969 -0.000
      -0.000  0.179 -0.000  0.000 -0.984
       0.000  0.984  0.000 -0.000  0.179
     occupation matrix ns (before diag.):
       0.990 -0.000 -0.000  0.000 -0.000
      -0.000  0.997  0.000  0.000  0.000
      -0.000  0.000  0.997  0.000  0.000
       0.000  0.000  0.000  0.998 -0.001
      -0.000  0.000  0.000 -0.001  0.993
     SPIN  2
     eigenvalues:
       0.100  0.129  0.129  0.192  0.250
     eigenvectors (columns):
      -0.000 -0.000  0.000  1.000 -0.000
      -0.000 -0.704 -0.710 -0.000  0.000
      -0.000 -0.710  0.704 -0.000  0.000
       0.979 -0.000  0.000  0.000  0.204
      -0.204  0.000 -0.000  0.000  0.979
     occupation matrix ns (before diag.):
       0.192 -0.000 -0.000  0.000 -0.000
      -0.000  0.129 -0.000  0.000  0.000
      -0.000 -0.000  0.129  0.000  0.000
       0.000  0.000  0.000  0.106  0.030
      -0.000  0.000  0.000  0.030  0.244

     Number of occupied Hubbard levels =   44.1734

     HUBBARD ENERGY =    0.4838  (Ry)

     total cpu time spent up to now is       82.3 secs

     total energy              =   -3088.70676717 Ry
     estimated scf accuracy    <       0.30504330 Ry

     total magnetization       =    40.00 Bohr mag/cell
     absolute magnetization    =    40.00 Bohr mag/cell

     iteration #  4     ecut=    90.00 Ry     beta= 0.30
     Davidson diagonalization with overlap

---- Real-time Memory Report at c_bands before calling an iterative solver
          1241 MiB given to the printing process from OS
           753 MiB allocation reported by mallinfo(arena+hblkhd)
        674067 MiB available memory on the node where the printing process lives
------------------
     c_bands:  1 eigenvalues not converged
     ethr =  9.30E-05,  avg # of iterations =  9.8

     =================== HUBBARD OCCUPATIONS ===================
     ------------------------ ATOM    9 ------------------------
     Tr[ns(  9)] (up, down, total) =   4.95781  0.29227  5.25008
     Atomic magnetic moment for atom   9 =   4.66553
     SPIN  1
     eigenvalues:
       0.977  0.992  0.996  0.996  0.997
     eigenvectors (columns):
      -1.000  0.000  0.000  0.000  0.000
      -0.000 -0.000 -0.930  0.368 -0.000
      -0.000 -0.000 -0.368 -0.930 -0.000
      -0.000 -0.106  0.000  0.000 -0.994
       0.000  0.994 -0.000 -0.000 -0.106
     occupation matrix ns (before diag.):
       0.977 -0.000 -0.000 -0.000  0.000
      -0.000  0.996 -0.000  0.000  0.000
      -0.000 -0.000  0.996  0.000  0.000
      -0.000  0.000  0.000  0.997  0.000
       0.000  0.000  0.000  0.000  0.992
     SPIN  2
     eigenvalues:
       0.040  0.040  0.040  0.067  0.105
     eigenvectors (columns):
      -0.000 -0.000 -0.000 -1.000  0.000
      -0.000 -0.953  0.302  0.000  0.000
      -0.000 -0.302 -0.953  0.000  0.000
       0.985 -0.000 -0.000 -0.000 -0.171
       0.171 -0.000 -0.000  0.000  0.985
     occupation matrix ns (before diag.):
       0.067 -0.000 -0.000  0.000  0.000
      -0.000  0.040 -0.000  0.000  0.000
      -0.000 -0.000  0.040  0.000  0.000
       0.000  0.000  0.000  0.042 -0.011
       0.000  0.000  0.000 -0.011  0.104
     ------------------------ ATOM   10 ------------------------
     Tr[ns( 10)] (up, down, total) =   4.95780  0.29227  5.25007
     Atomic magnetic moment for atom  10 =   4.66553
     SPIN  1
     eigenvalues:
       0.977  0.992  0.996  0.996  0.997
     eigenvectors (columns):
      -1.000  0.000 -0.000 -0.000  0.000
      -0.000 -0.000  0.668 -0.744 -0.000
      -0.000 -0.000  0.744  0.668 -0.000
      -0.000 -0.106 -0.000 -0.000 -0.994
       0.000  0.994  0.000  0.000 -0.106
     occupation matrix ns (before diag.):
       0.977 -0.000 -0.000 -0.000  0.000
      -0.000  0.996 -0.000  0.000  0.000
      -0.000 -0.000  0.996  0.000  0.000
      -0.000  0.000  0.000  0.997  0.000
       0.000  0.000  0.000  0.000  0.992
     SPIN  2
     eigenvalues:
       0.040  0.040  0.040  0.067  0.105
     eigenvectors (columns):
       0.000  0.000 -0.000 -1.000 -0.000
       0.000  0.993 -0.117  0.000  0.000
       0.000 -0.117 -0.993  0.000  0.000
      -0.985  0.000 -0.000 -0.000 -0.171
      -0.171  0.000 -0.000 -0.000  0.985
     occupation matrix ns (before diag.):
       0.067 -0.000 -0.000  0.000  0.000
      -0.000  0.040  0.000  0.000  0.000
      -0.000  0.000  0.040  0.000  0.000
       0.000  0.000  0.000  0.042 -0.011
       0.000  0.000  0.000 -0.011  0.104
     ------------------------ ATOM   11 ------------------------
     Tr[ns( 11)] (up, down, total) =   4.95780  0.29226  5.25006
     Atomic magnetic moment for atom  11 =   4.66554
     SPIN  1
     eigenvalues:
       0.977  0.992  0.996  0.996  0.997
     eigenvectors (columns):
      -1.000  0.000  0.000  0.000  0.000
      -0.000 -0.000 -0.990 -0.144  0.000
       0.000 -0.000 -0.144  0.990 -0.000
      -0.000 -0.106 -0.000 -0.000 -0.994
       0.000  0.994 -0.000  0.000 -0.106
     occupation matrix ns (before diag.):
       0.977 -0.000  0.000 -0.000  0.000
      -0.000  0.996 -0.000 -0.000  0.000
       0.000 -0.000  0.996  0.000  0.000
      -0.000 -0.000  0.000  0.997  0.000
       0.000  0.000  0.000  0.000  0.992
     SPIN  2
     eigenvalues:
       0.040  0.040  0.040  0.067  0.105
     eigenvectors (columns):
       0.000 -0.000  0.000 -1.000 -0.000
       0.014 -0.901  0.434  0.000 -0.000
       0.008 -0.434 -0.901 -0.000  0.000
      -0.985 -0.016 -0.001 -0.000 -0.171
      -0.171 -0.003 -0.000 -0.000  0.985
     occupation matrix ns (before diag.):
       0.067 -0.000  0.000  0.000 -0.000
      -0.000  0.040 -0.000  0.000 -0.000
       0.000 -0.000  0.040  0.000  0.000
       0.000  0.000  0.000  0.042 -0.011
      -0.000 -0.000  0.000 -0.011  0.104
     ------------------------ ATOM   12 ------------------------
     Tr[ns( 12)] (up, down, total) =   4.95780  0.29226  5.25006
     Atomic magnetic moment for atom  12 =   4.66554
     SPIN  1
     eigenvalues:
       0.977  0.992  0.996  0.996  0.997
     eigenvectors (columns):
      -1.000  0.000 -0.000 -0.000  0.000
       0.000  0.000 -0.990 -0.144 -0.000
      -0.000  0.000 -0.144  0.990  0.000
      -0.000 -0.106  0.000  0.000 -0.994
       0.000  0.994  0.000 -0.000 -0.106
     occupation matrix ns (before diag.):
       0.977  0.000 -0.000 -0.000  0.000
       0.000  0.996 -0.000  0.000 -0.000
      -0.000 -0.000  0.996 -0.000 -0.000
      -0.000  0.000 -0.000  0.997  0.000
       0.000 -0.000 -0.000  0.000  0.992
     SPIN  2
     eigenvalues:
       0.040  0.040  0.040  0.067  0.105
     eigenvectors (columns):
      -0.000  0.000  0.000 -1.000 -0.000
       0.014 -0.901 -0.434 -0.000  0.000
       0.008 -0.434  0.901  0.000 -0.000
       0.985  0.016 -0.001 -0.000 -0.171
       0.171  0.003 -0.000 -0.000  0.985
     occupation matrix ns (before diag.):
       0.067  0.000 -0.000  0.000 -0.000
       0.000  0.040 -0.000 -0.000  0.000
      -0.000 -0.000  0.040 -0.000 -0.000
       0.000 -0.000 -0.000  0.042 -0.011
      -0.000  0.000 -0.000 -0.011  0.104
     ------------------------ ATOM   13 ------------------------
     Tr[ns( 13)] (up, down, total) =   4.97571  0.78694  5.76265
     Atomic magnetic moment for atom  13 =   4.18876
     SPIN  1
     eigenvalues:
       0.990  0.993  0.997  0.997  0.998
     eigenvectors (columns):
       1.000  0.000 -0.000 -0.000  0.000
       0.000  0.000  0.337  0.942 -0.000
      -0.000  0.000 -0.942  0.337 -0.000
       0.000  0.181  0.000 -0.000 -0.984
      -0.000  0.984  0.000  0.000  0.181
     occupation matrix ns (before diag.):
       0.990 -0.000  0.000 -0.000  0.000
      -0.000  0.997  0.000  0.000 -0.000
       0.000  0.000  0.997  0.000 -0.000
      -0.000  0.000  0.000  0.998 -0.001
       0.000 -0.000 -0.000 -0.001  0.993
     SPIN  2
     eigenvalues:
       0.095  0.125  0.125  0.191  0.252
     eigenvectors (columns):
      -0.000 -0.000  0.000 -1.000 -0.000
      -0.000 -0.721 -0.693 -0.000  0.000
      -0.000 -0.693  0.721  0.000 -0.000
       0.979 -0.000  0.000 -0.000  0.203
      -0.203  0.000  0.000 -0.000  0.979
     occupation matrix ns (before diag.):
       0.191  0.000 -0.000  0.000 -0.000
       0.000  0.125 -0.000  0.000  0.000
      -0.000 -0.000  0.125  0.000 -0.000
       0.000  0.000  0.000  0.102  0.031
      -0.000  0.000 -0.000  0.031  0.245
     ------------------------ ATOM   14 ------------------------
     Tr[ns( 14)] (up, down, total) =   4.97571  0.78694  5.76265
     Atomic magnetic moment for atom  14 =   4.18876
     SPIN  1
     eigenvalues:
       0.990  0.993  0.997  0.997  0.998
     eigenvectors (columns):
       1.000  0.000  0.000  0.000  0.000
      -0.000 -0.000  0.337  0.942  0.000
       0.000 -0.000 -0.942  0.337  0.000
       0.000  0.181 -0.000  0.000 -0.984
      -0.000  0.984 -0.000 -0.000  0.181
     occupation matrix ns (before diag.):
       0.990  0.000 -0.000 -0.000  0.000
       0.000  0.997  0.000 -0.000  0.000
      -0.000  0.000  0.997 -0.000  0.000
      -0.000 -0.000 -0.000  0.998 -0.001
       0.000  0.000  0.000 -0.001  0.993
     SPIN  2
     eigenvalues:
       0.095  0.125  0.125  0.191  0.252
     eigenvectors (columns):
      -0.000 -0.000 -0.000  1.000 -0.000
       0.000  0.721 -0.693 -0.000 -0.000
       0.000  0.693  0.721  0.000  0.000
       0.979 -0.000 -0.000  0.000  0.203
      -0.203  0.000 -0.000  0.000  0.979
     occupation matrix ns (before diag.):
       0.191 -0.000  0.000  0.000 -0.000
      -0.000  0.125 -0.000 -0.000 -0.000
       0.000 -0.000  0.125 -0.000  0.000
       0.000 -0.000 -0.000  0.102  0.031
      -0.000 -0.000  0.000  0.031  0.245
     ------------------------ ATOM   15 ------------------------
     Tr[ns( 15)] (up, down, total) =   4.97570  0.78697  5.76267
     Atomic magnetic moment for atom  15 =   4.18873
     SPIN  1
     eigenvalues:
       0.990  0.993  0.997  0.997  0.998
     eigenvectors (columns):
      -1.000  0.000 -0.000  0.000 -0.000
      -0.000 -0.000 -0.261 -0.965 -0.000
      -0.000 -0.000  0.965 -0.261 -0.000
       0.000  0.181 -0.000  0.000 -0.984
       0.000  0.984  0.000 -0.000  0.181
     occupation matrix ns (before diag.):
       0.990 -0.000 -0.000  0.000  0.000
      -0.000  0.997  0.000  0.000  0.000
      -0.000  0.000  0.997  0.000  0.000
       0.000  0.000  0.000  0.998 -0.001
       0.000  0.000  0.000 -0.001  0.993
     SPIN  2
     eigenvalues:
       0.095  0.125  0.125  0.191  0.252
     eigenvectors (columns):
       0.000 -0.000 -0.000 -1.000  0.000
      -0.000 -0.776  0.631  0.000  0.000
      -0.000 -0.631 -0.776  0.000  0.000
       0.979 -0.000 -0.000  0.000  0.203
      -0.203  0.000  0.000  0.000  0.979
     occupation matrix ns (before diag.):
       0.191 -0.000 -0.000 -0.000  0.000
      -0.000  0.125 -0.000  0.000  0.000
      -0.000 -0.000  0.125  0.000  0.000
      -0.000  0.000  0.000  0.102  0.031
       0.000  0.000  0.000  0.031  0.245
     ------------------------ ATOM   16 ------------------------
     Tr[ns( 16)] (up, down, total) =   4.97570  0.78693  5.76263
     Atomic magnetic moment for atom  16 =   4.18877
     SPIN  1
     eigenvalues:
       0.990  0.993  0.997  0.997  0.998
     eigenvectors (columns):
       1.000 -0.000  0.000  0.000  0.000
       0.000 -0.000  0.854 -0.520 -0.000
       0.000 -0.000 -0.520 -0.854 -0.000
       0.000  0.181  0.000  0.000 -0.984
       0.000  0.984 -0.000 -0.000  0.181
     occupation matrix ns (before diag.):
       0.990 -0.000 -0.000 -0.000 -0.000
      -0.000  0.997  0.000  0.000  0.000
      -0.000  0.000  0.997  0.000  0.000
      -0.000  0.000  0.000  0.998 -0.001
      -0.000  0.000  0.000 -0.001  0.993
     SPIN  2
     eigenvalues:
       0.095  0.125  0.125  0.191  0.252
     eigenvectors (columns):
       0.000 -0.000 -0.000 -1.000  0.000
      -0.000 -0.785  0.619  0.000  0.000
      -0.000 -0.619 -0.785  0.000  0.000
       0.979 -0.000 -0.000  0.000  0.203
      -0.203  0.000  0.000  0.000  0.979
     occupation matrix ns (before diag.):
       0.191 -0.000 -0.000  0.000  0.000
      -0.000  0.125 -0.000  0.000  0.000
      -0.000 -0.000  0.125  0.000  0.000
       0.000  0.000  0.000  0.102  0.031
       0.000  0.000  0.000  0.031  0.245

     Number of occupied Hubbard levels =   44.0509

     HUBBARD ENERGY =    0.6210  (Ry)

     total cpu time spent up to now is      112.0 secs

     total energy              =   -3088.71865460 Ry
     estimated scf accuracy    <       0.11849512 Ry

     total magnetization       =    40.00 Bohr mag/cell
     absolute magnetization    =    40.01 Bohr mag/cell

     iteration #  5     ecut=    90.00 Ry     beta= 0.30
     Davidson diagonalization with overlap

---- Real-time Memory Report at c_bands before calling an iterative solver
          1253 MiB given to the printing process from OS
           765 MiB allocation reported by mallinfo(arena+hblkhd)
        674023 MiB available memory on the node where the printing process lives
------------------
     c_bands:  1 eigenvalues not converged
     ethr =  3.61E-05,  avg # of iterations =  3.3

     =================== HUBBARD OCCUPATIONS ===================
     ------------------------ ATOM    9 ------------------------
     Tr[ns(  9)] (up, down, total) =   4.95479  0.28283  5.23763
     Atomic magnetic moment for atom   9 =   4.67196
     SPIN  1
     eigenvalues:
       0.975  0.991  0.996  0.996  0.997
     eigenvectors (columns):
      -1.000  0.000 -0.000  0.000  0.000
      -0.000 -0.000  0.304 -0.953 -0.000
      -0.000 -0.000  0.953  0.304 -0.000
      -0.000 -0.137 -0.000  0.000 -0.991
       0.000  0.991  0.000  0.000 -0.137
     occupation matrix ns (before diag.):
       0.975 -0.000 -0.000 -0.000  0.000
      -0.000  0.996 -0.000  0.000  0.000
      -0.000 -0.000  0.996  0.000  0.000
      -0.000  0.000  0.000  0.997  0.001
       0.000  0.000  0.000  0.001  0.991
     SPIN  2
     eigenvalues:
       0.038  0.038  0.038  0.065  0.103
     eigenvectors (columns):
      -0.000 -0.000 -0.000 -1.000 -0.000
       0.000 -0.816  0.577  0.000  0.000
       0.000 -0.577 -0.816  0.000  0.000
      -0.986 -0.000 -0.000  0.000 -0.165
      -0.165 -0.000 -0.000 -0.000  0.986
     occupation matrix ns (before diag.):
       0.065 -0.000 -0.000 -0.000 -0.000
      -0.000  0.038 -0.000  0.000  0.000
      -0.000 -0.000  0.038  0.000  0.000
      -0.000  0.000  0.000  0.040 -0.010
      -0.000  0.000  0.000 -0.010  0.101
     ------------------------ ATOM   10 ------------------------
     Tr[ns( 10)] (up, down, total) =   4.95479  0.28283  5.23762
     Atomic magnetic moment for atom  10 =   4.67196
     SPIN  1
     eigenvalues:
       0.975  0.991  0.996  0.996  0.997
     eigenvectors (columns):
      -1.000  0.000 -0.000  0.000 -0.000
      -0.000 -0.000  0.340 -0.940 -0.000
      -0.000 -0.000  0.940  0.340 -0.000
      -0.000 -0.137 -0.000  0.000 -0.991
       0.000  0.991  0.000  0.000 -0.137
     occupation matrix ns (before diag.):
       0.975 -0.000 -0.000 -0.000  0.000
      -0.000  0.996 -0.000  0.000  0.000
      -0.000 -0.000  0.996  0.000  0.000
      -0.000  0.000  0.000  0.997  0.001
       0.000  0.000  0.000  0.001  0.991
     SPIN  2
     eigenvalues:
       0.038  0.038  0.038  0.065  0.103
     eigenvectors (columns):
      -0.000 -0.000 -0.000 -1.000 -0.000
       0.000 -0.760  0.650  0.000  0.000
       0.000 -0.650 -0.760  0.000  0.000
      -0.986 -0.000 -0.000  0.000 -0.165
      -0.165 -0.000 -0.000 -0.000  0.986
     occupation matrix ns (before diag.):
       0.065 -0.000 -0.000 -0.000 -0.000
      -0.000  0.038 -0.000  0.000  0.000
      -0.000 -0.000  0.038  0.000  0.000
      -0.000  0.000  0.000  0.040 -0.010
      -0.000  0.000  0.000 -0.010  0.101
     ------------------------ ATOM   11 ------------------------
     Tr[ns( 11)] (up, down, total) =   4.95479  0.28283  5.23762
     Atomic magnetic moment for atom  11 =   4.67196
     SPIN  1
     eigenvalues:
       0.975  0.991  0.996  0.996  0.997
     eigenvectors (columns):
      -1.000  0.000 -0.000  0.000  0.000
       0.000 -0.000 -0.559 -0.829  0.000
       0.000 -0.000 -0.829  0.559 -0.000
      -0.000 -0.137 -0.000 -0.000 -0.991
       0.000  0.991 -0.000  0.000 -0.137
     occupation matrix ns (before diag.):
       0.975  0.000  0.000 -0.000  0.000
       0.000  0.996 -0.000 -0.000  0.000
       0.000 -0.000  0.996 -0.000  0.000
      -0.000 -0.000 -0.000  0.997  0.001
       0.000  0.000  0.000  0.001  0.991
     SPIN  2
     eigenvalues:
       0.038  0.038  0.038  0.065  0.103
     eigenvectors (columns):
      -0.000  0.000  0.000 -1.000 -0.000
       0.002 -0.710  0.704 -0.000 -0.000
       0.002 -0.704 -0.710 -0.000  0.000
      -0.986 -0.003  0.000  0.000 -0.165
      -0.165 -0.001  0.000 -0.000  0.986
     occupation matrix ns (before diag.):
       0.065  0.000  0.000 -0.000 -0.000
       0.000  0.038 -0.000  0.000 -0.000
       0.000 -0.000  0.038  0.000  0.000
      -0.000  0.000  0.000  0.040 -0.010
      -0.000 -0.000  0.000 -0.010  0.101
     ------------------------ ATOM   12 ------------------------
     Tr[ns( 12)] (up, down, total) =   4.95479  0.28283  5.23762
     Atomic magnetic moment for atom  12 =   4.67196
     SPIN  1
     eigenvalues:
       0.975  0.991  0.996  0.996  0.997
     eigenvectors (columns):
      -1.000  0.000  0.000 -0.000  0.000
      -0.000  0.000 -0.559 -0.829 -0.000
      -0.000  0.000 -0.829  0.559  0.000
      -0.000 -0.137  0.000  0.000 -0.991
       0.000  0.991  0.000 -0.000 -0.137
     occupation matrix ns (before diag.):
       0.975 -0.000 -0.000 -0.000  0.000
      -0.000  0.996 -0.000  0.000 -0.000
      -0.000 -0.000  0.996  0.000 -0.000
      -0.000  0.000  0.000  0.997  0.001
       0.000 -0.000 -0.000  0.001  0.991
     SPIN  2
     eigenvalues:
       0.038  0.038  0.038  0.065  0.103
     eigenvectors (columns):
       0.000 -0.000  0.000 -1.000 -0.000
       0.002 -0.710 -0.704  0.000  0.000
       0.002 -0.704  0.710  0.000 -0.000
       0.986  0.003  0.000  0.000 -0.165
       0.165  0.001  0.000 -0.000  0.986
     occupation matrix ns (before diag.):
       0.065 -0.000 -0.000 -0.000 -0.000
      -0.000  0.038 -0.000 -0.000  0.000
      -0.000 -0.000  0.038 -0.000 -0.000
      -0.000 -0.000 -0.000  0.040 -0.010
      -0.000  0.000 -0.000 -0.010  0.101
     ------------------------ ATOM   13 ------------------------
     Tr[ns( 13)] (up, down, total) =   4.97532  0.87218  5.84750
     Atomic magnetic moment for atom  13 =   4.10313
     SPIN  1
     eigenvalues:
       0.990  0.993  0.997  0.997  0.998
     eigenvectors (columns):
      -1.000 -0.000  0.000  0.000 -0.000
       0.000  0.000  0.180 -0.984  0.000
       0.000  0.000  0.984  0.180 -0.000
      -0.000  0.186 -0.000 -0.000 -0.983
      -0.000  0.983 -0.000  0.000  0.186
     occupation matrix ns (before diag.):
       0.990  0.000  0.000 -0.000 -0.000
       0.000  0.997 -0.000 -0.000 -0.000
       0.000 -0.000  0.997  0.000 -0.000
      -0.000 -0.000  0.000  0.998 -0.001
      -0.000 -0.000 -0.000 -0.001  0.993
     SPIN  2
     eigenvalues:
       0.101  0.139  0.139  0.215  0.278
     eigenvectors (columns):
      -0.000 -0.000  0.000  1.000  0.000
       0.000  0.740 -0.673  0.000  0.000
       0.000  0.673  0.740 -0.000 -0.000
       0.980 -0.000  0.000  0.000  0.199
      -0.199 -0.000  0.000 -0.000  0.980
     occupation matrix ns (before diag.):
       0.215  0.000 -0.000  0.000 -0.000
       0.000  0.139 -0.000 -0.000  0.000
      -0.000 -0.000  0.139 -0.000 -0.000
       0.000 -0.000 -0.000  0.108  0.034
      -0.000  0.000 -0.000  0.034  0.271
     ------------------------ ATOM   14 ------------------------
     Tr[ns( 14)] (up, down, total) =   4.97532  0.87218  5.84750
     Atomic magnetic moment for atom  14 =   4.10313
     SPIN  1
     eigenvalues:
       0.990  0.993  0.997  0.997  0.998
     eigenvectors (columns):
      -1.000 -0.000 -0.000 -0.000 -0.000
      -0.000 -0.000  0.180 -0.984 -0.000
      -0.000 -0.000  0.984  0.180  0.000
      -0.000  0.186  0.000  0.000 -0.983
      -0.000  0.983  0.000 -0.000  0.186
     occupation matrix ns (before diag.):
       0.990 -0.000 -0.000 -0.000 -0.000
      -0.000  0.997 -0.000  0.000  0.000
      -0.000 -0.000  0.997 -0.000  0.000
      -0.000  0.000 -0.000  0.998 -0.001
      -0.000  0.000  0.000 -0.001  0.993
     SPIN  2
     eigenvalues:
       0.101  0.139  0.139  0.215  0.278
     eigenvectors (columns):
      -0.000 -0.000 -0.000 -1.000  0.000
      -0.000 -0.740 -0.673  0.000 -0.000
      -0.000 -0.673  0.740 -0.000  0.000
       0.980 -0.000 -0.000 -0.000  0.199
      -0.199 -0.000 -0.000  0.000  0.980
     occupation matrix ns (before diag.):
       0.215 -0.000  0.000  0.000 -0.000
      -0.000  0.139 -0.000  0.000 -0.000
       0.000 -0.000  0.139  0.000  0.000
       0.000  0.000  0.000  0.108  0.034
      -0.000 -0.000  0.000  0.034  0.271
     ------------------------ ATOM   15 ------------------------
     Tr[ns( 15)] (up, down, total) =   4.97532  0.87224  5.84756
     Atomic magnetic moment for atom  15 =   4.10308
     SPIN  1
     eigenvalues:
       0.990  0.993  0.997  0.997  0.998
     eigenvectors (columns):
      -1.000  0.000 -0.000 -0.000 -0.000
      -0.000 -0.000  0.448 -0.894 -0.000
      -0.000 -0.000  0.894  0.448 -0.000
       0.000  0.186 -0.000  0.000 -0.983
       0.000  0.983  0.000  0.000  0.186
     occupation matrix ns (before diag.):
       0.990 -0.000 -0.000  0.000  0.000
      -0.000  0.997 -0.000  0.000  0.000
      -0.000 -0.000  0.997  0.000  0.000
       0.000  0.000  0.000  0.998 -0.001
       0.000  0.000  0.000 -0.001  0.993
     SPIN  2
     eigenvalues:
       0.101  0.139  0.139  0.215  0.278
     eigenvectors (columns):
       0.000 -0.000 -0.000 -1.000  0.000
      -0.000 -0.691  0.723  0.000  0.000
      -0.000 -0.723 -0.691  0.000  0.000
       0.980 -0.000 -0.000  0.000  0.199
      -0.199  0.000  0.000  0.000  0.980
     occupation matrix ns (before diag.):
       0.215 -0.000 -0.000 -0.000  0.000
      -0.000  0.139 -0.000  0.000  0.000
      -0.000 -0.000  0.139  0.000  0.000
      -0.000  0.000  0.000  0.108  0.034
       0.000  0.000  0.000  0.034  0.271
     ------------------------ ATOM   16 ------------------------
     Tr[ns( 16)] (up, down, total) =   4.97532  0.87220  5.84752
     Atomic magnetic moment for atom  16 =   4.10312
     SPIN  1
     eigenvalues:
       0.990  0.993  0.997  0.997  0.998
     eigenvectors (columns):
       1.000 -0.000 -0.000  0.000 -0.000
       0.000 -0.000  0.587  0.809 -0.000
       0.000 -0.000  0.809 -0.587 -0.000
       0.000  0.186 -0.000  0.000 -0.983
       0.000  0.983  0.000 -0.000  0.186
     occupation matrix ns (before diag.):
       0.990 -0.000 -0.000  0.000 -0.000
      -0.000  0.997 -0.000  0.000  0.000
      -0.000 -0.000  0.997  0.000  0.000
       0.000  0.000  0.000  0.998 -0.001
      -0.000  0.000  0.000 -0.001  0.993
     SPIN  2
     eigenvalues:
       0.101  0.139  0.139  0.215  0.278
     eigenvectors (columns):
      -0.000 -0.000 -0.000 -1.000 -0.000
      -0.000 -0.819  0.574  0.000  0.000
      -0.000 -0.574 -0.819  0.000  0.000
       0.980 -0.000 -0.000 -0.000  0.199
      -0.199  0.000  0.000  0.000  0.980
     occupation matrix ns (before diag.):
       0.215 -0.000 -0.000  0.000 -0.000
      -0.000  0.139 -0.000  0.000  0.000
      -0.000 -0.000  0.139  0.000  0.000
       0.000  0.000  0.000  0.108  0.034
      -0.000  0.000  0.000  0.034  0.271

     Number of occupied Hubbard levels =   44.3406

     HUBBARD ENERGY =    0.6230  (Ry)

     total cpu time spent up to now is      139.2 secs

     total energy              =   -3088.73028295 Ry
     estimated scf accuracy    <       0.02466351 Ry

     total magnetization       =    39.97 Bohr mag/cell
     absolute magnetization    =    40.02 Bohr mag/cell

     iteration #  6     ecut=    90.00 Ry     beta= 0.30
     Davidson diagonalization with overlap

---- Real-time Memory Report at c_bands before calling an iterative solver
          1264 MiB given to the printing process from OS
           777 MiB allocation reported by mallinfo(arena+hblkhd)
        673884 MiB available memory on the node where the printing process lives
------------------
     ethr =  7.52E-06,  avg # of iterations =  5.8

     =================== HUBBARD OCCUPATIONS ===================
     ------------------------ ATOM    9 ------------------------
     Tr[ns(  9)] (up, down, total) =   4.95305  0.28549  5.23853
     Atomic magnetic moment for atom   9 =   4.66756
     SPIN  1
     eigenvalues:
       0.975  0.990  0.996  0.996  0.997
     eigenvectors (columns):
       1.000  0.000 -0.000  0.000 -0.000
       0.000 -0.000  0.463  0.886 -0.000
       0.000 -0.000  0.886 -0.463 -0.000
      -0.000 -0.168 -0.000  0.000 -0.986
      -0.000  0.986 -0.000 -0.000 -0.168
     occupation matrix ns (before diag.):
       0.975 -0.000 -0.000  0.000  0.000
      -0.000  0.996 -0.000  0.000  0.000
      -0.000 -0.000  0.996  0.000  0.000
       0.000  0.000  0.000  0.997  0.001
       0.000  0.000  0.000  0.001  0.990
     SPIN  2
     eigenvalues:
       0.039  0.039  0.039  0.066  0.103
     eigenvectors (columns):
      -0.000 -0.000 -0.000 -1.000  0.000
      -0.000 -0.137 -0.991  0.000  0.000
      -0.000 -0.991  0.137  0.000  0.000
       0.987 -0.000 -0.000 -0.000 -0.164
       0.164 -0.000 -0.000  0.000  0.987
     occupation matrix ns (before diag.):
       0.066 -0.000 -0.000  0.000  0.000
      -0.000  0.039 -0.000  0.000  0.000
      -0.000 -0.000  0.039  0.000  0.000
       0.000  0.000  0.000  0.041 -0.010
       0.000  0.000  0.000 -0.010  0.101
     ------------------------ ATOM   10 ------------------------
     Tr[ns( 10)] (up, down, total) =   4.95304  0.28548  5.23852
     Atomic magnetic moment for atom  10 =   4.66757
     SPIN  1
     eigenvalues:
       0.975  0.990  0.996  0.996  0.997
     eigenvectors (columns):
       1.000  0.000 -0.000  0.000 -0.000
       0.000 -0.000  0.598  0.801 -0.000
       0.000 -0.000  0.801 -0.598 -0.000
      -0.000 -0.168 -0.000  0.000 -0.986
      -0.000  0.986 -0.000 -0.000 -0.168
     occupation matrix ns (before diag.):
       0.975 -0.000 -0.000  0.000  0.000
      -0.000  0.996 -0.000  0.000  0.000
      -0.000 -0.000  0.996  0.000  0.000
       0.000  0.000  0.000  0.997  0.001
       0.000  0.000  0.000  0.001  0.990
     SPIN  2
     eigenvalues:
       0.039  0.039  0.039  0.066  0.103
     eigenvectors (columns):
      -0.000 -0.000  0.000  1.000 -0.000
      -0.000 -0.098  0.995 -0.000  0.000
      -0.000 -0.995 -0.098 -0.000  0.000
       0.987 -0.000  0.000  0.000 -0.164
       0.164 -0.000  0.000  0.000  0.987
     occupation matrix ns (before diag.):
       0.066 -0.000 -0.000  0.000 -0.000
      -0.000  0.039 -0.000  0.000  0.000
      -0.000 -0.000  0.039  0.000  0.000
       0.000  0.000  0.000  0.041 -0.010
      -0.000  0.000  0.000 -0.010  0.101
     ------------------------ ATOM   11 ------------------------
     Tr[ns( 11)] (up, down, total) =   4.95304  0.28548  5.23853
     Atomic magnetic moment for atom  11 =   4.66756
     SPIN  1
     eigenvalues:
       0.975  0.990  0.996  0.996  0.997
     eigenvectors (columns):
       1.000  0.000  0.000 -0.000 -0.000
       0.000  0.000 -0.676  0.737  0.000
      -0.000  0.000 -0.737 -0.676 -0.000
      -0.000 -0.168 -0.000  0.000 -0.986
      -0.000  0.986  0.000 -0.000 -0.168
     occupation matrix ns (before diag.):
       0.975 -0.000  0.000  0.000  0.000
      -0.000  0.996 -0.000  0.000 -0.000
       0.000 -0.000  0.996  0.000 -0.000
       0.000  0.000  0.000  0.997  0.001
       0.000 -0.000 -0.000  0.001  0.990
     SPIN  2
     eigenvalues:
       0.039  0.039  0.039  0.066  0.103
     eigenvectors (columns):
       0.000 -0.000 -0.000 -1.000  0.000
      -0.003 -0.167  0.986 -0.000 -0.000
      -0.014 -0.986 -0.167  0.000 -0.000
      -0.986  0.014 -0.001 -0.000 -0.164
      -0.164  0.002 -0.000  0.000  0.987
     occupation matrix ns (before diag.):
       0.066  0.000 -0.000  0.000  0.000
       0.000  0.039 -0.000 -0.000 -0.000
      -0.000 -0.000  0.039 -0.000 -0.000
       0.000 -0.000 -0.000  0.041 -0.010
       0.000 -0.000 -0.000 -0.010  0.101
     ------------------------ ATOM   12 ------------------------
     Tr[ns( 12)] (up, down, total) =   4.95304  0.28548  5.23853
     Atomic magnetic moment for atom  12 =   4.66756
     SPIN  1
     eigenvalues:
       0.975  0.990  0.996  0.996  0.997
     eigenvectors (columns):
       1.000  0.000 -0.000  0.000 -0.000
      -0.000 -0.000 -0.676  0.737 -0.000
       0.000 -0.000 -0.737 -0.676  0.000
      -0.000 -0.168  0.000 -0.000 -0.986
      -0.000  0.986 -0.000  0.000 -0.168
     occupation matrix ns (before diag.):
       0.975  0.000 -0.000  0.000  0.000
       0.000  0.996 -0.000 -0.000  0.000
      -0.000 -0.000  0.996 -0.000  0.000
       0.000 -0.000 -0.000  0.997  0.001
       0.000  0.000  0.000  0.001  0.990
     SPIN  2
     eigenvalues:
       0.039  0.039  0.039  0.066  0.103
     eigenvectors (columns):
      -0.000  0.000 -0.000 -1.000  0.000
      -0.003 -0.167 -0.986  0.000  0.000
      -0.014 -0.986  0.167 -0.000  0.000
       0.986 -0.014 -0.001 -0.000 -0.164
       0.164 -0.002 -0.000  0.000  0.987
     occupation matrix ns (before diag.):
       0.066 -0.000  0.000  0.000  0.000
      -0.000  0.039 -0.000  0.000  0.000
       0.000 -0.000  0.039  0.000  0.000
       0.000  0.000  0.000  0.041 -0.010
       0.000  0.000  0.000 -0.010  0.101
     ------------------------ ATOM   13 ------------------------
     Tr[ns( 13)] (up, down, total) =   4.97488  0.90415  5.87902
     Atomic magnetic moment for atom  13 =   4.07073
     SPIN  1
     eigenvalues:
       0.990  0.992  0.997  0.997  0.998
     eigenvectors (columns):
       1.000 -0.000 -0.000 -0.000 -0.000
       0.000  0.000  0.325  0.946  0.000
      -0.000 -0.000 -0.946  0.325 -0.000
       0.000  0.194  0.000  0.000 -0.981
       0.000  0.981 -0.000 -0.000  0.194
     occupation matrix ns (before diag.):
       0.990 -0.000  0.000  0.000 -0.000
      -0.000  0.997  0.000 -0.000 -0.000
       0.000  0.000  0.997  0.000  0.000
       0.000 -0.000  0.000  0.998 -0.001
      -0.000 -0.000  0.000 -0.001  0.993
     SPIN  2
     eigenvalues:
       0.105  0.144  0.144  0.226  0.285
     eigenvectors (columns):
      -0.000 -0.000  0.000  1.000  0.000
       0.000  0.738 -0.674  0.000  0.000
      -0.000  0.674  0.738  0.000 -0.000
       0.980 -0.000  0.000  0.000  0.198
      -0.198 -0.000  0.000 -0.000  0.980
     occupation matrix ns (before diag.):
       0.226  0.000  0.000  0.000  0.000
       0.000  0.144 -0.000 -0.000  0.000
       0.000 -0.000  0.144  0.000 -0.000
       0.000 -0.000  0.000  0.112  0.035
       0.000  0.000 -0.000  0.035  0.278
     ------------------------ ATOM   14 ------------------------
     Tr[ns( 14)] (up, down, total) =   4.97488  0.90415  5.87902
     Atomic magnetic moment for atom  14 =   4.07073
     SPIN  1
     eigenvalues:
       0.990  0.992  0.997  0.997  0.998
     eigenvectors (columns):
       1.000 -0.000  0.000  0.000 -0.000
      -0.000 -0.000  0.325  0.946 -0.000
       0.000  0.000 -0.946  0.325  0.000
       0.000  0.194 -0.000 -0.000 -0.981
       0.000  0.981  0.000  0.000  0.194
     occupation matrix ns (before diag.):
       0.990  0.000 -0.000  0.000 -0.000
       0.000  0.997  0.000  0.000  0.000
      -0.000  0.000  0.997 -0.000 -0.000
       0.000  0.000 -0.000  0.998 -0.001
      -0.000  0.000 -0.000 -0.001  0.993
     SPIN  2
     eigenvalues:
       0.105  0.144  0.144  0.226  0.285
     eigenvectors (columns):
      -0.000 -0.000 -0.000 -1.000  0.000
      -0.000 -0.738 -0.674  0.000 -0.000
       0.000 -0.674  0.738  0.000  0.000
       0.980 -0.000 -0.000 -0.000  0.198
      -0.198 -0.000 -0.000  0.000  0.980
     occupation matrix ns (before diag.):
       0.226 -0.000 -0.000  0.000  0.000
      -0.000  0.144 -0.000  0.000 -0.000
      -0.000 -0.000  0.144 -0.000  0.000
       0.000  0.000 -0.000  0.112  0.035
       0.000 -0.000  0.000  0.035  0.278
     ------------------------ ATOM   15 ------------------------
     Tr[ns( 15)] (up, down, total) =   4.97488  0.90420  5.87908
     Atomic magnetic moment for atom  15 =   4.07067
     SPIN  1
     eigenvalues:
       0.990  0.992  0.997  0.997  0.998
     eigenvectors (columns):
       1.000 -0.000 -0.000 -0.000 -0.000
       0.000 -0.000 -0.043  0.999 -0.000
       0.000 -0.000  0.999  0.043 -0.000
      -0.000  0.194 -0.000 -0.000 -0.981
       0.000  0.981  0.000  0.000  0.194
     occupation matrix ns (before diag.):
       0.990 -0.000 -0.000  0.000 -0.000
      -0.000  0.997  0.000  0.000  0.000
      -0.000  0.000  0.997  0.000  0.000
       0.000  0.000  0.000  0.998 -0.001
      -0.000  0.000  0.000 -0.001  0.993
     SPIN  2
     eigenvalues:
       0.105  0.144  0.144  0.226  0.285
     eigenvectors (columns):
       0.000 -0.000 -0.000 -1.000  0.000
      -0.000 -0.687  0.727  0.000  0.000
      -0.000 -0.727 -0.687  0.000  0.000
       0.980 -0.000 -0.000  0.000  0.198
      -0.198  0.000  0.000  0.000  0.980
     occupation matrix ns (before diag.):
       0.226 -0.000 -0.000 -0.000  0.000
      -0.000  0.144 -0.000  0.000  0.000
      -0.000 -0.000  0.144  0.000  0.000
      -0.000  0.000  0.000  0.112  0.035
       0.000  0.000  0.000  0.035  0.278
     ------------------------ ATOM   16 ------------------------
     Tr[ns( 16)] (up, down, total) =   4.97487  0.90416  5.87903
     Atomic magnetic moment for atom  16 =   4.07072
     SPIN  1
     eigenvalues:
       0.990  0.992  0.997  0.997  0.998
     eigenvectors (columns):
       1.000 -0.000 -0.000 -0.000 -0.000
       0.000 -0.000  0.235  0.972 -0.000
       0.000 -0.000  0.972 -0.235 -0.000
       0.000  0.194 -0.000 -0.000 -0.981
       0.000  0.981  0.000  0.000  0.194
     occupation matrix ns (before diag.):
       0.990 -0.000 -0.000  0.000 -0.000
      -0.000  0.997 -0.000  0.000  0.000
      -0.000 -0.000  0.997  0.000  0.000
       0.000  0.000  0.000  0.998 -0.001
      -0.000  0.000  0.000 -0.001  0.993
     SPIN  2
     eigenvalues:
       0.105  0.144  0.144  0.226  0.285
     eigenvectors (columns):
      -0.000 -0.000  0.000  1.000 -0.000
      -0.000 -0.789 -0.615 -0.000  0.000
      -0.000 -0.615  0.789 -0.000  0.000
       0.980 -0.000  0.000  0.000  0.198
      -0.198  0.000 -0.000  0.000  0.980
     occupation matrix ns (before diag.):
       0.226 -0.000 -0.000  0.000 -0.000
      -0.000  0.144 -0.000  0.000  0.000
      -0.000 -0.000  0.144  0.000  0.000
       0.000  0.000  0.000  0.112  0.035
      -0.000  0.000  0.000  0.035  0.278

     Number of occupied Hubbard levels =   44.4703

     HUBBARD ENERGY =    0.6187  (Ry)

     total cpu time spent up to now is      164.7 secs

     total energy              =   -3088.72970274 Ry
     estimated scf accuracy    <       0.01526376 Ry

     total magnetization       =    39.92 Bohr mag/cell
     absolute magnetization    =    39.99 Bohr mag/cell

     iteration #  7     ecut=    90.00 Ry     beta= 0.30
     Davidson diagonalization with overlap

---- Real-time Memory Report at c_bands before calling an iterative solver
          1276 MiB given to the printing process from OS
           789 MiB allocation reported by mallinfo(arena+hblkhd)
        673954 MiB available memory on the node where the printing process lives
------------------
     ethr =  4.65E-06,  avg # of iterations =  2.2

     =================== HUBBARD OCCUPATIONS ===================
     ------------------------ ATOM    9 ------------------------
     Tr[ns(  9)] (up, down, total) =   4.95471  0.28932  5.24403
     Atomic magnetic moment for atom   9 =   4.66538
     SPIN  1
     eigenvalues:
       0.975  0.991  0.996  0.996  0.997
     eigenvectors (columns):
      -1.000  0.000  0.000  0.000 -0.000
      -0.000 -0.000 -0.857  0.515 -0.000
      -0.000 -0.000 -0.515 -0.857 -0.000
       0.000 -0.144  0.000  0.000 -0.990
       0.000  0.990 -0.000 -0.000 -0.144
     occupation matrix ns (before diag.):
       0.975 -0.000 -0.000  0.000  0.000
      -0.000  0.996 -0.000  0.000  0.000
      -0.000 -0.000  0.996  0.000  0.000
       0.000  0.000  0.000  0.997  0.001
       0.000  0.000  0.000  0.001  0.991
     SPIN  2
     eigenvalues:
       0.039  0.040  0.040  0.067  0.104
     eigenvectors (columns):
      -0.000 -0.000 -0.000 -1.000  0.000
      -0.000  0.246 -0.969  0.000  0.000
      -0.000 -0.969 -0.246  0.000  0.000
       0.986 -0.000 -0.000 -0.000 -0.164
       0.164 -0.000 -0.000  0.000  0.986
     occupation matrix ns (before diag.):
       0.067 -0.000 -0.000  0.000  0.000
      -0.000  0.040  0.000  0.000  0.000
      -0.000  0.000  0.040  0.000  0.000
       0.000  0.000  0.000  0.041 -0.010
       0.000  0.000  0.000 -0.010  0.102
     ------------------------ ATOM   10 ------------------------
     Tr[ns( 10)] (up, down, total) =   4.95471  0.28933  5.24403
     Atomic magnetic moment for atom  10 =   4.66538
     SPIN  1
     eigenvalues:
       0.975  0.991  0.996  0.996  0.997
     eigenvectors (columns):
      -1.000  0.000  0.000  0.000 -0.000
      -0.000 -0.000 -0.949  0.315 -0.000
      -0.000 -0.000 -0.315 -0.949 -0.000
       0.000 -0.144  0.000  0.000 -0.990
       0.000  0.990 -0.000 -0.000 -0.144
     occupation matrix ns (before diag.):
       0.975 -0.000 -0.000  0.000  0.000
      -0.000  0.996 -0.000  0.000  0.000
      -0.000 -0.000  0.996  0.000  0.000
       0.000  0.000  0.000  0.997  0.001
       0.000  0.000  0.000  0.001  0.991
     SPIN  2
     eigenvalues:
       0.039  0.040  0.040  0.067  0.104
     eigenvectors (columns):
      -0.000 -0.000 -0.000 -1.000  0.000
      -0.000  0.719 -0.695  0.000  0.000
      -0.000 -0.695 -0.719  0.000  0.000
       0.986 -0.000 -0.000 -0.000 -0.164
       0.164 -0.000 -0.000 -0.000  0.986
     occupation matrix ns (before diag.):
       0.067 -0.000 -0.000  0.000  0.000
      -0.000  0.040  0.000  0.000  0.000
      -0.000  0.000  0.040  0.000  0.000
       0.000  0.000  0.000  0.041 -0.010
       0.000  0.000  0.000 -0.010  0.102
     ------------------------ ATOM   11 ------------------------
     Tr[ns( 11)] (up, down, total) =   4.95471  0.28933  5.24404
     Atomic magnetic moment for atom  11 =   4.66538
     SPIN  1
     eigenvalues:
       0.975  0.991  0.996  0.996  0.997
     eigenvectors (columns):
       1.000  0.000  0.000 -0.000 -0.000
       0.000  0.000 -0.980  0.197 -0.000
      -0.000  0.000 -0.197 -0.980  0.000
      -0.000 -0.144  0.000 -0.000 -0.990
      -0.000  0.990  0.000 -0.000 -0.144
     occupation matrix ns (before diag.):
       0.975 -0.000  0.000  0.000  0.000
      -0.000  0.996 -0.000  0.000 -0.000
       0.000 -0.000  0.996 -0.000 -0.000
       0.000  0.000 -0.000  0.997  0.001
       0.000 -0.000 -0.000  0.001  0.991
     SPIN  2
     eigenvalues:
       0.039  0.040  0.040  0.067  0.104
     eigenvectors (columns):
       0.000 -0.000 -0.000 -1.000  0.000
      -0.001  0.268  0.963 -0.000 -0.000
      -0.003 -0.963  0.268  0.000 -0.000
      -0.986  0.003 -0.002 -0.000 -0.164
      -0.164  0.000 -0.000  0.000  0.986
     occupation matrix ns (before diag.):
       0.067  0.000 -0.000  0.000  0.000
       0.000  0.040  0.000 -0.000 -0.000
      -0.000  0.000  0.040 -0.000 -0.000
       0.000 -0.000 -0.000  0.041 -0.010
       0.000 -0.000 -0.000 -0.010  0.102
     ------------------------ ATOM   12 ------------------------
     Tr[ns( 12)] (up, down, total) =   4.95471  0.28933  5.24404
     Atomic magnetic moment for atom  12 =   4.66538
     SPIN  1
     eigenvalues:
       0.975  0.991  0.996  0.996  0.997
     eigenvectors (columns):
       1.000  0.000 -0.000  0.000 -0.000
      -0.000 -0.000 -0.980  0.197  0.000
       0.000 -0.000 -0.197 -0.980 -0.000
      -0.000 -0.144 -0.000  0.000 -0.990
      -0.000  0.990 -0.000  0.000 -0.144
     occupation matrix ns (before diag.):
       0.975  0.000 -0.000  0.000  0.000
       0.000  0.996 -0.000 -0.000  0.000
      -0.000 -0.000  0.996  0.000  0.000
       0.000 -0.000  0.000  0.997  0.001
       0.000  0.000  0.000  0.001  0.991
     SPIN  2
     eigenvalues:
       0.039  0.040  0.040  0.067  0.104
     eigenvectors (columns):
      -0.000  0.000 -0.000 -1.000  0.000
      -0.001  0.268 -0.963  0.000  0.000
      -0.003 -0.963 -0.268 -0.000  0.000
       0.986 -0.003 -0.002 -0.000 -0.164
       0.164 -0.000 -0.000  0.000  0.986
     occupation matrix ns (before diag.):
       0.067 -0.000  0.000  0.000  0.000
      -0.000  0.040  0.000  0.000  0.000
       0.000  0.000  0.040  0.000  0.000
       0.000  0.000  0.000  0.041 -0.010
       0.000  0.000  0.000 -0.010  0.102
     ------------------------ ATOM   13 ------------------------
     Tr[ns( 13)] (up, down, total) =   4.97492  0.87842  5.85334
     Atomic magnetic moment for atom  13 =   4.09650
     SPIN  1
     eigenvalues:
       0.990  0.992  0.997  0.997  0.998
     eigenvectors (columns):
       1.000 -0.000 -0.000  0.000  0.000
      -0.000  0.000  0.771  0.637 -0.000
      -0.000 -0.000 -0.637  0.771 -0.000
       0.000  0.190  0.000 -0.000 -0.982
       0.000  0.982 -0.000 -0.000  0.190
     occupation matrix ns (before diag.):
       0.990  0.000  0.000 -0.000 -0.000
       0.000  0.997  0.000 -0.000 -0.000
       0.000  0.000  0.997  0.000  0.000
      -0.000 -0.000  0.000  0.998 -0.001
      -0.000 -0.000  0.000 -0.001  0.993
     SPIN  2
     eigenvalues:
       0.100  0.139  0.139  0.221  0.280
     eigenvectors (columns):
      -0.000 -0.000 -0.000  1.000  0.000
       0.000  0.768 -0.640 -0.000  0.000
       0.000  0.640  0.768  0.000 -0.000
       0.980 -0.000  0.000 -0.000  0.197
      -0.197 -0.000  0.000 -0.000  0.980
     occupation matrix ns (before diag.):
       0.221 -0.000  0.000  0.000  0.000
      -0.000  0.139 -0.000 -0.000  0.000
       0.000 -0.000  0.139 -0.000 -0.000
       0.000 -0.000 -0.000  0.107  0.035
       0.000  0.000 -0.000  0.035  0.273
     ------------------------ ATOM   14 ------------------------
     Tr[ns( 14)] (up, down, total) =   4.97492  0.87842  5.85334
     Atomic magnetic moment for atom  14 =   4.09650
     SPIN  1
     eigenvalues:
       0.990  0.992  0.997  0.997  0.998
     eigenvectors (columns):
       1.000 -0.000  0.000 -0.000  0.000
       0.000 -0.000  0.771  0.637  0.000
       0.000  0.000 -0.637  0.771  0.000
       0.000  0.190 -0.000  0.000 -0.982
       0.000  0.982  0.000  0.000  0.190
     occupation matrix ns (before diag.):
       0.990 -0.000 -0.000 -0.000 -0.000
      -0.000  0.997  0.000  0.000  0.000
      -0.000  0.000  0.997 -0.000 -0.000
      -0.000  0.000 -0.000  0.998 -0.001
      -0.000  0.000 -0.000 -0.001  0.993
     SPIN  2
     eigenvalues:
       0.100  0.139  0.139  0.221  0.280
     eigenvectors (columns):
      -0.000 -0.000  0.000 -1.000  0.000
      -0.000 -0.768 -0.640 -0.000 -0.000
      -0.000 -0.640  0.768  0.000  0.000
       0.980 -0.000 -0.000  0.000  0.197
      -0.197 -0.000 -0.000  0.000  0.980
     occupation matrix ns (before diag.):
       0.221  0.000 -0.000  0.000  0.000
       0.000  0.139 -0.000  0.000 -0.000
      -0.000 -0.000  0.139  0.000  0.000
       0.000  0.000  0.000  0.107  0.035
       0.000 -0.000  0.000  0.035  0.273
     ------------------------ ATOM   15 ------------------------
     Tr[ns( 15)] (up, down, total) =   4.97492  0.87843  5.85335
     Atomic magnetic moment for atom  15 =   4.09649
     SPIN  1
     eigenvalues:
       0.990  0.992  0.997  0.997  0.998
     eigenvectors (columns):
       1.000 -0.000 -0.000  0.000  0.000
       0.000 -0.000  0.861 -0.508 -0.000
       0.000 -0.000 -0.508 -0.861 -0.000
       0.000  0.190  0.000  0.000 -0.982
       0.000  0.982 -0.000 -0.000  0.190
     occupation matrix ns (before diag.):
       0.990 -0.000 -0.000 -0.000 -0.000
      -0.000  0.997  0.000  0.000  0.000
      -0.000  0.000  0.997  0.000  0.000
      -0.000  0.000  0.000  0.998 -0.001
      -0.000  0.000  0.000 -0.001  0.993
     SPIN  2
     eigenvalues:
       0.100  0.139  0.139  0.221  0.280
     eigenvectors (columns):
       0.000 -0.000 -0.000 -1.000  0.000
      -0.000 -0.669  0.743  0.000  0.000
      -0.000 -0.743 -0.669  0.000  0.000
       0.980 -0.000 -0.000  0.000  0.197
      -0.197  0.000  0.000  0.000  0.980
     occupation matrix ns (before diag.):
       0.221 -0.000 -0.000  0.000  0.000
      -0.000  0.139 -0.000  0.000  0.000
      -0.000 -0.000  0.139  0.000  0.000
       0.000  0.000  0.000  0.107  0.035
       0.000  0.000  0.000  0.035  0.273
     ------------------------ ATOM   16 ------------------------
     Tr[ns( 16)] (up, down, total) =   4.97492  0.87841  5.85333
     Atomic magnetic moment for atom  16 =   4.09651
     SPIN  1
     eigenvalues:
       0.990  0.992  0.997  0.997  0.998
     eigenvectors (columns):
      -1.000  0.000  0.000  0.000 -0.000
      -0.000 -0.000 -0.960 -0.281 -0.000
      -0.000 -0.000  0.281 -0.960 -0.000
       0.000  0.190  0.000  0.000 -0.982
       0.000  0.982 -0.000 -0.000  0.190
     occupation matrix ns (before diag.):
       0.990 -0.000 -0.000  0.000  0.000
      -0.000  0.997  0.000  0.000  0.000
      -0.000  0.000  0.997  0.000  0.000
       0.000  0.000  0.000  0.998 -0.001
       0.000  0.000  0.000 -0.001  0.993
     SPIN  2
     eigenvalues:
       0.100  0.139  0.139  0.221  0.280
     eigenvectors (columns):
      -0.000 -0.000 -0.000 -1.000  0.000
      -0.000  0.791 -0.611  0.000  0.000
      -0.000 -0.611 -0.791  0.000  0.000
       0.980 -0.000 -0.000 -0.000  0.197
      -0.197  0.000  0.000  0.000  0.980
     occupation matrix ns (before diag.):
       0.221 -0.000 -0.000  0.000 -0.000
      -0.000  0.139  0.000  0.000  0.000
      -0.000  0.000  0.139  0.000  0.000
       0.000  0.000  0.000  0.107  0.035
      -0.000  0.000  0.000  0.035  0.273

     Number of occupied Hubbard levels =   44.3895

     HUBBARD ENERGY =    0.6170  (Ry)

     total cpu time spent up to now is      187.2 secs

     total energy              =   -3088.73091783 Ry
     estimated scf accuracy    <       0.00165213 Ry

     total magnetization       =    39.96 Bohr mag/cell
     absolute magnetization    =    40.03 Bohr mag/cell

     iteration #  8     ecut=    90.00 Ry     beta= 0.30
     Davidson diagonalization with overlap

---- Real-time Memory Report at c_bands before calling an iterative solver
          1288 MiB given to the printing process from OS
           800 MiB allocation reported by mallinfo(arena+hblkhd)
        673898 MiB available memory on the node where the printing process lives
------------------
     ethr =  5.04E-07,  avg # of iterations =  5.6

     =================== HUBBARD OCCUPATIONS ===================
     ------------------------ ATOM    9 ------------------------
     Tr[ns(  9)] (up, down, total) =   4.95539  0.29025  5.24564
     Atomic magnetic moment for atom   9 =   4.66514
     SPIN  1
     eigenvalues:
       0.976  0.991  0.996  0.996  0.997
     eigenvectors (columns):
      -1.000  0.000 -0.000 -0.000 -0.000
      -0.000 -0.000  0.744 -0.669 -0.000
      -0.000 -0.000  0.669  0.744 -0.000
       0.000 -0.129 -0.000 -0.000 -0.992
       0.000  0.992  0.000  0.000 -0.129
     occupation matrix ns (before diag.):
       0.976 -0.000 -0.000  0.000  0.000
      -0.000  0.996 -0.000  0.000  0.000
      -0.000 -0.000  0.996  0.000  0.000
       0.000  0.000  0.000  0.997  0.001
       0.000  0.000  0.000  0.001  0.991
     SPIN  2
     eigenvalues:
       0.040  0.040  0.040  0.067  0.104
     eigenvectors (columns):
      -0.000  0.000 -0.000 -1.000  0.000
      -0.000 -0.674 -0.738  0.000  0.000
      -0.000  0.738 -0.674  0.000  0.000
       0.986  0.000 -0.000 -0.000 -0.165
       0.165  0.000 -0.000  0.000  0.986
     occupation matrix ns (before diag.):
       0.067 -0.000 -0.000  0.000  0.000
      -0.000  0.040  0.000  0.000  0.000
      -0.000  0.000  0.040  0.000  0.000
       0.000  0.000  0.000  0.041 -0.010
       0.000  0.000  0.000 -0.010  0.102
     ------------------------ ATOM   10 ------------------------
     Tr[ns( 10)] (up, down, total) =   4.95539  0.29026  5.24565
     Atomic magnetic moment for atom  10 =   4.66513
     SPIN  1
     eigenvalues:
       0.976  0.991  0.996  0.996  0.997
     eigenvectors (columns):
      -1.000  0.000  0.000  0.000  0.000
      -0.000 -0.000 -0.942  0.335 -0.000
      -0.000 -0.000 -0.335 -0.942 -0.000
      -0.000 -0.129  0.000  0.000 -0.992
       0.000  0.992 -0.000 -0.000 -0.129
     occupation matrix ns (before diag.):
       0.976 -0.000 -0.000 -0.000  0.000
      -0.000  0.996 -0.000  0.000  0.000
      -0.000 -0.000  0.996  0.000  0.000
      -0.000  0.000  0.000  0.997  0.001
       0.000  0.000  0.000  0.001  0.991
     SPIN  2
     eigenvalues:
       0.040  0.040  0.040  0.067  0.104
     eigenvectors (columns):
      -0.000 -0.000 -0.000  1.000  0.000
      -0.000 -0.987  0.161 -0.000  0.000
      -0.000 -0.161 -0.987 -0.000  0.000
       0.986 -0.000 -0.000  0.000 -0.165
       0.165 -0.000 -0.000 -0.000  0.986
     occupation matrix ns (before diag.):
       0.067 -0.000 -0.000  0.000  0.000
      -0.000  0.040 -0.000  0.000  0.000
      -0.000 -0.000  0.040  0.000  0.000
       0.000  0.000  0.000  0.041 -0.010
       0.000  0.000  0.000 -0.010  0.102
     ------------------------ ATOM   11 ------------------------
     Tr[ns( 11)] (up, down, total) =   4.95539  0.29026  5.24565
     Atomic magnetic moment for atom  11 =   4.66514
     SPIN  1
     eigenvalues:
       0.976  0.991  0.996  0.996  0.997
     eigenvectors (columns):
       1.000  0.000  0.000 -0.000 -0.000
       0.000  0.000 -0.921  0.390 -0.000
      -0.000  0.000 -0.390 -0.921  0.000
      -0.000 -0.129  0.000 -0.000 -0.992
      -0.000  0.992  0.000 -0.000 -0.129
     occupation matrix ns (before diag.):
       0.976 -0.000  0.000  0.000  0.000
      -0.000  0.996 -0.000  0.000 -0.000
       0.000 -0.000  0.996 -0.000 -0.000
       0.000  0.000 -0.000  0.997  0.001
       0.000 -0.000 -0.000  0.001  0.991
     SPIN  2
     eigenvalues:
       0.040  0.040  0.040  0.067  0.104
     eigenvectors (columns):
       0.000  0.000  0.000 -1.000  0.000
       0.001 -0.974  0.226 -0.000  0.000
      -0.001  0.226  0.974  0.000 -0.000
      -0.986 -0.001 -0.001 -0.000 -0.165
      -0.165 -0.000 -0.000  0.000  0.986
     occupation matrix ns (before diag.):
       0.067  0.000 -0.000  0.000  0.000
       0.000  0.040  0.000 -0.000  0.000
      -0.000  0.000  0.040 -0.000 -0.000
       0.000 -0.000 -0.000  0.041 -0.010
       0.000  0.000 -0.000 -0.010  0.102
     ------------------------ ATOM   12 ------------------------
     Tr[ns( 12)] (up, down, total) =   4.95539  0.29026  5.24565
     Atomic magnetic moment for atom  12 =   4.66514
     SPIN  1
     eigenvalues:
       0.976  0.991  0.996  0.996  0.997
     eigenvectors (columns):
       1.000  0.000 -0.000  0.000 -0.000
      -0.000 -0.000 -0.921  0.390  0.000
       0.000 -0.000 -0.390 -0.921 -0.000
      -0.000 -0.129 -0.000  0.000 -0.992
      -0.000  0.992 -0.000  0.000 -0.129
     occupation matrix ns (before diag.):
       0.976  0.000 -0.000  0.000  0.000
       0.000  0.996 -0.000 -0.000  0.000
      -0.000 -0.000  0.996  0.000  0.000
       0.000 -0.000  0.000  0.997  0.001
       0.000  0.000  0.000  0.001  0.991
     SPIN  2
     eigenvalues:
       0.040  0.040  0.040  0.067  0.104
     eigenvectors (columns):
      -0.000  0.000 -0.000 -1.000  0.000
       0.001  0.974  0.226  0.000 -0.000
      -0.001 -0.226  0.974 -0.000  0.000
       0.986 -0.001  0.001 -0.000 -0.165
       0.165 -0.000  0.000  0.000  0.986
     occupation matrix ns (before diag.):
       0.067 -0.000  0.000  0.000  0.000
      -0.000  0.040  0.000  0.000 -0.000
       0.000  0.000  0.040  0.000  0.000
       0.000  0.000  0.000  0.041 -0.010
       0.000 -0.000  0.000 -0.010  0.102
     ------------------------ ATOM   13 ------------------------
     Tr[ns( 13)] (up, down, total) =   4.97496  0.86350  5.83846
     Atomic magnetic moment for atom  13 =   4.11146
     SPIN  1
     eigenvalues:
       0.989  0.993  0.997  0.997  0.998
     eigenvectors (columns):
      -1.000 -0.000 -0.000 -0.000  0.000
      -0.000  0.000  0.117  0.993 -0.000
       0.000 -0.000 -0.993  0.117  0.000
      -0.000  0.187 -0.000 -0.000 -0.982
      -0.000  0.982 -0.000 -0.000  0.187
     occupation matrix ns (before diag.):
       0.989 -0.000  0.000 -0.000 -0.000
      -0.000  0.997  0.000 -0.000 -0.000
       0.000  0.000  0.997 -0.000  0.000
      -0.000 -0.000 -0.000  0.998 -0.001
      -0.000 -0.000  0.000 -0.001  0.993
     SPIN  2
     eigenvalues:
       0.098  0.136  0.136  0.217  0.277
     eigenvectors (columns):
      -0.000  0.000 -0.000  1.000  0.000
       0.000  0.845 -0.534 -0.000  0.000
       0.000  0.534  0.845  0.000 -0.000
       0.980 -0.000  0.000 -0.000  0.197
      -0.197 -0.000  0.000 -0.000  0.980
     occupation matrix ns (before diag.):
       0.217 -0.000  0.000  0.000  0.000
      -0.000  0.136 -0.000  0.000  0.000
       0.000 -0.000  0.136 -0.000 -0.000
       0.000  0.000 -0.000  0.105  0.035
       0.000  0.000 -0.000  0.035  0.270
     ------------------------ ATOM   14 ------------------------
     Tr[ns( 14)] (up, down, total) =   4.97496  0.86350  5.83846
     Atomic magnetic moment for atom  14 =   4.11146
     SPIN  1
     eigenvalues:
       0.989  0.993  0.997  0.997  0.998
     eigenvectors (columns):
      -1.000 -0.000  0.000  0.000  0.000
       0.000 -0.000  0.117  0.993  0.000
      -0.000  0.000 -0.993  0.117 -0.000
      -0.000  0.187  0.000  0.000 -0.982
      -0.000  0.982  0.000  0.000  0.187
     occupation matrix ns (before diag.):
       0.989  0.000 -0.000 -0.000 -0.000
       0.000  0.997  0.000  0.000  0.000
      -0.000  0.000  0.997  0.000 -0.000
      -0.000  0.000  0.000  0.998 -0.001
      -0.000  0.000 -0.000 -0.001  0.993
     SPIN  2
     eigenvalues:
       0.098  0.136  0.136  0.217  0.277
     eigenvectors (columns):
      -0.000  0.000  0.000 -1.000  0.000
      -0.000 -0.845 -0.534 -0.000 -0.000
      -0.000 -0.534  0.845  0.000  0.000
       0.980 -0.000 -0.000  0.000  0.197
      -0.197 -0.000 -0.000  0.000  0.980
     occupation matrix ns (before diag.):
       0.217  0.000 -0.000  0.000  0.000
       0.000  0.136 -0.000 -0.000 -0.000
      -0.000 -0.000  0.136  0.000  0.000
       0.000 -0.000  0.000  0.105  0.035
       0.000 -0.000  0.000  0.035  0.270
     ------------------------ ATOM   15 ------------------------
     Tr[ns( 15)] (up, down, total) =   4.97496  0.86350  5.83845
     Atomic magnetic moment for atom  15 =   4.11146
     SPIN  1
     eigenvalues:
       0.989  0.993  0.997  0.997  0.998
     eigenvectors (columns):
       1.000 -0.000 -0.000 -0.000  0.000
       0.000 -0.000 -0.208  0.978 -0.000
       0.000 -0.000  0.978  0.208 -0.000
       0.000  0.187 -0.000 -0.000 -0.982
       0.000  0.982  0.000  0.000  0.187
     occupation matrix ns (before diag.):
       0.989 -0.000 -0.000 -0.000 -0.000
      -0.000  0.997  0.000  0.000  0.000
      -0.000  0.000  0.997  0.000  0.000
      -0.000  0.000  0.000  0.998 -0.001
      -0.000  0.000  0.000 -0.001  0.993
     SPIN  2
     eigenvalues:
       0.098  0.136  0.136  0.217  0.277
     eigenvectors (columns):
      -0.000 -0.000 -0.000 -1.000  0.000
      -0.000 -0.764  0.646  0.000  0.000
      -0.000 -0.646 -0.764  0.000  0.000
       0.980 -0.000 -0.000  0.000  0.197
      -0.197  0.000  0.000  0.000  0.980
     occupation matrix ns (before diag.):
       0.217 -0.000 -0.000  0.000  0.000
      -0.000  0.136 -0.000  0.000  0.000
      -0.000 -0.000  0.136  0.000  0.000
       0.000  0.000  0.000  0.105  0.035
       0.000  0.000  0.000  0.035  0.270
     ------------------------ ATOM   16 ------------------------
     Tr[ns( 16)] (up, down, total) =   4.97496  0.86349  5.83845
     Atomic magnetic moment for atom  16 =   4.11147
     SPIN  1
     eigenvalues:
       0.989  0.993  0.997  0.997  0.998
     eigenvectors (columns):
       1.000 -0.000 -0.000 -0.000  0.000
       0.000 -0.000  0.234  0.972 -0.000
       0.000 -0.000  0.972 -0.234 -0.000
       0.000  0.187 -0.000 -0.000 -0.982
       0.000  0.982  0.000  0.000  0.187
     occupation matrix ns (before diag.):
       0.989 -0.000 -0.000 -0.000 -0.000
      -0.000  0.997 -0.000  0.000  0.000
      -0.000 -0.000  0.997  0.000  0.000
      -0.000  0.000  0.000  0.998 -0.001
      -0.000  0.000  0.000 -0.001  0.993
     SPIN  2
     eigenvalues:
       0.098  0.136  0.136  0.217  0.277
     eigenvectors (columns):
      -0.000 -0.000 -0.000 -1.000  0.000
      -0.000  0.736 -0.678  0.000  0.000
      -0.000 -0.678 -0.736  0.000  0.000
       0.980 -0.000 -0.000 -0.000  0.197
      -0.197  0.000  0.000  0.000  0.980
     occupation matrix ns (before diag.):
       0.217 -0.000 -0.000  0.000  0.000
      -0.000  0.136  0.000  0.000  0.000
      -0.000  0.000  0.136  0.000  0.000
       0.000  0.000  0.000  0.105  0.035
       0.000  0.000  0.000  0.035  0.270

     Number of occupied Hubbard levels =   44.3364

     HUBBARD ENERGY =    0.6092  (Ry)

     total cpu time spent up to now is      214.3 secs

     total energy              =   -3088.73087438 Ry
     estimated scf accuracy    <       0.00125392 Ry

     total magnetization       =    39.98 Bohr mag/cell
     absolute magnetization    =    40.06 Bohr mag/cell

     iteration #  9     ecut=    90.00 Ry     beta= 0.30
     Davidson diagonalization with overlap

---- Real-time Memory Report at c_bands before calling an iterative solver
          1300 MiB given to the printing process from OS
           812 MiB allocation reported by mallinfo(arena+hblkhd)
        673854 MiB available memory on the node where the printing process lives
------------------
     c_bands:  2 eigenvalues not converged
     ethr =  3.82E-07,  avg # of iterations =  6.0

     =================== HUBBARD OCCUPATIONS ===================
     ------------------------ ATOM    9 ------------------------
     Tr[ns(  9)] (up, down, total) =   4.95524  0.29185  5.24709
     Atomic magnetic moment for atom   9 =   4.66339
     SPIN  1
     eigenvalues:
       0.975  0.991  0.996  0.996  0.997
     eigenvectors (columns):
      -1.000  0.000 -0.000  0.000 -0.000
      -0.000 -0.000 -0.827 -0.562 -0.000
      -0.000 -0.000  0.562 -0.827 -0.000
       0.000 -0.131 -0.000  0.000 -0.991
       0.000  0.991  0.000 -0.000 -0.131
     occupation matrix ns (before diag.):
       0.975 -0.000 -0.000  0.000  0.000
      -0.000  0.996  0.000  0.000  0.000
      -0.000  0.000  0.996  0.000  0.000
       0.000  0.000  0.000  0.997  0.001
       0.000  0.000  0.000  0.001  0.991
     SPIN  2
     eigenvalues:
       0.040  0.040  0.040  0.067  0.105
     eigenvectors (columns):
      -0.000  0.000 -0.000  1.000  0.000
      -0.000 -0.653 -0.757 -0.000  0.000
      -0.000  0.757 -0.653 -0.000  0.000
       0.986  0.000 -0.000  0.000 -0.165
       0.165  0.000 -0.000 -0.000  0.986
     occupation matrix ns (before diag.):
       0.067 -0.000 -0.000  0.000  0.000
      -0.000  0.040  0.000  0.000  0.000
      -0.000  0.000  0.040  0.000  0.000
       0.000  0.000  0.000  0.042 -0.011
       0.000  0.000  0.000 -0.011  0.103
     ------------------------ ATOM   10 ------------------------
     Tr[ns( 10)] (up, down, total) =   4.95524  0.29185  5.24709
     Atomic magnetic moment for atom  10 =   4.66339
     SPIN  1
     eigenvalues:
       0.975  0.991  0.996  0.996  0.997
     eigenvectors (columns):
      -1.000  0.000  0.000  0.000  0.000
      -0.000 -0.000 -0.965 -0.263 -0.000
      -0.000 -0.000  0.263 -0.965 -0.000
      -0.000 -0.131  0.000  0.000 -0.991
       0.000  0.991  0.000 -0.000 -0.131
     occupation matrix ns (before diag.):
       0.975 -0.000 -0.000 -0.000  0.000
      -0.000  0.996  0.000  0.000  0.000
      -0.000  0.000  0.996  0.000  0.000
      -0.000  0.000  0.000  0.997  0.001
       0.000  0.000  0.000  0.001  0.991
     SPIN  2
     eigenvalues:
       0.040  0.040  0.040  0.067  0.105
     eigenvectors (columns):
      -0.000 -0.000  0.000 -1.000 -0.000
      -0.000  0.083  0.997  0.000  0.000
      -0.000 -0.997  0.083  0.000  0.000
       0.986 -0.000  0.000 -0.000 -0.165
       0.165 -0.000  0.000 -0.000  0.986
     occupation matrix ns (before diag.):
       0.067 -0.000 -0.000  0.000 -0.000
      -0.000  0.040  0.000  0.000  0.000
      -0.000  0.000  0.040  0.000  0.000
       0.000  0.000  0.000  0.042 -0.011
      -0.000  0.000  0.000 -0.011  0.103
     ------------------------ ATOM   11 ------------------------
     Tr[ns( 11)] (up, down, total) =   4.95524  0.29186  5.24709
     Atomic magnetic moment for atom  11 =   4.66338
     SPIN  1
     eigenvalues:
       0.975  0.991  0.996  0.996  0.997
     eigenvectors (columns):
       1.000  0.000  0.000  0.000 -0.000
       0.000  0.000 -0.937 -0.349 -0.000
       0.000  0.000  0.349 -0.937  0.000
      -0.000 -0.131  0.000 -0.000 -0.991
      -0.000  0.991  0.000  0.000 -0.131
     occupation matrix ns (before diag.):
       0.975 -0.000 -0.000  0.000  0.000
      -0.000  0.996  0.000  0.000 -0.000
      -0.000  0.000  0.996 -0.000 -0.000
       0.000  0.000 -0.000  0.997  0.001
       0.000 -0.000 -0.000  0.001  0.991
     SPIN  2
     eigenvalues:
       0.040  0.040  0.040  0.067  0.105
     eigenvectors (columns):
       0.000  0.000 -0.000 -1.000  0.000
       0.000 -0.635 -0.773 -0.000  0.000
      -0.000  0.773 -0.635  0.000 -0.000
      -0.986 -0.001  0.000 -0.000 -0.165
      -0.165 -0.000  0.000  0.000  0.986
     occupation matrix ns (before diag.):
       0.067  0.000 -0.000  0.000  0.000
       0.000  0.040  0.000 -0.000  0.000
      -0.000  0.000  0.040  0.000 -0.000
       0.000 -0.000  0.000  0.042 -0.011
       0.000  0.000 -0.000 -0.011  0.103
     ------------------------ ATOM   12 ------------------------
     Tr[ns( 12)] (up, down, total) =   4.95524  0.29186  5.24709
     Atomic magnetic moment for atom  12 =   4.66338
     SPIN  1
     eigenvalues:
       0.975  0.991  0.996  0.996  0.997
     eigenvectors (columns):
       1.000  0.000 -0.000 -0.000 -0.000
      -0.000 -0.000 -0.937 -0.349  0.000
      -0.000 -0.000  0.349 -0.937 -0.000
      -0.000 -0.131 -0.000  0.000 -0.991
      -0.000  0.991 -0.000 -0.000 -0.131
     occupation matrix ns (before diag.):
       0.975  0.000  0.000  0.000  0.000
       0.000  0.996  0.000 -0.000  0.000
       0.000  0.000  0.996  0.000  0.000
       0.000 -0.000  0.000  0.997  0.001
       0.000  0.000  0.000  0.001  0.991
     SPIN  2
     eigenvalues:
       0.040  0.040  0.040  0.067  0.105
     eigenvectors (columns):
      -0.000 -0.000 -0.000 -1.000  0.000
       0.000 -0.635  0.773  0.000 -0.000
      -0.000  0.773  0.635 -0.000  0.000
       0.986  0.001  0.000 -0.000 -0.165
       0.165  0.000  0.000  0.000  0.986
     occupation matrix ns (before diag.):
       0.067 -0.000  0.000  0.000  0.000
      -0.000  0.040  0.000  0.000 -0.000
       0.000  0.000  0.040 -0.000  0.000
       0.000  0.000 -0.000  0.042 -0.011
       0.000 -0.000  0.000 -0.011  0.103
     ------------------------ ATOM   13 ------------------------
     Tr[ns( 13)] (up, down, total) =   4.97488  0.86686  5.84174
     Atomic magnetic moment for atom  13 =   4.10803
     SPIN  1
     eigenvalues:
       0.990  0.993  0.997  0.997  0.998
     eigenvectors (columns):
       1.000 -0.000  0.000  0.000 -0.000
      -0.000  0.000  0.473  0.881 -0.000
       0.000 -0.000 -0.881  0.473  0.000
      -0.000  0.187 -0.000  0.000 -0.982
       0.000  0.982 -0.000 -0.000  0.187
     occupation matrix ns (before diag.):
       0.990  0.000 -0.000  0.000 -0.000
       0.000  0.997  0.000 -0.000 -0.000
      -0.000  0.000  0.997 -0.000  0.000
       0.000 -0.000 -0.000  0.998 -0.001
      -0.000 -0.000  0.000 -0.001  0.993
     SPIN  2
     eigenvalues:
       0.099  0.137  0.137  0.217  0.278
     eigenvectors (columns):
      -0.000 -0.000  0.000  1.000  0.000
       0.000 -0.513  0.859 -0.000  0.000
       0.000  0.859  0.513  0.000 -0.000
       0.980  0.000 -0.000  0.000  0.197
      -0.197  0.000 -0.000 -0.000  0.980
     occupation matrix ns (before diag.):
       0.217 -0.000  0.000  0.000  0.000
      -0.000  0.137  0.000 -0.000  0.000
       0.000  0.000  0.137 -0.000 -0.000
       0.000 -0.000 -0.000  0.106  0.035
       0.000  0.000 -0.000  0.035  0.271
     ------------------------ ATOM   14 ------------------------
     Tr[ns( 14)] (up, down, total) =   4.97488  0.86686  5.84174
     Atomic magnetic moment for atom  14 =   4.10803
     SPIN  1
     eigenvalues:
       0.990  0.993  0.997  0.997  0.998
     eigenvectors (columns):
       1.000 -0.000 -0.000 -0.000 -0.000
       0.000 -0.000  0.473  0.881  0.000
      -0.000  0.000 -0.881  0.473 -0.000
      -0.000  0.187  0.000 -0.000 -0.982
       0.000  0.982  0.000  0.000  0.187
     occupation matrix ns (before diag.):
       0.990 -0.000  0.000  0.000 -0.000
      -0.000  0.997  0.000  0.000  0.000
       0.000  0.000  0.997  0.000 -0.000
       0.000  0.000  0.000  0.998 -0.001
      -0.000  0.000 -0.000 -0.001  0.993
     SPIN  2
     eigenvalues:
       0.099  0.137  0.137  0.217  0.278
     eigenvectors (columns):
      -0.000  0.000  0.000 -1.000  0.000
      -0.000 -0.513 -0.859 -0.000 -0.000
      -0.000  0.859 -0.513  0.000  0.000
       0.980 -0.000 -0.000 -0.000  0.197
      -0.197 -0.000 -0.000  0.000  0.980
     occupation matrix ns (before diag.):
       0.217  0.000 -0.000  0.000  0.000
       0.000  0.137  0.000  0.000 -0.000
      -0.000  0.000  0.137  0.000  0.000
       0.000  0.000  0.000  0.106  0.035
       0.000 -0.000  0.000  0.035  0.271
     ------------------------ ATOM   15 ------------------------
     Tr[ns( 15)] (up, down, total) =   4.97488  0.86686  5.84174
     Atomic magnetic moment for atom  15 =   4.10802
     SPIN  1
     eigenvalues:
       0.990  0.993  0.997  0.997  0.998
     eigenvectors (columns):
       1.000 -0.000  0.000  0.000 -0.000
       0.000 -0.000  0.376 -0.927 -0.000
       0.000 -0.000 -0.927 -0.376 -0.000
      -0.000  0.187  0.000  0.000 -0.982
       0.000  0.982 -0.000 -0.000  0.187
     occupation matrix ns (before diag.):
       0.990 -0.000 -0.000  0.000 -0.000
      -0.000  0.997  0.000  0.000  0.000
      -0.000  0.000  0.997  0.000  0.000
       0.000  0.000  0.000  0.998 -0.001
      -0.000  0.000  0.000 -0.001  0.993
     SPIN  2
     eigenvalues:
       0.099  0.137  0.137  0.217  0.278
     eigenvectors (columns):
      -0.000  0.000 -0.000 -1.000  0.000
      -0.000  0.957  0.289  0.000  0.000
      -0.000  0.289 -0.957  0.000  0.000
       0.980  0.000 -0.000  0.000  0.197
      -0.197 -0.000  0.000  0.000  0.980
     occupation matrix ns (before diag.):
       0.217 -0.000 -0.000  0.000  0.000
      -0.000  0.137 -0.000  0.000  0.000
      -0.000 -0.000  0.137  0.000  0.000
       0.000  0.000  0.000  0.106  0.035
       0.000  0.000  0.000  0.035  0.271
     ------------------------ ATOM   16 ------------------------
     Tr[ns( 16)] (up, down, total) =   4.97488  0.86686  5.84174
     Atomic magnetic moment for atom  16 =   4.10802
     SPIN  1
     eigenvalues:
       0.990  0.993  0.997  0.997  0.998
     eigenvectors (columns):
       1.000 -0.000 -0.000 -0.000 -0.000
       0.000 -0.000 -0.086  0.996 -0.000
       0.000 -0.000  0.996  0.086 -0.000
       0.000  0.187 -0.000 -0.000 -0.982
       0.000  0.982  0.000  0.000  0.187
     occupation matrix ns (before diag.):
       0.990 -0.000 -0.000  0.000 -0.000
      -0.000  0.997  0.000  0.000  0.000
      -0.000  0.000  0.997  0.000  0.000
       0.000  0.000  0.000  0.998 -0.001
      -0.000  0.000  0.000 -0.001  0.993
     SPIN  2
     eigenvalues:
       0.099  0.137  0.137  0.217  0.278
     eigenvectors (columns):
      -0.000 -0.000 -0.000 -1.000  0.000
      -0.000  0.498 -0.867  0.000  0.000
      -0.000 -0.867 -0.498  0.000  0.000
       0.980 -0.000 -0.000 -0.000  0.197
      -0.197  0.000  0.000  0.000  0.980
     occupation matrix ns (before diag.):
       0.217 -0.000 -0.000  0.000  0.000
      -0.000  0.137  0.000  0.000  0.000
      -0.000  0.000  0.137  0.000  0.000
       0.000  0.000  0.000  0.106  0.035
       0.000  0.000  0.000  0.035  0.271

     Number of occupied Hubbard levels =   44.3553

     HUBBARD ENERGY =    0.6086  (Ry)

     total cpu time spent up to now is      242.8 secs

     total energy              =   -3088.73108286 Ry
     estimated scf accuracy    <       0.00018275 Ry

     total magnetization       =    39.97 Bohr mag/cell
     absolute magnetization    =    40.06 Bohr mag/cell

     iteration # 10     ecut=    90.00 Ry     beta= 0.30
     Davidson diagonalization with overlap

---- Real-time Memory Report at c_bands before calling an iterative solver
          1312 MiB given to the printing process from OS
           824 MiB allocation reported by mallinfo(arena+hblkhd)
        673938 MiB available memory on the node where the printing process lives
------------------
     ethr =  5.57E-08,  avg # of iterations =  3.5

     =================== HUBBARD OCCUPATIONS ===================
     ------------------------ ATOM    9 ------------------------
     Tr[ns(  9)] (up, down, total) =   4.95536  0.29192  5.24728
     Atomic magnetic moment for atom   9 =   4.66344
     SPIN  1
     eigenvalues:
       0.975  0.991  0.996  0.996  0.997
     eigenvectors (columns):
      -1.000  0.000  0.000  0.000 -0.000
      -0.000 -0.000 -0.946 -0.323 -0.000
      -0.000 -0.000  0.323 -0.946 -0.000
       0.000 -0.127  0.000  0.000 -0.992
       0.000  0.992  0.000 -0.000 -0.127
     occupation matrix ns (before diag.):
       0.975 -0.000 -0.000  0.000  0.000
      -0.000  0.996  0.000  0.000  0.000
      -0.000  0.000  0.996  0.000  0.000
       0.000  0.000  0.000  0.997  0.001
       0.000  0.000  0.000  0.001  0.991
     SPIN  2
     eigenvalues:
       0.040  0.040  0.040  0.067  0.105
     eigenvectors (columns):
      -0.000 -0.000 -0.000 -1.000 -0.000
      -0.000  0.648 -0.762  0.000  0.000
      -0.000 -0.762 -0.648  0.000  0.000
       0.986 -0.000 -0.000 -0.000 -0.165
       0.165 -0.000 -0.000 -0.000  0.986
     occupation matrix ns (before diag.):
       0.067 -0.000 -0.000  0.000 -0.000
      -0.000  0.040  0.000  0.000  0.000
      -0.000  0.000  0.040  0.000  0.000
       0.000  0.000  0.000  0.041 -0.011
      -0.000  0.000  0.000 -0.011  0.103
     ------------------------ ATOM   10 ------------------------
     Tr[ns( 10)] (up, down, total) =   4.95536  0.29193  5.24729
     Atomic magnetic moment for atom  10 =   4.66342
     SPIN  1
     eigenvalues:
       0.975  0.991  0.996  0.996  0.997
     eigenvectors (columns):
      -1.000  0.000  0.000  0.000  0.000
      -0.000 -0.000 -1.000  0.026 -0.000
      -0.000 -0.000 -0.026 -1.000 -0.000
      -0.000 -0.127  0.000  0.000 -0.992
       0.000  0.992 -0.000 -0.000 -0.127
     occupation matrix ns (before diag.):
       0.975 -0.000 -0.000 -0.000  0.000
      -0.000  0.996 -0.000  0.000  0.000
      -0.000 -0.000  0.996  0.000  0.000
      -0.000  0.000  0.000  0.997  0.001
       0.000  0.000  0.000  0.001  0.991
     SPIN  2
     eigenvalues:
       0.040  0.040  0.040  0.067  0.105
     eigenvectors (columns):
      -0.000 -0.000  0.000 -1.000 -0.000
      -0.000  0.037  0.999  0.000  0.000
      -0.000 -0.999  0.037  0.000  0.000
       0.986 -0.000  0.000 -0.000 -0.165
       0.165 -0.000  0.000 -0.000  0.986
     occupation matrix ns (before diag.):
       0.067 -0.000 -0.000  0.000 -0.000
      -0.000  0.040  0.000  0.000  0.000
      -0.000  0.000  0.040  0.000  0.000
       0.000  0.000  0.000  0.041 -0.011
      -0.000  0.000  0.000 -0.011  0.103
     ------------------------ ATOM   11 ------------------------
     Tr[ns( 11)] (up, down, total) =   4.95536  0.29193  5.24729
     Atomic magnetic moment for atom  11 =   4.66343
     SPIN  1
     eigenvalues:
       0.975  0.991  0.996  0.996  0.997
     eigenvectors (columns):
      -1.000  0.000  0.000 -0.000 -0.000
      -0.000  0.000 -0.990  0.142 -0.000
       0.000  0.000  0.142  0.990  0.000
       0.000 -0.127  0.000  0.000 -0.992
       0.000  0.992  0.000 -0.000 -0.127
     occupation matrix ns (before diag.):
       0.975 -0.000  0.000  0.000  0.000
      -0.000  0.996  0.000  0.000 -0.000
       0.000  0.000  0.996 -0.000 -0.000
       0.000  0.000 -0.000  0.997  0.001
       0.000 -0.000 -0.000  0.001  0.991
     SPIN  2
     eigenvalues:
       0.040  0.040  0.040  0.067  0.105
     eigenvectors (columns):
      -0.000  0.000 -0.000  1.000 -0.000
       0.000 -0.395  0.919  0.000  0.000
      -0.000  0.919  0.395 -0.000 -0.000
      -0.986 -0.000  0.000 -0.000 -0.165
      -0.165 -0.000  0.000  0.000  0.986
     occupation matrix ns (before diag.):
       0.067  0.000 -0.000  0.000 -0.000
       0.000  0.040  0.000  0.000  0.000
      -0.000  0.000  0.040 -0.000 -0.000
       0.000  0.000 -0.000  0.041 -0.011
      -0.000  0.000 -0.000 -0.011  0.103
     ------------------------ ATOM   12 ------------------------
     Tr[ns( 12)] (up, down, total) =   4.95536  0.29193  5.24729
     Atomic magnetic moment for atom  12 =   4.66343
     SPIN  1
     eigenvalues:
       0.975  0.991  0.996  0.996  0.997
     eigenvectors (columns):
      -1.000  0.000 -0.000  0.000 -0.000
       0.000 -0.000 -0.990  0.142  0.000
      -0.000 -0.000  0.142  0.990 -0.000
       0.000 -0.127 -0.000 -0.000 -0.992
       0.000  0.992 -0.000  0.000 -0.127
     occupation matrix ns (before diag.):
       0.975  0.000 -0.000  0.000  0.000
       0.000  0.996  0.000 -0.000  0.000
      -0.000  0.000  0.996  0.000  0.000
       0.000 -0.000  0.000  0.997  0.001
       0.000  0.000  0.000  0.001  0.991
     SPIN  2
     eigenvalues:
       0.040  0.040  0.040  0.067  0.105
     eigenvectors (columns):
       0.000 -0.000 -0.000  1.000 -0.000
       0.000 -0.395 -0.919 -0.000 -0.000
      -0.000  0.919 -0.395  0.000  0.000
       0.986  0.000  0.000 -0.000 -0.165
       0.165  0.000  0.000  0.000  0.986
     occupation matrix ns (before diag.):
       0.067 -0.000  0.000  0.000 -0.000
      -0.000  0.040  0.000 -0.000 -0.000
       0.000  0.000  0.040  0.000  0.000
       0.000 -0.000  0.000  0.041 -0.011
      -0.000 -0.000  0.000 -0.011  0.103
     ------------------------ ATOM   13 ------------------------
     Tr[ns( 13)] (up, down, total) =   4.97490  0.86244  5.83733
     Atomic magnetic moment for atom  13 =   4.11246
     SPIN  1
     eigenvalues:
       0.990  0.993  0.997  0.997  0.998
     eigenvectors (columns):
      -1.000 -0.000  0.000 -0.000 -0.000
      -0.000  0.000 -0.645  0.764 -0.000
       0.000 -0.000 -0.764 -0.645  0.000
       0.000  0.186 -0.000 -0.000 -0.982
      -0.000  0.982 -0.000 -0.000  0.186
     occupation matrix ns (before diag.):
       0.990 -0.000  0.000  0.000 -0.000
      -0.000  0.997 -0.000 -0.000 -0.000
       0.000 -0.000  0.997 -0.000  0.000
       0.000 -0.000 -0.000  0.998 -0.001
      -0.000 -0.000  0.000 -0.001  0.993
     SPIN  2
     eigenvalues:
       0.098  0.136  0.136  0.216  0.277
     eigenvectors (columns):
      -0.000 -0.000  0.000  1.000  0.000
       0.000 -0.558  0.830 -0.000  0.000
       0.000  0.830  0.558  0.000 -0.000
       0.980  0.000 -0.000 -0.000  0.197
      -0.197  0.000 -0.000 -0.000  0.980
     occupation matrix ns (before diag.):
       0.216 -0.000  0.000  0.000  0.000
      -0.000  0.136  0.000 -0.000  0.000
       0.000  0.000  0.136 -0.000 -0.000
       0.000 -0.000 -0.000  0.105  0.035
       0.000  0.000 -0.000  0.035  0.270
     ------------------------ ATOM   14 ------------------------
     Tr[ns( 14)] (up, down, total) =   4.97490  0.86244  5.83733
     Atomic magnetic moment for atom  14 =   4.11246
     SPIN  1
     eigenvalues:
       0.990  0.993  0.997  0.997  0.998
     eigenvectors (columns):
      -1.000 -0.000 -0.000  0.000 -0.000
       0.000 -0.000 -0.645  0.764  0.000
      -0.000  0.000 -0.764 -0.645 -0.000
       0.000  0.186  0.000  0.000 -0.982
      -0.000  0.982  0.000  0.000  0.186
     occupation matrix ns (before diag.):
       0.990  0.000 -0.000  0.000 -0.000
       0.000  0.997 -0.000  0.000  0.000
      -0.000 -0.000  0.997  0.000 -0.000
       0.000  0.000  0.000  0.998 -0.001
      -0.000  0.000 -0.000 -0.001  0.993
     SPIN  2
     eigenvalues:
       0.098  0.136  0.136  0.216  0.277
     eigenvectors (columns):
      -0.000  0.000  0.000 -1.000  0.000
      -0.000 -0.558 -0.830 -0.000 -0.000
      -0.000  0.830 -0.558  0.000  0.000
       0.980 -0.000 -0.000  0.000  0.197
      -0.197 -0.000 -0.000  0.000  0.980
     occupation matrix ns (before diag.):
       0.216  0.000 -0.000  0.000  0.000
       0.000  0.136  0.000  0.000 -0.000
      -0.000  0.000  0.136  0.000  0.000
       0.000  0.000  0.000  0.105  0.035
       0.000 -0.000  0.000  0.035  0.270
     ------------------------ ATOM   15 ------------------------
     Tr[ns( 15)] (up, down, total) =   4.97490  0.86244  5.83733
     Atomic magnetic moment for atom  15 =   4.11246
     SPIN  1
     eigenvalues:
       0.990  0.993  0.997  0.997  0.998
     eigenvectors (columns):
      -1.000  0.000 -0.000  0.000  0.000
      -0.000 -0.000  0.347 -0.938 -0.000
      -0.000 -0.000  0.938  0.347 -0.000
       0.000  0.186 -0.000  0.000 -0.982
       0.000  0.982  0.000 -0.000  0.186
     occupation matrix ns (before diag.):
       0.990 -0.000 -0.000  0.000  0.000
      -0.000  0.997 -0.000  0.000  0.000
      -0.000 -0.000  0.997  0.000  0.000
       0.000  0.000  0.000  0.998 -0.001
       0.000  0.000  0.000 -0.001  0.993
     SPIN  2
     eigenvalues:
       0.098  0.136  0.136  0.216  0.277
     eigenvectors (columns):
      -0.000 -0.000 -0.000 -1.000  0.000
      -0.000  0.924 -0.383  0.000  0.000
      -0.000 -0.383 -0.924  0.000  0.000
       0.980  0.000 -0.000  0.000  0.197
      -0.197  0.000  0.000  0.000  0.980
     occupation matrix ns (before diag.):
       0.216 -0.000 -0.000  0.000  0.000
      -0.000  0.136  0.000  0.000  0.000
      -0.000  0.000  0.136  0.000  0.000
       0.000  0.000  0.000  0.105  0.035
       0.000  0.000  0.000  0.035  0.270
     ------------------------ ATOM   16 ------------------------
     Tr[ns( 16)] (up, down, total) =   4.97490  0.86244  5.83734
     Atomic magnetic moment for atom  16 =   4.11246
     SPIN  1
     eigenvalues:
       0.990  0.993  0.997  0.997  0.998
     eigenvectors (columns):
       1.000 -0.000 -0.000  0.000 -0.000
       0.000 -0.000  0.395  0.919 -0.000
       0.000 -0.000  0.919 -0.395 -0.000
       0.000  0.186 -0.000 -0.000 -0.982
       0.000  0.982  0.000  0.000  0.186
     occupation matrix ns (before diag.):
       0.990 -0.000 -0.000  0.000 -0.000
      -0.000  0.997 -0.000  0.000  0.000
      -0.000 -0.000  0.997  0.000  0.000
       0.000  0.000  0.000  0.998 -0.001
      -0.000  0.000  0.000 -0.001  0.993
     SPIN  2
     eigenvalues:
       0.098  0.136  0.136  0.216  0.277
     eigenvectors (columns):
      -0.000  0.000 -0.000  1.000 -0.000
      -0.000 -0.517 -0.856 -0.000  0.000
      -0.000  0.856 -0.517 -0.000  0.000
       0.980  0.000 -0.000  0.000  0.197
      -0.197 -0.000  0.000  0.000  0.980
     occupation matrix ns (before diag.):
       0.216 -0.000 -0.000  0.000 -0.000
      -0.000  0.136  0.000  0.000  0.000
      -0.000  0.000  0.136  0.000  0.000
       0.000  0.000  0.000  0.105  0.035
      -0.000  0.000  0.000  0.035  0.270

     Number of occupied Hubbard levels =   44.3385

     HUBBARD ENERGY =    0.6073  (Ry)

     total cpu time spent up to now is      267.5 secs

     total energy              =   -3088.73106557 Ry
     estimated scf accuracy    <       0.00011289 Ry

     total magnetization       =    39.98 Bohr mag/cell
     absolute magnetization    =    40.06 Bohr mag/cell

     iteration # 11     ecut=    90.00 Ry     beta= 0.30
     Davidson diagonalization with overlap

---- Real-time Memory Report at c_bands before calling an iterative solver
          1324 MiB given to the printing process from OS
           824 MiB allocation reported by mallinfo(arena+hblkhd)
        673860 MiB available memory on the node where the printing process lives
------------------
     ethr =  3.44E-08,  avg # of iterations =  2.1

     =================== HUBBARD OCCUPATIONS ===================
     ------------------------ ATOM    9 ------------------------
     Tr[ns(  9)] (up, down, total) =   4.95514  0.29143  5.24657
     Atomic magnetic moment for atom   9 =   4.66371
     SPIN  1
     eigenvalues:
       0.975  0.991  0.996  0.996  0.997
     eigenvectors (columns):
      -1.000  0.000 -0.000 -0.000 -0.000
      -0.000 -0.000  0.609 -0.793 -0.000
      -0.000 -0.000  0.793  0.609 -0.000
       0.000 -0.129 -0.000 -0.000 -0.992
       0.000  0.992  0.000  0.000 -0.129
     occupation matrix ns (before diag.):
       0.975 -0.000 -0.000  0.000  0.000
      -0.000  0.996 -0.000  0.000  0.000
      -0.000 -0.000  0.996  0.000  0.000
       0.000  0.000  0.000  0.997  0.001
       0.000  0.000  0.000  0.001  0.991
     SPIN  2
     eigenvalues:
       0.040  0.040  0.040  0.067  0.105
     eigenvectors (columns):
      -0.000 -0.000 -0.000 -1.000 -0.000
      -0.000  0.734 -0.679  0.000  0.000
      -0.000 -0.679 -0.734  0.000  0.000
       0.986 -0.000 -0.000  0.000 -0.165
       0.165 -0.000 -0.000 -0.000  0.986
     occupation matrix ns (before diag.):
       0.067 -0.000 -0.000  0.000 -0.000
      -0.000  0.040  0.000  0.000  0.000
      -0.000  0.000  0.040  0.000  0.000
       0.000  0.000  0.000  0.041 -0.011
      -0.000  0.000  0.000 -0.011  0.103
     ------------------------ ATOM   10 ------------------------
     Tr[ns( 10)] (up, down, total) =   4.95514  0.29144  5.24657
     Atomic magnetic moment for atom  10 =   4.66370
     SPIN  1
     eigenvalues:
       0.975  0.991  0.996  0.996  0.997
     eigenvectors (columns):
      -1.000  0.000 -0.000 -0.000 -0.000
      -0.000 -0.000  0.801 -0.598 -0.000
      -0.000 -0.000  0.598  0.801 -0.000
       0.000 -0.129 -0.000 -0.000 -0.992
       0.000  0.992  0.000  0.000 -0.129
     occupation matrix ns (before diag.):
       0.975 -0.000 -0.000  0.000  0.000
      -0.000  0.996 -0.000  0.000  0.000
      -0.000 -0.000  0.996  0.000  0.000
       0.000  0.000  0.000  0.997  0.001
       0.000  0.000  0.000  0.001  0.991
     SPIN  2
     eigenvalues:
       0.040  0.040  0.040  0.067  0.105
     eigenvectors (columns):
       0.000 -0.000 -0.000 -1.000 -0.000
      -0.000 -0.466  0.885  0.000  0.000
      -0.000 -0.885 -0.466  0.000  0.000
       0.986 -0.000 -0.000  0.000 -0.165
       0.165 -0.000 -0.000 -0.000  0.986
     occupation matrix ns (before diag.):
       0.067 -0.000 -0.000 -0.000 -0.000
      -0.000  0.040 -0.000  0.000  0.000
      -0.000 -0.000  0.040  0.000  0.000
      -0.000  0.000  0.000  0.041 -0.011
      -0.000  0.000  0.000 -0.011  0.103
     ------------------------ ATOM   11 ------------------------
     Tr[ns( 11)] (up, down, total) =   4.95514  0.29143  5.24657
     Atomic magnetic moment for atom  11 =   4.66370
     SPIN  1
     eigenvalues:
       0.975  0.991  0.996  0.996  0.997
     eigenvectors (columns):
       1.000  0.000  0.000 -0.000 -0.000
       0.000  0.000 -0.837  0.547 -0.000
      -0.000  0.000 -0.547 -0.837  0.000
       0.000 -0.129  0.000 -0.000 -0.992
      -0.000  0.992  0.000 -0.000 -0.129
     occupation matrix ns (before diag.):
       0.975 -0.000  0.000 -0.000  0.000
      -0.000  0.996 -0.000  0.000 -0.000
       0.000 -0.000  0.996  0.000 -0.000
      -0.000  0.000  0.000  0.997  0.001
       0.000 -0.000 -0.000  0.001  0.991
     SPIN  2
     eigenvalues:
       0.040  0.040  0.040  0.067  0.105
     eigenvectors (columns):
      -0.000  0.000  0.000  1.000 -0.000
       0.000 -0.076 -0.997  0.000  0.000
      -0.000  0.997 -0.076 -0.000 -0.000
      -0.986 -0.000 -0.000 -0.000 -0.165
      -0.165 -0.000 -0.000  0.000  0.986
     occupation matrix ns (before diag.):
       0.067  0.000 -0.000 -0.000 -0.000
       0.000  0.040  0.000  0.000  0.000
      -0.000  0.000  0.040  0.000 -0.000
      -0.000  0.000  0.000  0.041 -0.011
      -0.000  0.000 -0.000 -0.011  0.103
     ------------------------ ATOM   12 ------------------------
     Tr[ns( 12)] (up, down, total) =   4.95514  0.29143  5.24657
     Atomic magnetic moment for atom  12 =   4.66370
     SPIN  1
     eigenvalues:
       0.975  0.991  0.996  0.996  0.997
     eigenvectors (columns):
       1.000  0.000 -0.000  0.000 -0.000
      -0.000 -0.000 -0.837  0.547  0.000
       0.000 -0.000 -0.547 -0.837 -0.000
       0.000 -0.129 -0.000  0.000 -0.992
      -0.000  0.992 -0.000  0.000 -0.129
     occupation matrix ns (before diag.):
       0.975  0.000 -0.000 -0.000  0.000
       0.000  0.996 -0.000 -0.000  0.000
      -0.000 -0.000  0.996 -0.000  0.000
      -0.000 -0.000 -0.000  0.997  0.001
       0.000  0.000  0.000  0.001  0.991
     SPIN  2
     eigenvalues:
       0.040  0.040  0.040  0.067  0.105
     eigenvectors (columns):
       0.000  0.000 -0.000  1.000 -0.000
       0.000  0.076 -0.997 -0.000 -0.000
      -0.000 -0.997 -0.076  0.000  0.000
       0.986 -0.000  0.000 -0.000 -0.165
       0.165 -0.000  0.000  0.000  0.986
     occupation matrix ns (before diag.):
       0.067 -0.000  0.000 -0.000 -0.000
      -0.000  0.040  0.000 -0.000 -0.000
       0.000  0.000  0.040 -0.000  0.000
      -0.000 -0.000 -0.000  0.041 -0.011
      -0.000 -0.000  0.000 -0.011  0.103
     ------------------------ ATOM   13 ------------------------
     Tr[ns( 13)] (up, down, total) =   4.97492  0.86601  5.84093
     Atomic magnetic moment for atom  13 =   4.10891
     SPIN  1
     eigenvalues:
       0.990  0.993  0.997  0.997  0.998
     eigenvectors (columns):
       1.000 -0.000 -0.000 -0.000 -0.000
      -0.000  0.000 -0.754 -0.656  0.000
       0.000 -0.000 -0.656  0.754  0.000
       0.000  0.187 -0.000  0.000 -0.982
       0.000  0.982  0.000  0.000  0.187
     occupation matrix ns (before diag.):
       0.990  0.000 -0.000  0.000 -0.000
       0.000  0.997 -0.000 -0.000 -0.000
      -0.000 -0.000  0.997 -0.000  0.000
       0.000 -0.000 -0.000  0.998 -0.001
      -0.000 -0.000  0.000 -0.001  0.993
     SPIN  2
     eigenvalues:
       0.099  0.136  0.136  0.217  0.278
     eigenvectors (columns):
      -0.000 -0.000  0.000 -1.000 -0.000
       0.000 -0.105 -0.994 -0.000  0.000
       0.000 -0.994  0.105  0.000  0.000
       0.980  0.000  0.000 -0.000  0.197
      -0.197 -0.000  0.000 -0.000  0.980
     occupation matrix ns (before diag.):
       0.217  0.000 -0.000 -0.000 -0.000
       0.000  0.136 -0.000 -0.000  0.000
      -0.000 -0.000  0.136 -0.000  0.000
      -0.000 -0.000 -0.000  0.106  0.035
      -0.000  0.000  0.000  0.035  0.271
     ------------------------ ATOM   14 ------------------------
     Tr[ns( 14)] (up, down, total) =   4.97492  0.86601  5.84093
     Atomic magnetic moment for atom  14 =   4.10891
     SPIN  1
     eigenvalues:
       0.990  0.993  0.997  0.997  0.998
     eigenvectors (columns):
      -1.000 -0.000 -0.000  0.000 -0.000
      -0.000 -0.000  0.754 -0.656 -0.000
       0.000  0.000  0.656  0.754 -0.000
      -0.000  0.187 -0.000 -0.000 -0.982
      -0.000  0.982  0.000 -0.000  0.187
     occupation matrix ns (before diag.):
       0.990 -0.000  0.000  0.000 -0.000
      -0.000  0.997 -0.000  0.000  0.000
       0.000 -0.000  0.997  0.000 -0.000
       0.000  0.000  0.000  0.998 -0.001
      -0.000  0.000 -0.000 -0.001  0.993
     SPIN  2
     eigenvalues:
       0.099  0.136  0.136  0.217  0.278
     eigenvectors (columns):
      -0.000 -0.000 -0.000  1.000 -0.000
      -0.000  0.105 -0.994 -0.000 -0.000
      -0.000  0.994  0.105  0.000 -0.000
       0.980  0.000 -0.000  0.000  0.197
      -0.197 -0.000 -0.000  0.000  0.980
     occupation matrix ns (before diag.):
       0.217 -0.000  0.000 -0.000 -0.000
      -0.000  0.136 -0.000  0.000 -0.000
       0.000 -0.000  0.136  0.000 -0.000
      -0.000  0.000  0.000  0.106  0.035
      -0.000 -0.000 -0.000  0.035  0.271
     ------------------------ ATOM   15 ------------------------
     Tr[ns( 15)] (up, down, total) =   4.97492  0.86601  5.84093
     Atomic magnetic moment for atom  15 =   4.10891
     SPIN  1
     eigenvalues:
       0.990  0.993  0.997  0.997  0.998
     eigenvectors (columns):
       1.000 -0.000 -0.000 -0.000 -0.000
       0.000 -0.000  0.334  0.943 -0.000
       0.000 -0.000  0.943 -0.334 -0.000
       0.000  0.187 -0.000 -0.000 -0.982
       0.000  0.982  0.000  0.000  0.187
     occupation matrix ns (before diag.):
       0.990 -0.000 -0.000  0.000 -0.000
      -0.000  0.997 -0.000  0.000  0.000
      -0.000 -0.000  0.997  0.000  0.000
       0.000  0.000  0.000  0.998 -0.001
      -0.000  0.000  0.000 -0.001  0.993
     SPIN  2
     eigenvalues:
       0.099  0.136  0.136  0.217  0.278
     eigenvectors (columns):
       0.000 -0.000  0.000  1.000 -0.000
      -0.000 -0.658 -0.753 -0.000  0.000
      -0.000 -0.753  0.658 -0.000  0.000
       0.980 -0.000  0.000 -0.000  0.197
      -0.197  0.000 -0.000  0.000  0.980
     occupation matrix ns (before diag.):
       0.217 -0.000 -0.000 -0.000 -0.000
      -0.000  0.136 -0.000  0.000  0.000
      -0.000 -0.000  0.136  0.000  0.000
      -0.000  0.000  0.000  0.106  0.035
      -0.000  0.000  0.000  0.035  0.271
     ------------------------ ATOM   16 ------------------------
     Tr[ns( 16)] (up, down, total) =   4.97492  0.86601  5.84093
     Atomic magnetic moment for atom  16 =   4.10891
     SPIN  1
     eigenvalues:
       0.990  0.993  0.997  0.997  0.998
     eigenvectors (columns):
       1.000 -0.000 -0.000  0.000 -0.000
       0.000 -0.000  0.660  0.751 -0.000
       0.000 -0.000  0.751 -0.660 -0.000
       0.000  0.187 -0.000  0.000 -0.982
       0.000  0.982  0.000 -0.000  0.187
     occupation matrix ns (before diag.):
       0.990 -0.000 -0.000  0.000 -0.000
      -0.000  0.997 -0.000  0.000  0.000
      -0.000 -0.000  0.997  0.000  0.000
       0.000  0.000  0.000  0.998 -0.001
      -0.000  0.000  0.000 -0.001  0.993
     SPIN  2
     eigenvalues:
       0.099  0.136  0.136  0.217  0.278
     eigenvectors (columns):
       0.000 -0.000 -0.000  1.000 -0.000
      -0.000  0.364 -0.931 -0.000  0.000
      -0.000 -0.931 -0.364 -0.000  0.000
       0.980 -0.000 -0.000  0.000  0.197
      -0.197  0.000  0.000  0.000  0.980
     occupation matrix ns (before diag.):
       0.217 -0.000 -0.000 -0.000 -0.000
      -0.000  0.136  0.000  0.000  0.000
      -0.000  0.000  0.136  0.000  0.000
      -0.000  0.000  0.000  0.106  0.035
      -0.000  0.000  0.000  0.035  0.271

     Number of occupied Hubbard levels =   44.3500

     HUBBARD ENERGY =    0.6076  (Ry)

     total cpu time spent up to now is      293.2 secs

     total energy              =   -3088.73109004 Ry
     estimated scf accuracy    <       0.00004870 Ry

     total magnetization       =    39.98 Bohr mag/cell
     absolute magnetization    =    40.06 Bohr mag/cell

     iteration # 12     ecut=    90.00 Ry     beta= 0.30
     Davidson diagonalization with overlap

---- Real-time Memory Report at c_bands before calling an iterative solver
          1324 MiB given to the printing process from OS
           824 MiB allocation reported by mallinfo(arena+hblkhd)
        673860 MiB available memory on the node where the printing process lives
------------------
     ethr =  1.48E-08,  avg # of iterations =  2.0

     =================== HUBBARD OCCUPATIONS ===================
     ------------------------ ATOM    9 ------------------------
     Tr[ns(  9)] (up, down, total) =   4.95516  0.29139  5.24655
     Atomic magnetic moment for atom   9 =   4.66377
     SPIN  1
     eigenvalues:
       0.975  0.991  0.996  0.996  0.997
     eigenvectors (columns):
      -1.000  0.000 -0.000 -0.000 -0.000
      -0.000 -0.000  0.712 -0.702 -0.000
      -0.000 -0.000  0.702  0.712 -0.000
       0.000 -0.128 -0.000 -0.000 -0.992
       0.000  0.992  0.000  0.000 -0.128
     occupation matrix ns (before diag.):
       0.975 -0.000 -0.000  0.000  0.000
      -0.000  0.996 -0.000  0.000  0.000
      -0.000 -0.000  0.996  0.000  0.000
       0.000  0.000  0.000  0.997  0.001
       0.000  0.000  0.000  0.001  0.991
     SPIN  2
     eigenvalues:
       0.040  0.040  0.040  0.067  0.105
     eigenvectors (columns):
       0.000  0.000 -0.000 -1.000 -0.000
      -0.000 -0.641 -0.768  0.000  0.000
      -0.000  0.768 -0.641  0.000  0.000
       0.986  0.000 -0.000  0.000 -0.165
       0.165  0.000 -0.000 -0.000  0.986
     occupation matrix ns (before diag.):
       0.067 -0.000 -0.000  0.000 -0.000
      -0.000  0.040  0.000  0.000  0.000
      -0.000  0.000  0.040  0.000  0.000
       0.000  0.000  0.000  0.041 -0.011
      -0.000  0.000  0.000 -0.011  0.103
     ------------------------ ATOM   10 ------------------------
     Tr[ns( 10)] (up, down, total) =   4.95516  0.29140  5.24656
     Atomic magnetic moment for atom  10 =   4.66376
     SPIN  1
     eigenvalues:
       0.975  0.991  0.996  0.996  0.997
     eigenvectors (columns):
      -1.000  0.000  0.000  0.000 -0.000
      -0.000 -0.000 -0.886  0.463 -0.000
      -0.000 -0.000 -0.463 -0.886 -0.000
       0.000 -0.128  0.000  0.000 -0.992
       0.000  0.992 -0.000 -0.000 -0.128
     occupation matrix ns (before diag.):
       0.975 -0.000 -0.000  0.000  0.000
      -0.000  0.996 -0.000  0.000  0.000
      -0.000 -0.000  0.996  0.000  0.000
       0.000  0.000  0.000  0.997  0.001
       0.000  0.000  0.000  0.001  0.991
     SPIN  2
     eigenvalues:
       0.040  0.040  0.040  0.067  0.105
     eigenvectors (columns):
       0.000 -0.000 -0.000 -1.000 -0.000
      -0.000 -0.440  0.898  0.000  0.000
      -0.000 -0.898 -0.440  0.000  0.000
       0.986 -0.000 -0.000  0.000 -0.165
       0.165 -0.000  0.000 -0.000  0.986
     occupation matrix ns (before diag.):
       0.067 -0.000 -0.000 -0.000 -0.000
      -0.000  0.040 -0.000  0.000  0.000
      -0.000 -0.000  0.040  0.000  0.000
      -0.000  0.000  0.000  0.041 -0.011
      -0.000  0.000  0.000 -0.011  0.103
     ------------------------ ATOM   11 ------------------------
     Tr[ns( 11)] (up, down, total) =   4.95516  0.29140  5.24655
     Atomic magnetic moment for atom  11 =   4.66376
     SPIN  1
     eigenvalues:
       0.975  0.991  0.996  0.996  0.997
     eigenvectors (columns):
       1.000  0.000  0.000 -0.000 -0.000
       0.000  0.000 -0.884  0.467 -0.000
      -0.000  0.000 -0.467 -0.884  0.000
      -0.000 -0.128  0.000 -0.000 -0.992
      -0.000  0.992  0.000 -0.000 -0.128
     occupation matrix ns (before diag.):
       0.975 -0.000  0.000  0.000  0.000
      -0.000  0.996 -0.000  0.000 -0.000
       0.000 -0.000  0.996  0.000 -0.000
       0.000  0.000  0.000  0.997  0.001
       0.000 -0.000 -0.000  0.001  0.991
     SPIN  2
     eigenvalues:
       0.040  0.040  0.040  0.067  0.105
     eigenvectors (columns):
      -0.000  0.000  0.000  1.000 -0.000
       0.000  0.276 -0.961  0.000  0.000
      -0.000  0.961  0.276 -0.000 -0.000
      -0.986 -0.000 -0.000 -0.000 -0.165
      -0.165 -0.000 -0.000  0.000  0.986
     occupation matrix ns (before diag.):
       0.067  0.000 -0.000 -0.000 -0.000
       0.000  0.040 -0.000  0.000  0.000
      -0.000 -0.000  0.040  0.000 -0.000
      -0.000  0.000  0.000  0.041 -0.011
      -0.000  0.000 -0.000 -0.011  0.103
     ------------------------ ATOM   12 ------------------------
     Tr[ns( 12)] (up, down, total) =   4.95516  0.29140  5.24655
     Atomic magnetic moment for atom  12 =   4.66376
     SPIN  1
     eigenvalues:
       0.975  0.991  0.996  0.996  0.997
     eigenvectors (columns):
       1.000  0.000 -0.000  0.000 -0.000
      -0.000 -0.000 -0.884  0.467  0.000
       0.000 -0.000 -0.467 -0.884 -0.000
      -0.000 -0.128 -0.000  0.000 -0.992
      -0.000  0.992 -0.000  0.000 -0.128
     occupation matrix ns (before diag.):
       0.975  0.000 -0.000  0.000  0.000
       0.000  0.996 -0.000 -0.000  0.000
      -0.000 -0.000  0.996 -0.000  0.000
       0.000 -0.000 -0.000  0.997  0.001
       0.000  0.000  0.000  0.001  0.991
     SPIN  2
     eigenvalues:
       0.040  0.040  0.040  0.067  0.105
     eigenvectors (columns):
       0.000  0.000 -0.000  1.000 -0.000
       0.000 -0.276 -0.961 -0.000 -0.000
      -0.000 -0.961  0.276  0.000  0.000
       0.986 -0.000  0.000 -0.000 -0.165
       0.165 -0.000  0.000  0.000  0.986
     occupation matrix ns (before diag.):
       0.067 -0.000  0.000 -0.000 -0.000
      -0.000  0.040 -0.000 -0.000 -0.000
       0.000 -0.000  0.040 -0.000  0.000
      -0.000 -0.000 -0.000  0.041 -0.011
      -0.000 -0.000  0.000 -0.011  0.103
     ------------------------ ATOM   13 ------------------------
     Tr[ns( 13)] (up, down, total) =   4.97492  0.86513  5.84006
     Atomic magnetic moment for atom  13 =   4.10979
     SPIN  1
     eigenvalues:
       0.990  0.993  0.997  0.997  0.998
     eigenvectors (columns):
       1.000 -0.000  0.000 -0.000 -0.000
      -0.000  0.000 -0.738 -0.675 -0.000
       0.000 -0.000 -0.675  0.738  0.000
      -0.000  0.186 -0.000  0.000 -0.982
       0.000  0.982  0.000  0.000  0.186
     occupation matrix ns (before diag.):
       0.990  0.000 -0.000  0.000 -0.000
       0.000  0.997 -0.000 -0.000 -0.000
      -0.000 -0.000  0.997 -0.000  0.000
       0.000 -0.000 -0.000  0.998 -0.001
      -0.000 -0.000  0.000 -0.001  0.993
     SPIN  2
     eigenvalues:
       0.099  0.136  0.136  0.216  0.277
     eigenvectors (columns):
      -0.000  0.000 -0.000 -1.000 -0.000
       0.000 -0.102 -0.995  0.000  0.000
       0.000  0.995 -0.102  0.000 -0.000
       0.980 -0.000  0.000 -0.000  0.197
      -0.197  0.000 -0.000 -0.000  0.980
     occupation matrix ns (before diag.):
       0.216 -0.000 -0.000 -0.000 -0.000
      -0.000  0.136  0.000 -0.000  0.000
      -0.000  0.000  0.136 -0.000 -0.000
      -0.000 -0.000 -0.000  0.106  0.035
      -0.000  0.000 -0.000  0.035  0.271
     ------------------------ ATOM   14 ------------------------
     Tr[ns( 14)] (up, down, total) =   4.97492  0.86513  5.84006
     Atomic magnetic moment for atom  14 =   4.10979
     SPIN  1
     eigenvalues:
       0.990  0.993  0.997  0.997  0.998
     eigenvectors (columns):
      -1.000 -0.000  0.000  0.000 -0.000
      -0.000 -0.000  0.738 -0.675  0.000
       0.000  0.000  0.675  0.738 -0.000
       0.000  0.186 -0.000 -0.000 -0.982
      -0.000  0.982  0.000 -0.000  0.186
     occupation matrix ns (before diag.):
       0.990 -0.000  0.000  0.000 -0.000
      -0.000  0.997 -0.000  0.000  0.000
       0.000 -0.000  0.997  0.000 -0.000
       0.000  0.000  0.000  0.998 -0.001
      -0.000  0.000 -0.000 -0.001  0.993
     SPIN  2
     eigenvalues:
       0.099  0.136  0.136  0.216  0.277
     eigenvectors (columns):
      -0.000 -0.000 -0.000  1.000 -0.000
      -0.000 -0.102  0.995  0.000 -0.000
      -0.000  0.995  0.102  0.000  0.000
       0.980  0.000  0.000  0.000  0.197
      -0.197 -0.000 -0.000  0.000  0.980
     occupation matrix ns (before diag.):
       0.216  0.000  0.000 -0.000 -0.000
       0.000  0.136  0.000  0.000 -0.000
       0.000  0.000  0.136  0.000  0.000
      -0.000  0.000  0.000  0.106  0.035
      -0.000 -0.000  0.000  0.035  0.271
     ------------------------ ATOM   15 ------------------------
     Tr[ns( 15)] (up, down, total) =   4.97492  0.86514  5.84006
     Atomic magnetic moment for atom  15 =   4.10978
     SPIN  1
     eigenvalues:
       0.990  0.993  0.997  0.997  0.998
     eigenvectors (columns):
       1.000 -0.000 -0.000  0.000 -0.000
       0.000 -0.000  0.496  0.868 -0.000
       0.000 -0.000  0.868 -0.496 -0.000
       0.000  0.186 -0.000  0.000 -0.982
       0.000  0.982  0.000 -0.000  0.186
     occupation matrix ns (before diag.):
       0.990 -0.000 -0.000  0.000 -0.000
      -0.000  0.997 -0.000  0.000  0.000
      -0.000 -0.000  0.997  0.000  0.000
       0.000  0.000  0.000  0.998 -0.001
      -0.000  0.000  0.000 -0.001  0.993
     SPIN  2
     eigenvalues:
       0.099  0.136  0.136  0.216  0.277
     eigenvectors (columns):
       0.000 -0.000 -0.000 -1.000  0.000
      -0.000 -0.874  0.486  0.000  0.000
      -0.000 -0.486 -0.874  0.000  0.000
       0.980 -0.000 -0.000  0.000  0.197
      -0.197  0.000  0.000  0.000  0.980
     occupation matrix ns (before diag.):
       0.216 -0.000 -0.000 -0.000  0.000
      -0.000  0.136 -0.000  0.000  0.000
      -0.000 -0.000  0.136  0.000  0.000
      -0.000  0.000  0.000  0.106  0.035
       0.000  0.000  0.000  0.035  0.271
     ------------------------ ATOM   16 ------------------------
     Tr[ns( 16)] (up, down, total) =   4.97492  0.86514  5.84006
     Atomic magnetic moment for atom  16 =   4.10979
     SPIN  1
     eigenvalues:
       0.990  0.993  0.997  0.997  0.998
     eigenvectors (columns):
       1.000 -0.000 -0.000  0.000 -0.000
       0.000 -0.000  0.647  0.762 -0.000
       0.000 -0.000  0.762 -0.647 -0.000
       0.000  0.186 -0.000  0.000 -0.982
       0.000  0.982  0.000 -0.000  0.186
     occupation matrix ns (before diag.):
       0.990 -0.000 -0.000  0.000 -0.000
      -0.000  0.997 -0.000  0.000  0.000
      -0.000 -0.000  0.997  0.000  0.000
       0.000  0.000  0.000  0.998 -0.001
      -0.000  0.000  0.000 -0.001  0.993
     SPIN  2
     eigenvalues:
       0.099  0.136  0.136  0.216  0.277
     eigenvectors (columns):
      -0.000 -0.000 -0.000  1.000 -0.000
      -0.000  0.123 -0.992 -0.000  0.000
      -0.000 -0.992 -0.123 -0.000  0.000
       0.980 -0.000 -0.000  0.000  0.197
      -0.197  0.000  0.000  0.000  0.980
     occupation matrix ns (before diag.):
       0.216 -0.000 -0.000 -0.000 -0.000
      -0.000  0.136  0.000  0.000  0.000
      -0.000  0.000  0.136  0.000  0.000
      -0.000  0.000  0.000  0.106  0.035
      -0.000  0.000  0.000  0.035  0.271

     Number of occupied Hubbard levels =   44.3464

     HUBBARD ENERGY =    0.6080  (Ry)

     total cpu time spent up to now is      314.9 secs

     total energy              =   -3088.73108735 Ry
     estimated scf accuracy    <       0.00002387 Ry

     total magnetization       =    39.98 Bohr mag/cell
     absolute magnetization    =    40.06 Bohr mag/cell

     iteration # 13     ecut=    90.00 Ry     beta= 0.30
     Davidson diagonalization with overlap

---- Real-time Memory Report at c_bands before calling an iterative solver
          1324 MiB given to the printing process from OS
           824 MiB allocation reported by mallinfo(arena+hblkhd)
        673755 MiB available memory on the node where the printing process lives
------------------
     ethr =  7.28E-09,  avg # of iterations =  2.2

     =================== HUBBARD OCCUPATIONS ===================
     ------------------------ ATOM    9 ------------------------
     Tr[ns(  9)] (up, down, total) =   4.95518  0.29153  5.24671
     Atomic magnetic moment for atom   9 =   4.66365
     SPIN  1
     eigenvalues:
       0.975  0.991  0.996  0.996  0.997
     eigenvectors (columns):
      -1.000  0.000  0.000  0.000 -0.000
      -0.000 -0.000 -0.972  0.233 -0.000
      -0.000 -0.000 -0.233 -0.972 -0.000
       0.000 -0.129  0.000  0.000 -0.992
       0.000  0.992 -0.000 -0.000 -0.129
     occupation matrix ns (before diag.):
       0.975 -0.000 -0.000  0.000  0.000
      -0.000  0.996 -0.000  0.000  0.000
      -0.000 -0.000  0.996  0.000  0.000
       0.000  0.000  0.000  0.997  0.001
       0.000  0.000  0.000  0.001  0.991
     SPIN  2
     eigenvalues:
       0.040  0.040  0.040  0.067  0.105
     eigenvectors (columns):
      -0.000 -0.000 -0.000 -1.000 -0.000
      -0.000 -0.331  0.943  0.000  0.000
      -0.000 -0.943 -0.331  0.000  0.000
       0.986 -0.000  0.000  0.000 -0.165
       0.165 -0.000  0.000 -0.000  0.986
     occupation matrix ns (before diag.):
       0.067 -0.000 -0.000  0.000 -0.000
      -0.000  0.040 -0.000  0.000  0.000
      -0.000 -0.000  0.040  0.000  0.000
       0.000  0.000  0.000  0.041 -0.011
      -0.000  0.000  0.000 -0.011  0.103
     ------------------------ ATOM   10 ------------------------
     Tr[ns( 10)] (up, down, total) =   4.95518  0.29153  5.24671
     Atomic magnetic moment for atom  10 =   4.66365
     SPIN  1
     eigenvalues:
       0.975  0.991  0.996  0.996  0.997
     eigenvectors (columns):
      -1.000  0.000  0.000  0.000 -0.000
      -0.000 -0.000 -0.991 -0.137 -0.000
      -0.000 -0.000  0.137 -0.991 -0.000
       0.000 -0.129  0.000  0.000 -0.992
       0.000  0.992 -0.000 -0.000 -0.129
     occupation matrix ns (before diag.):
       0.975 -0.000 -0.000  0.000  0.000
      -0.000  0.996  0.000  0.000  0.000
      -0.000  0.000  0.996  0.000  0.000
       0.000  0.000  0.000  0.997  0.001
       0.000  0.000  0.000  0.001  0.991
     SPIN  2
     eigenvalues:
       0.040  0.040  0.040  0.067  0.105
     eigenvectors (columns):
       0.000 -0.000  0.000 -1.000 -0.000
      -0.000 -0.315  0.949  0.000  0.000
      -0.000 -0.949 -0.315  0.000  0.000
       0.986 -0.000  0.000  0.000 -0.165
       0.165 -0.000  0.000 -0.000  0.986
     occupation matrix ns (before diag.):
       0.067 -0.000 -0.000 -0.000 -0.000
      -0.000  0.040 -0.000  0.000  0.000
      -0.000 -0.000  0.040  0.000  0.000
      -0.000  0.000  0.000  0.041 -0.011
      -0.000  0.000  0.000 -0.011  0.103
     ------------------------ ATOM   11 ------------------------
     Tr[ns( 11)] (up, down, total) =   4.95518  0.29153  5.24671
     Atomic magnetic moment for atom  11 =   4.66365
     SPIN  1
     eigenvalues:
       0.975  0.991  0.996  0.996  0.997
     eigenvectors (columns):
      -1.000  0.000  0.000  0.000 -0.000
      -0.000  0.000 -1.000 -0.007 -0.000
       0.000  0.000 -0.007  1.000  0.000
       0.000 -0.129  0.000  0.000 -0.992
       0.000  0.992  0.000 -0.000 -0.129
     occupation matrix ns (before diag.):
       0.975 -0.000  0.000  0.000  0.000
      -0.000  0.996 -0.000  0.000 -0.000
       0.000 -0.000  0.996 -0.000 -0.000
       0.000  0.000 -0.000  0.997  0.001
       0.000 -0.000 -0.000  0.001  0.991
     SPIN  2
     eigenvalues:
       0.040  0.040  0.040  0.067  0.105
     eigenvectors (columns):
      -0.000  0.000  0.000  1.000 -0.000
       0.000  0.338 -0.941  0.000  0.000
      -0.000  0.941  0.338 -0.000 -0.000
      -0.986 -0.000 -0.000 -0.000 -0.165
      -0.165 -0.000 -0.000  0.000  0.986
     occupation matrix ns (before diag.):
       0.067  0.000 -0.000 -0.000 -0.000
       0.000  0.040 -0.000  0.000  0.000
      -0.000 -0.000  0.040  0.000 -0.000
      -0.000  0.000  0.000  0.041 -0.011
      -0.000  0.000 -0.000 -0.011  0.103
     ------------------------ ATOM   12 ------------------------
     Tr[ns( 12)] (up, down, total) =   4.95518  0.29153  5.24671
     Atomic magnetic moment for atom  12 =   4.66365
     SPIN  1
     eigenvalues:
       0.975  0.991  0.996  0.996  0.997
     eigenvectors (columns):
      -1.000  0.000 -0.000 -0.000 -0.000
       0.000 -0.000 -1.000 -0.007  0.000
      -0.000 -0.000 -0.007  1.000 -0.000
       0.000 -0.129 -0.000 -0.000 -0.992
       0.000  0.992 -0.000  0.000 -0.129
     occupation matrix ns (before diag.):
       0.975  0.000 -0.000  0.000  0.000
       0.000  0.996 -0.000 -0.000  0.000
      -0.000 -0.000  0.996  0.000  0.000
       0.000 -0.000  0.000  0.997  0.001
       0.000  0.000  0.000  0.001  0.991
     SPIN  2
     eigenvalues:
       0.040  0.040  0.040  0.067  0.105
     eigenvectors (columns):
       0.000  0.000 -0.000  1.000 -0.000
       0.000 -0.338 -0.941 -0.000 -0.000
      -0.000 -0.941  0.338  0.000  0.000
       0.986 -0.000  0.000 -0.000 -0.165
       0.165 -0.000  0.000  0.000  0.986
     occupation matrix ns (before diag.):
       0.067 -0.000  0.000 -0.000 -0.000
      -0.000  0.040 -0.000 -0.000 -0.000
       0.000 -0.000  0.040 -0.000  0.000
      -0.000 -0.000 -0.000  0.041 -0.011
      -0.000 -0.000  0.000 -0.011  0.103
     ------------------------ ATOM   13 ------------------------
     Tr[ns( 13)] (up, down, total) =   4.97491  0.86491  5.83982
     Atomic magnetic moment for atom  13 =   4.11001
     SPIN  1
     eigenvalues:
       0.990  0.993  0.997  0.997  0.998
     eigenvectors (columns):
      -1.000  0.000 -0.000  0.000 -0.000
      -0.000 -0.000  0.776 -0.630 -0.000
      -0.000 -0.000  0.630  0.776  0.000
       0.000  0.187 -0.000  0.000 -0.982
       0.000  0.982  0.000  0.000  0.187
     occupation matrix ns (before diag.):
       0.990 -0.000 -0.000  0.000  0.000
      -0.000  0.997 -0.000  0.000 -0.000
      -0.000 -0.000  0.997 -0.000  0.000
       0.000  0.000 -0.000  0.998 -0.001
       0.000 -0.000  0.000 -0.001  0.993
     SPIN  2
     eigenvalues:
       0.099  0.136  0.136  0.216  0.277
     eigenvectors (columns):
       0.000 -0.000  0.000 -1.000 -0.000
       0.000  0.334  0.942  0.000  0.000
       0.000 -0.942  0.334  0.000 -0.000
       0.980  0.000 -0.000 -0.000  0.197
      -0.197 -0.000  0.000 -0.000  0.980
     occupation matrix ns (before diag.):
       0.216 -0.000 -0.000 -0.000 -0.000
      -0.000  0.136  0.000 -0.000  0.000
      -0.000  0.000  0.136 -0.000 -0.000
      -0.000 -0.000 -0.000  0.106  0.035
      -0.000  0.000 -0.000  0.035  0.271
     ------------------------ ATOM   14 ------------------------
     Tr[ns( 14)] (up, down, total) =   4.97491  0.86491  5.83982
     Atomic magnetic moment for atom  14 =   4.11001
     SPIN  1
     eigenvalues:
       0.990  0.993  0.997  0.997  0.998
     eigenvectors (columns):
       1.000  0.000  0.000  0.000 -0.000
      -0.000  0.000  0.776  0.630  0.000
      -0.000  0.000  0.630 -0.776 -0.000
      -0.000  0.187  0.000  0.000 -0.982
      -0.000  0.982 -0.000  0.000  0.187
     occupation matrix ns (before diag.):
       0.990  0.000  0.000  0.000  0.000
       0.000  0.997 -0.000 -0.000  0.000
       0.000 -0.000  0.997  0.000 -0.000
       0.000 -0.000  0.000  0.998 -0.001
       0.000  0.000 -0.000 -0.001  0.993
     SPIN  2
     eigenvalues:
       0.099  0.136  0.136  0.216  0.277
     eigenvectors (columns):
       0.000  0.000  0.000  1.000 -0.000
      -0.000  0.334 -0.942  0.000 -0.000
      -0.000 -0.942 -0.334  0.000  0.000
       0.980 -0.000 -0.000  0.000  0.197
      -0.197  0.000  0.000  0.000  0.980
     occupation matrix ns (before diag.):
       0.216  0.000  0.000 -0.000 -0.000
       0.000  0.136  0.000  0.000 -0.000
       0.000  0.000  0.136  0.000  0.000
      -0.000  0.000  0.000  0.106  0.035
      -0.000 -0.000  0.000  0.035  0.271
     ------------------------ ATOM   15 ------------------------
     Tr[ns( 15)] (up, down, total) =   4.97491  0.86491  5.83982
     Atomic magnetic moment for atom  15 =   4.11001
     SPIN  1
     eigenvalues:
       0.990  0.993  0.997  0.997  0.998
     eigenvectors (columns):
      -1.000  0.000 -0.000 -0.000 -0.000
      -0.000 -0.000  0.453 -0.892 -0.000
      -0.000 -0.000  0.892  0.453 -0.000
       0.000  0.187 -0.000  0.000 -0.982
       0.000  0.982  0.000  0.000  0.187
     occupation matrix ns (before diag.):
       0.990 -0.000 -0.000  0.000  0.000
      -0.000  0.997 -0.000  0.000  0.000
      -0.000 -0.000  0.997  0.000  0.000
       0.000  0.000  0.000  0.998 -0.001
       0.000  0.000  0.000 -0.001  0.993
     SPIN  2
     eigenvalues:
       0.099  0.136  0.136  0.216  0.277
     eigenvectors (columns):
      -0.000 -0.000 -0.000  1.000 -0.000
      -0.000 -0.951  0.310 -0.000  0.000
      -0.000 -0.310 -0.951 -0.000  0.000
       0.980 -0.000 -0.000  0.000  0.197
      -0.197  0.000  0.000  0.000  0.980
     occupation matrix ns (before diag.):
       0.216 -0.000 -0.000  0.000 -0.000
      -0.000  0.136 -0.000  0.000  0.000
      -0.000 -0.000  0.136  0.000  0.000
       0.000  0.000  0.000  0.106  0.035
      -0.000  0.000  0.000  0.035  0.271
     ------------------------ ATOM   16 ------------------------
     Tr[ns( 16)] (up, down, total) =   4.97491  0.86490  5.83982
     Atomic magnetic moment for atom  16 =   4.11001
     SPIN  1
     eigenvalues:
       0.990  0.993  0.997  0.997  0.998
     eigenvectors (columns):
       1.000 -0.000 -0.000  0.000 -0.000
       0.000 -0.000  0.714  0.700 -0.000
       0.000 -0.000  0.700 -0.714 -0.000
      -0.000  0.187 -0.000  0.000 -0.982
       0.000  0.982  0.000 -0.000  0.187
     occupation matrix ns (before diag.):
       0.990 -0.000 -0.000  0.000 -0.000
      -0.000  0.997 -0.000  0.000  0.000
      -0.000 -0.000  0.997  0.000  0.000
       0.000  0.000  0.000  0.998 -0.001
      -0.000  0.000  0.000 -0.001  0.993
     SPIN  2
     eigenvalues:
       0.099  0.136  0.136  0.216  0.277
     eigenvectors (columns):
       0.000 -0.000 -0.000  1.000 -0.000
      -0.000 -0.204 -0.979 -0.000  0.000
      -0.000 -0.979  0.204 -0.000  0.000
       0.980 -0.000 -0.000 -0.000  0.197
      -0.197  0.000  0.000  0.000  0.980
     occupation matrix ns (before diag.):
       0.216 -0.000 -0.000 -0.000 -0.000
      -0.000  0.136 -0.000  0.000  0.000
      -0.000 -0.000  0.136  0.000  0.000
      -0.000  0.000  0.000  0.106  0.035
      -0.000  0.000  0.000  0.035  0.271

     Number of occupied Hubbard levels =   44.3461

     HUBBARD ENERGY =    0.6081  (Ry)

     total cpu time spent up to now is      338.7 secs

     total energy              =   -3088.73109001 Ry
     estimated scf accuracy    <       0.00000228 Ry

     total magnetization       =    39.98 Bohr mag/cell
     absolute magnetization    =    40.06 Bohr mag/cell

     iteration # 14     ecut=    90.00 Ry     beta= 0.30
     Davidson diagonalization with overlap

---- Real-time Memory Report at c_bands before calling an iterative solver
          1324 MiB given to the printing process from OS
           824 MiB allocation reported by mallinfo(arena+hblkhd)
        673868 MiB available memory on the node where the printing process lives
------------------
     ethr =  6.95E-10,  avg # of iterations =  5.0

     =================== HUBBARD OCCUPATIONS ===================
     ------------------------ ATOM    9 ------------------------
     Tr[ns(  9)] (up, down, total) =   4.95519  0.29158  5.24677
     Atomic magnetic moment for atom   9 =   4.66362
     SPIN  1
     eigenvalues:
       0.975  0.991  0.996  0.996  0.997
     eigenvectors (columns):
      -1.000  0.000  0.000  0.000 -0.000
      -0.000 -0.000 -0.934  0.356 -0.000
      -0.000 -0.000 -0.356 -0.934 -0.000
       0.000 -0.128  0.000  0.000 -0.992
       0.000  0.992 -0.000 -0.000 -0.128
     occupation matrix ns (before diag.):
       0.975 -0.000 -0.000  0.000  0.000
      -0.000  0.996 -0.000  0.000  0.000
      -0.000 -0.000  0.996  0.000  0.000
       0.000  0.000  0.000  0.997  0.001
       0.000  0.000  0.000  0.001  0.991
     SPIN  2
     eigenvalues:
       0.040  0.040  0.040  0.067  0.105
     eigenvectors (columns):
      -0.000 -0.000 -0.000  1.000  0.000
      -0.000 -0.980  0.200 -0.000  0.000
      -0.000 -0.200 -0.980 -0.000  0.000
       0.986 -0.000 -0.000  0.000 -0.164
       0.164 -0.000 -0.000 -0.000  0.986
     occupation matrix ns (before diag.):
       0.067 -0.000 -0.000  0.000  0.000
      -0.000  0.040 -0.000  0.000  0.000
      -0.000 -0.000  0.040  0.000  0.000
       0.000  0.000  0.000  0.041 -0.011
       0.000  0.000  0.000 -0.011  0.103
     ------------------------ ATOM   10 ------------------------
     Tr[ns( 10)] (up, down, total) =   4.95519  0.29158  5.24677
     Atomic magnetic moment for atom  10 =   4.66362
     SPIN  1
     eigenvalues:
       0.975  0.991  0.996  0.996  0.997
     eigenvectors (columns):
      -1.000  0.000  0.000  0.000 -0.000
      -0.000 -0.000 -0.969 -0.248 -0.000
      -0.000 -0.000  0.248 -0.969 -0.000
       0.000 -0.128  0.000  0.000 -0.992
       0.000  0.992 -0.000 -0.000 -0.128
     occupation matrix ns (before diag.):
       0.975 -0.000 -0.000  0.000  0.000
      -0.000  0.996  0.000  0.000  0.000
      -0.000  0.000  0.996  0.000  0.000
       0.000  0.000  0.000  0.997  0.001
       0.000  0.000  0.000  0.001  0.991
     SPIN  2
     eigenvalues:
       0.040  0.040  0.040  0.067  0.105
     eigenvectors (columns):
       0.000 -0.000  0.000 -1.000 -0.000
      -0.000 -0.128  0.992  0.000  0.000
      -0.000 -0.992 -0.128  0.000  0.000
       0.986 -0.000  0.000  0.000 -0.164
       0.164 -0.000  0.000 -0.000  0.986
     occupation matrix ns (before diag.):
       0.067 -0.000 -0.000 -0.000 -0.000
      -0.000  0.040 -0.000  0.000  0.000
      -0.000 -0.000  0.040  0.000  0.000
      -0.000  0.000  0.000  0.041 -0.011
      -0.000  0.000  0.000 -0.011  0.103
     ------------------------ ATOM   11 ------------------------
     Tr[ns( 11)] (up, down, total) =   4.95519  0.29158  5.24677
     Atomic magnetic moment for atom  11 =   4.66362
     SPIN  1
     eigenvalues:
       0.975  0.991  0.996  0.996  0.997
     eigenvectors (columns):
      -1.000  0.000 -0.000  0.000 -0.000
      -0.000  0.000 -0.995 -0.099 -0.000
       0.000  0.000 -0.099  0.995  0.000
       0.000 -0.128  0.000  0.000 -0.992
       0.000  0.992  0.000 -0.000 -0.128
     occupation matrix ns (before diag.):
       0.975 -0.000  0.000  0.000  0.000
      -0.000  0.996 -0.000  0.000 -0.000
       0.000 -0.000  0.996 -0.000 -0.000
       0.000  0.000 -0.000  0.997  0.001
       0.000 -0.000 -0.000  0.001  0.991
     SPIN  2
     eigenvalues:
       0.040  0.040  0.040  0.067  0.105
     eigenvectors (columns):
       0.000  0.000  0.000 -1.000 -0.000
       0.000 -0.987 -0.161 -0.000  0.000
       0.000  0.161 -0.987 -0.000 -0.000
       0.986  0.000  0.000  0.000 -0.164
       0.164  0.000  0.000 -0.000  0.986
     occupation matrix ns (before diag.):
       0.067  0.000  0.000 -0.000 -0.000
       0.000  0.040  0.000 -0.000  0.000
       0.000  0.000  0.040 -0.000 -0.000
      -0.000 -0.000 -0.000  0.041 -0.011
      -0.000  0.000 -0.000 -0.011  0.103
     ------------------------ ATOM   12 ------------------------
     Tr[ns( 12)] (up, down, total) =   4.95519  0.29158  5.24677
     Atomic magnetic moment for atom  12 =   4.66362
     SPIN  1
     eigenvalues:
       0.975  0.991  0.996  0.996  0.997
     eigenvectors (columns):
      -1.000  0.000  0.000 -0.000 -0.000
       0.000 -0.000 -0.995 -0.099  0.000
      -0.000 -0.000 -0.099  0.995 -0.000
       0.000 -0.128 -0.000 -0.000 -0.992
       0.000  0.992 -0.000  0.000 -0.128
     occupation matrix ns (before diag.):
       0.975  0.000 -0.000  0.000  0.000
       0.000  0.996 -0.000 -0.000  0.000
      -0.000 -0.000  0.996  0.000  0.000
       0.000 -0.000  0.000  0.997  0.001
       0.000  0.000  0.000  0.001  0.991
     SPIN  2
     eigenvalues:
       0.040  0.040  0.040  0.067  0.105
     eigenvectors (columns):
      -0.000  0.000 -0.000 -1.000 -0.000
       0.000  0.987 -0.161  0.000 -0.000
       0.000 -0.161 -0.987  0.000  0.000
      -0.986  0.000 -0.000  0.000 -0.164
      -0.164  0.000 -0.000 -0.000  0.986
     occupation matrix ns (before diag.):
       0.067 -0.000 -0.000 -0.000 -0.000
      -0.000  0.040  0.000  0.000 -0.000
      -0.000  0.000  0.040  0.000  0.000
      -0.000  0.000  0.000  0.041 -0.011
      -0.000 -0.000  0.000 -0.011  0.103
     ------------------------ ATOM   13 ------------------------
     Tr[ns( 13)] (up, down, total) =   4.97491  0.86477  5.83969
     Atomic magnetic moment for atom  13 =   4.11014
     SPIN  1
     eigenvalues:
       0.990  0.993  0.997  0.997  0.998
     eigenvectors (columns):
      -1.000  0.000  0.000 -0.000 -0.000
      -0.000  0.000 -0.901  0.435 -0.000
       0.000 -0.000 -0.435 -0.901  0.000
       0.000  0.187  0.000 -0.000 -0.982
       0.000  0.982 -0.000 -0.000  0.187
     occupation matrix ns (before diag.):
       0.990 -0.000  0.000  0.000  0.000
      -0.000  0.997 -0.000  0.000 -0.000
       0.000 -0.000  0.997 -0.000  0.000
       0.000  0.000 -0.000  0.998 -0.001
       0.000 -0.000  0.000 -0.001  0.993
     SPIN  2
     eigenvalues:
       0.099  0.136  0.136  0.216  0.277
     eigenvectors (columns):
       0.000 -0.000 -0.000 -1.000 -0.000
       0.000  0.520 -0.854  0.000  0.000
       0.000 -0.854 -0.520  0.000  0.000
       0.980  0.000  0.000 -0.000  0.197
      -0.197 -0.000  0.000 -0.000  0.980
     occupation matrix ns (before diag.):
       0.216 -0.000 -0.000 -0.000 -0.000
      -0.000  0.136  0.000 -0.000  0.000
      -0.000  0.000  0.136 -0.000  0.000
      -0.000 -0.000 -0.000  0.106  0.035
      -0.000  0.000  0.000  0.035  0.271
     ------------------------ ATOM   14 ------------------------
     Tr[ns( 14)] (up, down, total) =   4.97491  0.86477  5.83969
     Atomic magnetic moment for atom  14 =   4.11014
     SPIN  1
     eigenvalues:
       0.990  0.993  0.997  0.997  0.998
     eigenvectors (columns):
       1.000  0.000  0.000  0.000 -0.000
      -0.000 -0.000  0.901  0.435  0.000
       0.000  0.000  0.435 -0.901 -0.000
      -0.000  0.187  0.000  0.000 -0.982
      -0.000  0.982 -0.000  0.000  0.187
     occupation matrix ns (before diag.):
       0.990  0.000 -0.000  0.000  0.000
       0.000  0.997 -0.000 -0.000  0.000
      -0.000 -0.000  0.997  0.000 -0.000
       0.000 -0.000  0.000  0.998 -0.001
       0.000  0.000 -0.000 -0.001  0.993
     SPIN  2
     eigenvalues:
       0.099  0.136  0.136  0.216  0.277
     eigenvectors (columns):
       0.000 -0.000  0.000  1.000 -0.000
      -0.000 -0.520 -0.854  0.000 -0.000
      -0.000  0.854 -0.520  0.000 -0.000
       0.980  0.000 -0.000  0.000  0.197
      -0.197 -0.000 -0.000  0.000  0.980
     occupation matrix ns (before diag.):
       0.216  0.000  0.000 -0.000 -0.000
       0.000  0.136  0.000  0.000 -0.000
       0.000  0.000  0.136  0.000 -0.000
      -0.000  0.000  0.000  0.106  0.035
      -0.000 -0.000 -0.000  0.035  0.271
     ------------------------ ATOM   15 ------------------------
     Tr[ns( 15)] (up, down, total) =   4.97491  0.86477  5.83969
     Atomic magnetic moment for atom  15 =   4.11014
     SPIN  1
     eigenvalues:
       0.990  0.993  0.997  0.997  0.998
     eigenvectors (columns):
      -1.000  0.000 -0.000  0.000 -0.000
      -0.000 -0.000  0.503 -0.865 -0.000
      -0.000 -0.000  0.865  0.503 -0.000
       0.000  0.187 -0.000 -0.000 -0.982
       0.000  0.982  0.000  0.000  0.187
     occupation matrix ns (before diag.):
       0.990 -0.000 -0.000  0.000  0.000
      -0.000  0.997 -0.000  0.000  0.000
      -0.000 -0.000  0.997  0.000  0.000
       0.000  0.000  0.000  0.998 -0.001
       0.000  0.000  0.000 -0.001  0.993
     SPIN  2
     eigenvalues:
       0.099  0.136  0.136  0.216  0.277
     eigenvectors (columns):
      -0.000 -0.000 -0.000  1.000 -0.000
      -0.000 -0.991 -0.136 -0.000  0.000
      -0.000  0.136 -0.991 -0.000  0.000
       0.980 -0.000 -0.000  0.000  0.197
      -0.197  0.000  0.000  0.000  0.980
     occupation matrix ns (before diag.):
       0.216 -0.000 -0.000  0.000 -0.000
      -0.000  0.136  0.000  0.000  0.000
      -0.000  0.000  0.136  0.000  0.000
       0.000  0.000  0.000  0.106  0.035
      -0.000  0.000  0.000  0.035  0.271
     ------------------------ ATOM   16 ------------------------
     Tr[ns( 16)] (up, down, total) =   4.97491  0.86477  5.83968
     Atomic magnetic moment for atom  16 =   4.11014
     SPIN  1
     eigenvalues:
       0.990  0.993  0.997  0.997  0.998
     eigenvectors (columns):
       1.000 -0.000 -0.000  0.000 -0.000
       0.000 -0.000  0.838  0.546 -0.000
       0.000 -0.000  0.546 -0.838 -0.000
      -0.000  0.187 -0.000  0.000 -0.982
       0.000  0.982  0.000 -0.000  0.187
     occupation matrix ns (before diag.):
       0.990 -0.000 -0.000  0.000 -0.000
      -0.000  0.997 -0.000  0.000  0.000
      -0.000 -0.000  0.997  0.000  0.000
       0.000  0.000  0.000  0.998 -0.001
      -0.000  0.000  0.000 -0.001  0.993
     SPIN  2
     eigenvalues:
       0.099  0.136  0.136  0.216  0.277
     eigenvectors (columns):
       0.000 -0.000 -0.000  1.000 -0.000
      -0.000  0.231 -0.973 -0.000  0.000
      -0.000 -0.973 -0.231 -0.000  0.000
       0.980 -0.000 -0.000  0.000  0.197
      -0.197  0.000  0.000  0.000  0.980
     occupation matrix ns (before diag.):
       0.216 -0.000 -0.000 -0.000 -0.000
      -0.000  0.136  0.000  0.000  0.000
      -0.000  0.000  0.136  0.000  0.000
      -0.000  0.000  0.000  0.106  0.035
      -0.000  0.000  0.000  0.035  0.271

     Number of occupied Hubbard levels =   44.3458

     HUBBARD ENERGY =    0.6083  (Ry)

     total cpu time spent up to now is      368.2 secs

     total energy              =   -3088.73109032 Ry
     estimated scf accuracy    <       0.00000080 Ry

     total magnetization       =    39.98 Bohr mag/cell
     absolute magnetization    =    40.06 Bohr mag/cell

     iteration # 15     ecut=    90.00 Ry     beta= 0.30
     Davidson diagonalization with overlap

---- Real-time Memory Report at c_bands before calling an iterative solver
          1324 MiB given to the printing process from OS
           824 MiB allocation reported by mallinfo(arena+hblkhd)
        673819 MiB available memory on the node where the printing process lives
------------------
     ethr =  2.44E-10,  avg # of iterations =  2.3

     =================== HUBBARD OCCUPATIONS ===================
     ------------------------ ATOM    9 ------------------------
     Tr[ns(  9)] (up, down, total) =   4.95520  0.29159  5.24678
     Atomic magnetic moment for atom   9 =   4.66361
     SPIN  1
     eigenvalues:
       0.975  0.991  0.996  0.996  0.997
     eigenvectors (columns):
      -1.000  0.000  0.000  0.000 -0.000
      -0.000 -0.000 -0.990  0.138 -0.000
      -0.000 -0.000 -0.138 -0.990 -0.000
       0.000 -0.129  0.000  0.000 -0.992
       0.000  0.992 -0.000 -0.000 -0.129
     occupation matrix ns (before diag.):
       0.975 -0.000 -0.000  0.000  0.000
      -0.000  0.996 -0.000  0.000  0.000
      -0.000 -0.000  0.996  0.000  0.000
       0.000  0.000  0.000  0.997  0.001
       0.000  0.000  0.000  0.001  0.991
     SPIN  2
     eigenvalues:
       0.040  0.040  0.040  0.067  0.105
     eigenvectors (columns):
      -0.000 -0.000 -0.000  1.000  0.000
      -0.000 -0.960  0.279 -0.000  0.000
      -0.000 -0.279 -0.960 -0.000  0.000
       0.986 -0.000 -0.000  0.000 -0.164
       0.164 -0.000 -0.000 -0.000  0.986
     occupation matrix ns (before diag.):
       0.067 -0.000 -0.000  0.000  0.000
      -0.000  0.040 -0.000  0.000  0.000
      -0.000 -0.000  0.040  0.000  0.000
       0.000  0.000  0.000  0.041 -0.011
       0.000  0.000  0.000 -0.011  0.103
     ------------------------ ATOM   10 ------------------------
     Tr[ns( 10)] (up, down, total) =   4.95520  0.29159  5.24678
     Atomic magnetic moment for atom  10 =   4.66361
     SPIN  1
     eigenvalues:
       0.975  0.991  0.996  0.996  0.997
     eigenvectors (columns):
      -1.000  0.000  0.000  0.000 -0.000
      -0.000 -0.000 -0.972 -0.236 -0.000
      -0.000 -0.000  0.236 -0.972 -0.000
       0.000 -0.129  0.000  0.000 -0.992
       0.000  0.992 -0.000 -0.000 -0.129
     occupation matrix ns (before diag.):
       0.975 -0.000 -0.000  0.000  0.000
      -0.000  0.996  0.000  0.000  0.000
      -0.000  0.000  0.996  0.000  0.000
       0.000  0.000  0.000  0.997  0.001
       0.000  0.000  0.000  0.001  0.991
     SPIN  2
     eigenvalues:
       0.040  0.040  0.040  0.067  0.105
     eigenvectors (columns):
      -0.000 -0.000  0.000  1.000  0.000
      -0.000 -0.324 -0.946 -0.000  0.000
      -0.000 -0.946  0.324 -0.000  0.000
       0.986 -0.000 -0.000  0.000 -0.164
       0.164 -0.000 -0.000 -0.000  0.986
     occupation matrix ns (before diag.):
       0.067 -0.000 -0.000 -0.000  0.000
      -0.000  0.040 -0.000  0.000  0.000
      -0.000 -0.000  0.040  0.000  0.000
      -0.000  0.000  0.000  0.041 -0.011
       0.000  0.000  0.000 -0.011  0.103
     ------------------------ ATOM   11 ------------------------
     Tr[ns( 11)] (up, down, total) =   4.95520  0.29159  5.24678
     Atomic magnetic moment for atom  11 =   4.66361
     SPIN  1
     eigenvalues:
       0.975  0.991  0.996  0.996  0.997
     eigenvectors (columns):
      -1.000  0.000 -0.000  0.000 -0.000
       0.000  0.000 -0.999 -0.052 -0.000
       0.000  0.000 -0.052  0.999  0.000
       0.000 -0.129  0.000  0.000 -0.992
       0.000  0.992  0.000 -0.000 -0.129
     occupation matrix ns (before diag.):
       0.975  0.000  0.000  0.000  0.000
       0.000  0.996 -0.000  0.000 -0.000
       0.000 -0.000  0.996 -0.000 -0.000
       0.000  0.000 -0.000  0.997  0.001
       0.000 -0.000 -0.000  0.001  0.991
     SPIN  2
     eigenvalues:
       0.040  0.040  0.040  0.067  0.105
     eigenvectors (columns):
      -0.000  0.000 -0.000 -1.000 -0.000
      -0.000 -0.782  0.624 -0.000  0.000
       0.000  0.624  0.782 -0.000 -0.000
       0.986 -0.000 -0.000 -0.000 -0.164
       0.164 -0.000 -0.000 -0.000  0.986
     occupation matrix ns (before diag.):
       0.067  0.000  0.000  0.000 -0.000
       0.000  0.040  0.000  0.000  0.000
       0.000  0.000  0.040 -0.000 -0.000
       0.000  0.000 -0.000  0.041 -0.011
      -0.000  0.000 -0.000 -0.011  0.103
     ------------------------ ATOM   12 ------------------------
     Tr[ns( 12)] (up, down, total) =   4.95520  0.29159  5.24678
     Atomic magnetic moment for atom  12 =   4.66361
     SPIN  1
     eigenvalues:
       0.975  0.991  0.996  0.996  0.997
     eigenvectors (columns):
      -1.000  0.000  0.000 -0.000 -0.000
      -0.000 -0.000 -0.999 -0.052  0.000
      -0.000 -0.000 -0.052  0.999 -0.000
       0.000 -0.129 -0.000 -0.000 -0.992
       0.000  0.992 -0.000  0.000 -0.129
     occupation matrix ns (before diag.):
       0.975 -0.000 -0.000  0.000  0.000
      -0.000  0.996 -0.000 -0.000  0.000
      -0.000 -0.000  0.996  0.000  0.000
       0.000 -0.000  0.000  0.997  0.001
       0.000  0.000  0.000  0.001  0.991
     SPIN  2
     eigenvalues:
       0.040  0.040  0.040  0.067  0.105
     eigenvectors (columns):
       0.000 -0.000 -0.000 -1.000 -0.000
      -0.000 -0.782 -0.624  0.000 -0.000
       0.000  0.624 -0.782  0.000  0.000
      -0.986  0.000 -0.000 -0.000 -0.164
      -0.164  0.000 -0.000 -0.000  0.986
     occupation matrix ns (before diag.):
       0.067 -0.000 -0.000  0.000 -0.000
      -0.000  0.040  0.000 -0.000 -0.000
      -0.000  0.000  0.040  0.000  0.000
       0.000 -0.000  0.000  0.041 -0.011
      -0.000 -0.000  0.000 -0.011  0.103
     ------------------------ ATOM   13 ------------------------
     Tr[ns( 13)] (up, down, total) =   4.97491  0.86481  5.83973
     Atomic magnetic moment for atom  13 =   4.11010
     SPIN  1
     eigenvalues:
       0.990  0.993  0.997  0.997  0.998
     eigenvectors (columns):
       1.000 -0.000 -0.000 -0.000 -0.000
       0.000  0.000  0.932  0.363 -0.000
      -0.000 -0.000  0.363 -0.932  0.000
      -0.000  0.187 -0.000 -0.000 -0.982
       0.000  0.982  0.000 -0.000  0.187
     occupation matrix ns (before diag.):
       0.990 -0.000  0.000  0.000 -0.000
      -0.000  0.997 -0.000  0.000 -0.000
       0.000 -0.000  0.997 -0.000  0.000
       0.000  0.000 -0.000  0.998 -0.001
      -0.000 -0.000  0.000 -0.001  0.993
     SPIN  2
     eigenvalues:
       0.099  0.136  0.136  0.216  0.277
     eigenvectors (columns):
       0.000  0.000 -0.000  1.000  0.000
       0.000 -0.336 -0.942 -0.000  0.000
       0.000  0.942 -0.336 -0.000  0.000
       0.980 -0.000  0.000 -0.000  0.197
      -0.197  0.000  0.000 -0.000  0.980
     occupation matrix ns (before diag.):
       0.216 -0.000 -0.000 -0.000  0.000
      -0.000  0.136  0.000 -0.000  0.000
      -0.000  0.000  0.136 -0.000  0.000
      -0.000 -0.000 -0.000  0.106  0.035
       0.000  0.000  0.000  0.035  0.271
     ------------------------ ATOM   14 ------------------------
     Tr[ns( 14)] (up, down, total) =   4.97491  0.86481  5.83973
     Atomic magnetic moment for atom  14 =   4.11010
     SPIN  1
     eigenvalues:
       0.990  0.993  0.997  0.997  0.998
     eigenvectors (columns):
      -1.000 -0.000  0.000 -0.000 -0.000
       0.000 -0.000  0.932 -0.363  0.000
      -0.000  0.000  0.363  0.932 -0.000
       0.000  0.187  0.000 -0.000 -0.982
      -0.000  0.982 -0.000 -0.000  0.187
     occupation matrix ns (before diag.):
       0.990  0.000 -0.000  0.000 -0.000
       0.000  0.997 -0.000 -0.000  0.000
      -0.000 -0.000  0.997  0.000 -0.000
       0.000 -0.000  0.000  0.998 -0.001
      -0.000  0.000 -0.000 -0.001  0.993
     SPIN  2
     eigenvalues:
       0.099  0.136  0.136  0.216  0.277
     eigenvectors (columns):
       0.000  0.000  0.000 -1.000  0.000
      -0.000  0.336 -0.942 -0.000 -0.000
      -0.000 -0.942 -0.336 -0.000 -0.000
       0.980 -0.000 -0.000  0.000  0.197
      -0.197  0.000 -0.000  0.000  0.980
     occupation matrix ns (before diag.):
       0.216  0.000  0.000 -0.000  0.000
       0.000  0.136  0.000  0.000 -0.000
       0.000  0.000  0.136  0.000 -0.000
      -0.000  0.000  0.000  0.106  0.035
       0.000 -0.000 -0.000  0.035  0.271
     ------------------------ ATOM   15 ------------------------
     Tr[ns( 15)] (up, down, total) =   4.97491  0.86481  5.83973
     Atomic magnetic moment for atom  15 =   4.11010
     SPIN  1
     eigenvalues:
       0.990  0.993  0.997  0.997  0.998
     eigenvectors (columns):
      -1.000  0.000 -0.000 -0.000  0.000
      -0.000 -0.000  0.701 -0.713 -0.000
      -0.000 -0.000  0.713  0.701 -0.000
       0.000  0.187 -0.000 -0.000 -0.982
       0.000  0.982  0.000  0.000  0.187
     occupation matrix ns (before diag.):
       0.990 -0.000 -0.000  0.000  0.000
      -0.000  0.997 -0.000  0.000  0.000
      -0.000 -0.000  0.997  0.000  0.000
       0.000  0.000  0.000  0.998 -0.001
       0.000  0.000  0.000 -0.001  0.993
     SPIN  2
     eigenvalues:
       0.099  0.136  0.136  0.216  0.277
     eigenvectors (columns):
      -0.000 -0.000 -0.000  1.000 -0.000
      -0.000 -0.998 -0.067 -0.000  0.000
      -0.000  0.067 -0.998 -0.000  0.000
       0.980 -0.000 -0.000  0.000  0.197
      -0.197  0.000  0.000  0.000  0.980
     occupation matrix ns (before diag.):
       0.216 -0.000 -0.000  0.000 -0.000
      -0.000  0.136  0.000  0.000  0.000
      -0.000  0.000  0.136  0.000  0.000
       0.000  0.000  0.000  0.106  0.035
      -0.000  0.000  0.000  0.035  0.271
     ------------------------ ATOM   16 ------------------------
     Tr[ns( 16)] (up, down, total) =   4.97491  0.86481  5.83973
     Atomic magnetic moment for atom  16 =   4.11010
     SPIN  1
     eigenvalues:
       0.990  0.993  0.997  0.997  0.998
     eigenvectors (columns):
       1.000 -0.000 -0.000  0.000 -0.000
       0.000 -0.000  0.847  0.531 -0.000
       0.000 -0.000  0.531 -0.847 -0.000
      -0.000  0.187 -0.000  0.000 -0.982
       0.000  0.982  0.000 -0.000  0.187
     occupation matrix ns (before diag.):
       0.990 -0.000 -0.000  0.000 -0.000
      -0.000  0.997 -0.000  0.000  0.000
      -0.000 -0.000  0.997  0.000  0.000
       0.000  0.000  0.000  0.998 -0.001
      -0.000  0.000  0.000 -0.001  0.993
     SPIN  2
     eigenvalues:
       0.099  0.136  0.136  0.216  0.277
     eigenvectors (columns):
       0.000 -0.000 -0.000  1.000 -0.000
      -0.000  0.054 -0.999 -0.000  0.000
      -0.000 -0.999 -0.054 -0.000  0.000
       0.980 -0.000 -0.000 -0.000  0.197
      -0.197  0.000  0.000  0.000  0.980
     occupation matrix ns (before diag.):
       0.216 -0.000 -0.000 -0.000 -0.000
      -0.000  0.136  0.000  0.000  0.000
      -0.000  0.000  0.136  0.000  0.000
      -0.000  0.000  0.000  0.106  0.035
      -0.000  0.000  0.000  0.035  0.271

     Number of occupied Hubbard levels =   44.3460

     HUBBARD ENERGY =    0.6083  (Ry)

     Magnetic moment per site  (integrated on atomic sphere of radius R)
     atom   1 (R=0.103)  charge=  6.8281  magn= -0.0006
     atom   2 (R=0.103)  charge=  6.8282  magn= -0.0006
     atom   3 (R=0.103)  charge=  6.8283  magn= -0.0006
     atom   4 (R=0.103)  charge=  6.8283  magn= -0.0006
     atom   5 (R=0.083)  charge=  7.2888  magn=  0.0085
     atom   6 (R=0.083)  charge=  7.2886  magn=  0.0085
     atom   7 (R=0.083)  charge=  7.2890  magn=  0.0085
     atom   8 (R=0.083)  charge=  7.2890  magn=  0.0085
     atom   9 (R=0.075)  charge= 12.2900  magn=  4.0952
     atom  10 (R=0.075)  charge= 12.2899  magn=  4.0952
     atom  11 (R=0.075)  charge= 12.2899  magn=  4.0951
     atom  12 (R=0.075)  charge= 12.2899  magn=  4.0951
     atom  13 (R=0.070)  charge= 12.8018  magn=  3.8155
     atom  14 (R=0.070)  charge= 12.8018  magn=  3.8155
     atom  15 (R=0.070)  charge= 12.8016  magn=  3.8154
     atom  16 (R=0.070)  charge= 12.8018  magn=  3.8154
     atom  17 (R=0.070)  charge=  5.2964  magn=  0.1972
     atom  18 (R=0.070)  charge=  5.2964  magn=  0.1972
     atom  19 (R=0.070)  charge=  5.2963  magn=  0.1972
     atom  20 (R=0.070)  charge=  5.2963  magn=  0.1972
     atom  21 (R=0.070)  charge=  5.2968  magn=  0.1509
     atom  22 (R=0.070)  charge=  5.2973  magn=  0.1510
     atom  23 (R=0.070)  charge=  5.2973  magn=  0.1510
     atom  24 (R=0.070)  charge=  5.2968  magn=  0.1509
     atom  25 (R=0.070)  charge=  5.2971  magn=  0.1510
     atom  26 (R=0.070)  charge=  5.2972  magn=  0.1510
     atom  27 (R=0.070)  charge=  5.2972  magn=  0.1510
     atom  28 (R=0.070)  charge=  5.2971  magn=  0.1510
     atom  29 (R=0.070)  charge=  5.2971  magn=  0.1510
     atom  30 (R=0.070)  charge=  5.2972  magn=  0.1510
     atom  31 (R=0.070)  charge=  5.2972  magn=  0.1510
     atom  32 (R=0.070)  charge=  5.2971  magn=  0.1510
     atom  33 (R=0.070)  charge=  5.2969  magn=  0.1510
     atom  34 (R=0.070)  charge=  5.2972  magn=  0.1510
     atom  35 (R=0.070)  charge=  5.2972  magn=  0.1510
     atom  36 (R=0.070)  charge=  5.2969  magn=  0.1510

     total cpu time spent up to now is      391.9 secs

     End of self-consistent calculation

 ------ SPIN UP ------------


          k = 0.0000 0.0000 0.0000 ( 48047 PWs)   bands (ev):

   -80.7701 -80.7701 -80.7701 -80.7701 -69.4646 -69.4645 -69.4645 -69.4645
   -46.9857 -46.9857 -46.9857 -46.9857 -46.8407 -46.8407 -46.8407 -46.8406
   -46.8406 -46.8406 -46.8406 -46.8406 -38.5181 -38.5180 -38.5180 -38.5180
   -38.3428 -38.3428 -38.3428 -38.3428 -38.3428 -38.3428 -38.3428 -38.3428
   -30.3412 -30.3343 -30.3343 -30.3269 -15.9635 -15.8940 -15.8940 -15.8315
   -10.7708 -10.7696 -10.7696 -10.6335 -10.6335 -10.6149 -10.6149 -10.5990
   -10.5989 -10.4889 -10.4206 -10.4206  -7.1770  -6.9774  -6.9774  -6.8607
    -6.7395  -6.5443  -6.5443  -6.3939  -6.3315  -6.3315  -6.2710  -6.2669
    -6.2669  -6.1948  -6.1948  -6.1786  -6.1109  -6.1109  -5.9709  -5.9709
    -1.5998  -1.5998  -1.3086  -1.3086  -1.1407  -1.1292  -1.1292  -1.1175
    -0.9905  -0.9905  -0.9285  -0.9285   3.1809   3.2506   3.2550   3.2550
     3.2767   3.3232   3.3232   3.3791   3.3817   3.3817   3.3821   3.3821
     3.4179   3.4346   3.4346   3.4630   3.4630   3.4754   3.4754   3.5133
     4.5366   4.9767   5.2016   5.2016   5.4161   5.7154   5.7154   5.9001
     5.9026   5.9026   5.9420   5.9420   6.1029   6.1029   6.1391   6.1391
     6.2682   6.2682   6.3121   6.3375   6.4450   6.5410   6.5410   6.6685
     6.6685   6.7463   7.0442   7.0443   7.2248   7.2248   7.5392   7.5814
     7.5814   7.7013   7.7013   7.7474   7.9887   7.9887   8.1311   8.1311
     8.2992   8.2992   8.3156   8.4530   8.5493   8.5493   8.6084   8.6084
     8.6941   8.6941   8.7933   8.7933   8.8739   8.8739   9.0301   9.0301
     9.0654   9.0654   9.0770   9.0770   9.1298   9.1298   9.1598   9.2070
     9.2070   9.2805   9.3396   9.5120   9.6479   9.6479   9.6750  10.2391
    10.2705  10.2705  10.3469  10.3469  10.9163  10.9163  11.6878  11.7021
    13.0999  13.6759  14.2201  14.5945  14.7680  14.7680  15.2541  15.2541
    15.2931  15.2931  15.6910  15.7071  15.7082

     occupation numbers 
     1.0000   1.0000   1.0000   1.0000   1.0000   1.0000   1.0000   1.0000
     1.0000   1.0000   1.0000   1.0000   1.0000   1.0000   1.0000   1.0000
     1.0000   1.0000   1.0000   1.0000   1.0000   1.0000   1.0000   1.0000
     1.0000   1.0000   1.0000   1.0000   1.0000   1.0000   1.0000   1.0000
     1.0000   1.0000   1.0000   1.0000   1.0000   1.0000   1.0000   1.0000
     1.0000   1.0000   1.0000   1.0000   1.0000   1.0000   1.0000   1.0000
     1.0000   1.0000   1.0000   1.0000   1.0000   1.0000   1.0000   1.0000
     1.0000   1.0000   1.0000   1.0000   1.0000   1.0000   1.0000   1.0000
     1.0000   1.0000   1.0000   1.0000   1.0000   1.0000   1.0000   1.0000
     1.0000   1.0000   1.0000   1.0000   1.0000   1.0000   1.0000   1.0000
     1.0000   1.0000   1.0000   1.0000   1.0000   1.0000   1.0000   1.0000
     1.0000   1.0000   1.0000   1.0000   1.0000   1.0000   1.0000   1.0000
     1.0000   1.0000   1.0000   1.0000   1.0000   1.0000   1.0000   1.0000
     1.0000   1.0000   1.0000   1.0000   1.0000   1.0000   1.0000   1.0000
     1.0000   1.0000   1.0000   1.0000   1.0000   1.0000   1.0000   1.0000
     1.0000   1.0000   1.0000   1.0000   1.0000   1.0000   1.0000   1.0000
     1.0000   1.0000   1.0000   1.0000   1.0000   1.0000   1.0000   1.0000
     1.0000   1.0000   1.0000   1.0000   1.0000   1.0000   1.0000   1.0000
     1.0000   1.0000   1.0000   1.0000   1.0000   1.0000   1.0000   1.0000
     1.0000   1.0000   1.0000   1.0000   1.0000   1.0000   1.0000   1.0000
     1.0000   1.0000   1.0000   1.0000   1.0000   1.0000   1.0000   1.0000
     1.0000   1.0000   1.0000   1.0000   1.0000   1.0000   1.0000   1.0000
     1.0000   1.0000   1.0000   1.0000   1.0000   1.0000   0.9684   0.9406
     0.0000   0.0000   0.0000   0.0000   0.0000   0.0000   0.0000   0.0000
     0.0000   0.0000   0.0000   0.0000   0.0000

          k = 0.0000 0.0000 0.4912 ( 48026 PWs)   bands (ev):

   -80.7701 -80.7701 -80.7701 -80.7701 -69.4646 -69.4645 -69.4645 -69.4645
   -46.9857 -46.9857 -46.9857 -46.9857 -46.8407 -46.8407 -46.8407 -46.8406
   -46.8406 -46.8406 -46.8406 -46.8406 -38.5181 -38.5181 -38.5181 -38.5180
   -38.3428 -38.3428 -38.3428 -38.3428 -38.3428 -38.3428 -38.3428 -38.3428
   -30.3412 -30.3342 -30.3342 -30.3270 -15.9640 -15.8945 -15.8945 -15.8324
   -10.7694 -10.7694 -10.7634 -10.6300 -10.6300 -10.6147 -10.6147 -10.5980
   -10.5980 -10.4859 -10.4206 -10.4206  -7.2049  -6.9691  -6.9691  -6.8563
    -6.8054  -6.6071  -6.6071  -6.3062  -6.2918  -6.2918  -6.2828  -6.2828
    -6.2624  -6.2052  -6.2052  -6.1913  -6.0939  -6.0939  -5.9543  -5.9543
    -1.5989  -1.5989  -1.3054  -1.3054  -1.1528  -1.1417  -1.1327  -1.1327
    -0.9910  -0.9910  -0.9222  -0.9222   3.1140   3.2496   3.2496   3.2749
     3.2938   3.2938   3.3386   3.3821   3.3821   3.3839   3.3839   3.3852
     3.4182   3.4309   3.4309   3.4585   3.4585   3.4689   3.4772   3.4772
     4.3939   4.9018   5.1020   5.1020   5.7502   5.7502   5.8323   5.9005
     5.9005   5.9404   5.9404   6.0060   6.0942   6.0942   6.1959   6.1959
     6.3256   6.3786   6.4139   6.4139   6.5291   6.5291   6.5598   6.7375
     6.7973   6.7973   6.9231   6.9232   7.1711   7.2206   7.2206   7.4108
     7.4108   7.5677   7.5677   7.9699   7.9699   8.2986   8.3350   8.3402
     8.3402   8.3614   8.3614   8.5011   8.5011   8.5260   8.7120   8.7120
     8.7241   8.7241   8.8459   8.8459   8.8978   8.8978   8.9875   9.0045
     9.0045   9.0455   9.0455   9.0910   9.1188   9.1188   9.2145   9.2282
     9.2282   9.2972   9.3610   9.3610   9.4285   9.6144   9.6144   9.9540
     9.9540  10.0945  10.2754  10.2754  10.9202  10.9202  11.6873  11.7026
    13.4968  13.8546  14.6854  14.6854  14.6961  14.8968  15.4017  15.4017
    15.4505  15.4506  15.4612  15.7342  15.7364

     occupation numbers 
     1.0000   1.0000   1.0000   1.0000   1.0000   1.0000   1.0000   1.0000
     1.0000   1.0000   1.0000   1.0000   1.0000   1.0000   1.0000   1.0000
     1.0000   1.0000   1.0000   1.0000   1.0000   1.0000   1.0000   1.0000
     1.0000   1.0000   1.0000   1.0000   1.0000   1.0000   1.0000   1.0000
     1.0000   1.0000   1.0000   1.0000   1.0000   1.0000   1.0000   1.0000
     1.0000   1.0000   1.0000   1.0000   1.0000   1.0000   1.0000   1.0000
     1.0000   1.0000   1.0000   1.0000   1.0000   1.0000   1.0000   1.0000
     1.0000   1.0000   1.0000   1.0000   1.0000   1.0000   1.0000   1.0000
     1.0000   1.0000   1.0000   1.0000   1.0000   1.0000   1.0000   1.0000
     1.0000   1.0000   1.0000   1.0000   1.0000   1.0000   1.0000   1.0000
     1.0000   1.0000   1.0000   1.0000   1.0000   1.0000   1.0000   1.0000
     1.0000   1.0000   1.0000   1.0000   1.0000   1.0000   1.0000   1.0000
     1.0000   1.0000   1.0000   1.0000   1.0000   1.0000   1.0000   1.0000
     1.0000   1.0000   1.0000   1.0000   1.0000   1.0000   1.0000   1.0000
     1.0000   1.0000   1.0000   1.0000   1.0000   1.0000   1.0000   1.0000
     1.0000   1.0000   1.0000   1.0000   1.0000   1.0000   1.0000   1.0000
     1.0000   1.0000   1.0000   1.0000   1.0000   1.0000   1.0000   1.0000
     1.0000   1.0000   1.0000   1.0000   1.0000   1.0000   1.0000   1.0000
     1.0000   1.0000   1.0000   1.0000   1.0000   1.0000   1.0000   1.0000
     1.0000   1.0000   1.0000   1.0000   1.0000   1.0000   1.0000   1.0000
     1.0000   1.0000   1.0000   1.0000   1.0000   1.0000   1.0000   1.0000
     1.0000   1.0000   1.0000   1.0000   1.0000   1.0000   1.0000   1.0000
     1.0000   1.0000   1.0000   1.0000   1.0000   1.0000   0.9691   0.9395
     0.0000   0.0000   0.0000   0.0000   0.0000   0.0000   0.0000   0.0000
     0.0000   0.0000   0.0000   0.0000   0.0000

          k = 0.0000 0.5000 0.0000 ( 47992 PWs)   bands (ev):

   -80.7701 -80.7701 -80.7701 -80.7701 -69.4646 -69.4646 -69.4646 -69.4645
   -46.9857 -46.9857 -46.9857 -46.9857 -46.8407 -46.8407 -46.8407 -46.8407
   -46.8407 -46.8406 -46.8406 -46.8406 -38.5181 -38.5180 -38.5180 -38.5180
   -38.3428 -38.3428 -38.3428 -38.3428 -38.3428 -38.3428 -38.3428 -38.3428
   -30.3392 -30.3344 -30.3344 -30.3291 -15.9424 -15.8918 -15.8918 -15.8490
   -10.7465 -10.7462 -10.7350 -10.7264 -10.7177 -10.6214 -10.6202 -10.5307
   -10.4834 -10.4745 -10.4704 -10.4695  -7.0624  -7.0275  -7.0271  -6.9164
    -6.7557  -6.5532  -6.5274  -6.4681  -6.4350  -6.3887  -6.2956  -6.2479
    -6.2313  -6.2161  -6.1562  -6.1496  -6.0831  -6.0528  -6.0525  -6.0113
    -1.5170  -1.3432  -1.1410  -1.1377  -1.1342  -1.1191  -1.1187  -1.1111
    -1.0861  -0.9047  -0.9036  -0.8898   3.2203   3.2242   3.2545   3.2747
     3.2990   3.3005   3.3263   3.3283   3.3728   3.3753   3.3830   3.3844
     3.4012   3.4082   3.4118   3.4172   3.4602   3.4702   3.4756   3.5014
     4.7967   5.0494   5.0532   5.1175   5.6020   5.6947   5.7089   5.7108
     5.8957   5.9442   5.9732   5.9791   6.0540   6.1341   6.2092   6.2497
     6.2756   6.2938   6.3277   6.4081   6.5473   6.5902   6.6402   6.6833
     6.7600   6.8480   6.9169   7.0260   7.1839   7.4019   7.4252   7.4615
     7.4969   7.6583   7.7071   7.8391   7.9855   8.0919   8.1611   8.1894
     8.2286   8.2770   8.3009   8.3226   8.3460   8.3772   8.3973   8.4289
     8.5393   8.5917   8.6063   8.6906   8.7650   8.7923   8.8106   8.8355
     8.8656   8.8667   8.9009   9.0287   9.0882   9.1509   9.1543   9.1722
     9.3147   9.3421   9.3533   9.3736   9.8363   9.8392   9.9151   9.9469
    10.0227  10.2043  10.2407  10.3273  10.5554  10.5788  11.3698  11.3707
    13.7020  14.2344  14.4976  14.9682  15.0603  15.0677  15.3666  15.3823
    15.6072  15.6379  15.7254  15.7355  15.7563

     occupation numbers 
     1.0000   1.0000   1.0000   1.0000   1.0000   1.0000   1.0000   1.0000
     1.0000   1.0000   1.0000   1.0000   1.0000   1.0000   1.0000   1.0000
     1.0000   1.0000   1.0000   1.0000   1.0000   1.0000   1.0000   1.0000
     1.0000   1.0000   1.0000   1.0000   1.0000   1.0000   1.0000   1.0000
     1.0000   1.0000   1.0000   1.0000   1.0000   1.0000   1.0000   1.0000
     1.0000   1.0000   1.0000   1.0000   1.0000   1.0000   1.0000   1.0000
     1.0000   1.0000   1.0000   1.0000   1.0000   1.0000   1.0000   1.0000
     1.0000   1.0000   1.0000   1.0000   1.0000   1.0000   1.0000   1.0000
     1.0000   1.0000   1.0000   1.0000   1.0000   1.0000   1.0000   1.0000
     1.0000   1.0000   1.0000   1.0000   1.0000   1.0000   1.0000   1.0000
     1.0000   1.0000   1.0000   1.0000   1.0000   1.0000   1.0000   1.0000
     1.0000   1.0000   1.0000   1.0000   1.0000   1.0000   1.0000   1.0000
     1.0000   1.0000   1.0000   1.0000   1.0000   1.0000   1.0000   1.0000
     1.0000   1.0000   1.0000   1.0000   1.0000   1.0000   1.0000   1.0000
     1.0000   1.0000   1.0000   1.0000   1.0000   1.0000   1.0000   1.0000
     1.0000   1.0000   1.0000   1.0000   1.0000   1.0000   1.0000   1.0000
     1.0000   1.0000   1.0000   1.0000   1.0000   1.0000   1.0000   1.0000
     1.0000   1.0000   1.0000   1.0000   1.0000   1.0000   1.0000   1.0000
     1.0000   1.0000   1.0000   1.0000   1.0000   1.0000   1.0000   1.0000
     1.0000   1.0000   1.0000   1.0000   1.0000   1.0000   1.0000   1.0000
     1.0000   1.0000   1.0000   1.0000   1.0000   1.0000   1.0000   1.0000
     1.0000   1.0000   1.0000   1.0000   1.0000   1.0000   1.0000   1.0000
     1.0000   1.0000   1.0000   1.0000   1.0000   1.0000   1.0000   1.0000
     0.0000   0.0000   0.0000   0.0000   0.0000   0.0000   0.0000   0.0000
     0.0000   0.0000   0.0000   0.0000   0.0000

          k = 0.0000 0.5000 0.4912 ( 48032 PWs)   bands (ev):

   -80.7701 -80.7701 -80.7701 -80.7701 -69.4646 -69.4646 -69.4645 -69.4645
   -46.9857 -46.9857 -46.9857 -46.9857 -46.8407 -46.8407 -46.8407 -46.8407
   -46.8407 -46.8406 -46.8406 -46.8406 -38.5181 -38.5181 -38.5181 -38.5180
   -38.3428 -38.3428 -38.3428 -38.3428 -38.3428 -38.3428 -38.3428 -38.3428
   -30.3391 -30.3343 -30.3343 -30.3292 -15.9429 -15.8923 -15.8923 -15.8498
   -10.7462 -10.7458 -10.7320 -10.7257 -10.7146 -10.6170 -10.6159 -10.5274
   -10.4836 -10.4744 -10.4705 -10.4696  -7.0560  -7.0362  -7.0349  -6.9132
    -6.8503  -6.5896  -6.5718  -6.4404  -6.4139  -6.3201  -6.2911  -6.2627
    -6.2481  -6.2007  -6.1661  -6.1547  -6.0824  -6.0308  -6.0234  -5.9944
    -1.5149  -1.3388  -1.1457  -1.1437  -1.1349  -1.1345  -1.1248  -1.1120
    -1.0841  -0.9017  -0.9002  -0.8876   3.1677   3.2245   3.2396   3.2761
     3.2808   3.2853   3.3166   3.3475   3.3540   3.3675   3.3772   3.4037
     3.4088   3.4168   3.4226   3.4234   3.4630   3.4632   3.4720   3.4778
     4.6755   4.9649   4.9807   5.0722   5.7318   5.7388   5.7693   5.8615
     5.9071   5.9550   6.0145   6.0367   6.0476   6.1860   6.2169   6.2422
     6.3262   6.3406   6.3485   6.4949   6.6327   6.6479   6.6611   6.7371
     6.7543   6.8426   6.9600   7.1026   7.1613   7.2187   7.2887   7.3710
     7.4463   7.5263   7.5657   7.8419   7.9639   8.0514   8.1111   8.1517
     8.2033   8.2916   8.3322   8.3420   8.4501   8.5075   8.5307   8.6224
     8.6263   8.7017   8.7133   8.7303   8.7620   8.7998   8.8465   8.8558
     8.9242   8.9843   9.0400   9.0664   9.1279   9.1728   9.1844   9.2526
     9.2757   9.2944   9.3505   9.4338   9.5586   9.7196   9.7824   9.8546
     9.9768   9.9958   9.9978  10.1138  10.4946  10.5087  11.3466  11.3872
    13.9172  14.3589  14.8260  14.9757  15.0418  15.3080  15.4295  15.4626
    15.5667  15.5772  15.7348  15.7910  15.8805

     occupation numbers 
     1.0000   1.0000   1.0000   1.0000   1.0000   1.0000   1.0000   1.0000
     1.0000   1.0000   1.0000   1.0000   1.0000   1.0000   1.0000   1.0000
     1.0000   1.0000   1.0000   1.0000   1.0000   1.0000   1.0000   1.0000
     1.0000   1.0000   1.0000   1.0000   1.0000   1.0000   1.0000   1.0000
     1.0000   1.0000   1.0000   1.0000   1.0000   1.0000   1.0000   1.0000
     1.0000   1.0000   1.0000   1.0000   1.0000   1.0000   1.0000   1.0000
     1.0000   1.0000   1.0000   1.0000   1.0000   1.0000   1.0000   1.0000
     1.0000   1.0000   1.0000   1.0000   1.0000   1.0000   1.0000   1.0000
     1.0000   1.0000   1.0000   1.0000   1.0000   1.0000   1.0000   1.0000
     1.0000   1.0000   1.0000   1.0000   1.0000   1.0000   1.0000   1.0000
     1.0000   1.0000   1.0000   1.0000   1.0000   1.0000   1.0000   1.0000
     1.0000   1.0000   1.0000   1.0000   1.0000   1.0000   1.0000   1.0000
     1.0000   1.0000   1.0000   1.0000   1.0000   1.0000   1.0000   1.0000
     1.0000   1.0000   1.0000   1.0000   1.0000   1.0000   1.0000   1.0000
     1.0000   1.0000   1.0000   1.0000   1.0000   1.0000   1.0000   1.0000
     1.0000   1.0000   1.0000   1.0000   1.0000   1.0000   1.0000   1.0000
     1.0000   1.0000   1.0000   1.0000   1.0000   1.0000   1.0000   1.0000
     1.0000   1.0000   1.0000   1.0000   1.0000   1.0000   1.0000   1.0000
     1.0000   1.0000   1.0000   1.0000   1.0000   1.0000   1.0000   1.0000
     1.0000   1.0000   1.0000   1.0000   1.0000   1.0000   1.0000   1.0000
     1.0000   1.0000   1.0000   1.0000   1.0000   1.0000   1.0000   1.0000
     1.0000   1.0000   1.0000   1.0000   1.0000   1.0000   1.0000   1.0000
     1.0000   1.0000   1.0000   1.0000   1.0000   1.0000   1.0000   1.0000
     0.0000   0.0000   0.0000   0.0000   0.0000   0.0000   0.0000   0.0000
     0.0000   0.0000   0.0000   0.0000   0.0000

          k = 0.0000-1.0000 0.0000 ( 48100 PWs)   bands (ev):

   -80.7702 -80.7702 -80.7701 -80.7701 -69.4646 -69.4646 -69.4645 -69.4645
   -46.9857 -46.9857 -46.9857 -46.9857 -46.8407 -46.8407 -46.8407 -46.8407
   -46.8407 -46.8406 -46.8406 -46.8406 -38.5180 -38.5180 -38.5180 -38.5180
   -38.3428 -38.3428 -38.3428 -38.3428 -38.3428 -38.3428 -38.3428 -38.3428
   -30.3345 -30.3345 -30.3343 -30.3343 -15.8940 -15.8940 -15.8898 -15.8898
   -10.8006 -10.8006 -10.6335 -10.6335 -10.6155 -10.6155 -10.6149 -10.6149
   -10.5989 -10.5989 -10.4107 -10.4107  -7.0769  -7.0769  -6.9774  -6.9774
    -6.5578  -6.5578  -6.5443  -6.5443  -6.4920  -6.4920  -6.3315  -6.3315
    -6.1948  -6.1948  -6.1778  -6.1778  -6.1109  -6.1109  -5.9840  -5.9840
    -1.3086  -1.3086  -1.1292  -1.1292  -1.1163  -1.1163  -0.9973  -0.9973
    -0.9285  -0.9285  -0.8234  -0.8234   3.2336   3.2336   3.2550   3.2550
     3.3021   3.3021   3.3128   3.3128   3.3232   3.3232   3.3727   3.3727
     3.3817   3.3817   3.4346   3.4346   3.4665   3.4665   3.4754   3.4754
     4.9280   4.9280   5.2016   5.2016   5.7154   5.7154   5.7668   5.7668
     5.9026   5.9026   5.9289   5.9289   6.1391   6.1391   6.2479   6.2479
     6.2682   6.2682   6.2883   6.2883   6.5410   6.5410   6.6685   6.6685
     6.8660   6.8660   6.9406   6.9406   7.2970   7.2970   7.5814   7.5814
     7.7013   7.7013   7.9059   7.9059   7.9887   7.9887   8.0185   8.0185
     8.0613   8.0613   8.1311   8.1311   8.2992   8.2992   8.3183   8.3183
     8.4349   8.4349   8.6918   8.6918   8.6941   8.6941   8.7933   8.7933
     8.8739   8.8739   8.8935   8.8935   8.9865   8.9865   9.0654   9.0654
     9.2070   9.2070   9.3601   9.3601   9.4867   9.4867   9.9055   9.9055
    10.2705  10.2705  10.3469  10.3469  10.4230  10.4230  10.9163  10.9163
    14.7680  14.7680  15.2541  15.2541  15.2657  15.2657  15.6491  15.6493
    15.7515  15.7516  15.8609  15.9073  15.9077

     occupation numbers 
     1.0000   1.0000   1.0000   1.0000   1.0000   1.0000   1.0000   1.0000
     1.0000   1.0000   1.0000   1.0000   1.0000   1.0000   1.0000   1.0000
     1.0000   1.0000   1.0000   1.0000   1.0000   1.0000   1.0000   1.0000
     1.0000   1.0000   1.0000   1.0000   1.0000   1.0000   1.0000   1.0000
     1.0000   1.0000   1.0000   1.0000   1.0000   1.0000   1.0000   1.0000
     1.0000   1.0000   1.0000   1.0000   1.0000   1.0000   1.0000   1.0000
     1.0000   1.0000   1.0000   1.0000   1.0000   1.0000   1.0000   1.0000
     1.0000   1.0000   1.0000   1.0000   1.0000   1.0000   1.0000   1.0000
     1.0000   1.0000   1.0000   1.0000   1.0000   1.0000   1.0000   1.0000
     1.0000   1.0000   1.0000   1.0000   1.0000   1.0000   1.0000   1.0000
     1.0000   1.0000   1.0000   1.0000   1.0000   1.0000   1.0000   1.0000
     1.0000   1.0000   1.0000   1.0000   1.0000   1.0000   1.0000   1.0000
     1.0000   1.0000   1.0000   1.0000   1.0000   1.0000   1.0000   1.0000
     1.0000   1.0000   1.0000   1.0000   1.0000   1.0000   1.0000   1.0000
     1.0000   1.0000   1.0000   1.0000   1.0000   1.0000   1.0000   1.0000
     1.0000   1.0000   1.0000   1.0000   1.0000   1.0000   1.0000   1.0000
     1.0000   1.0000   1.0000   1.0000   1.0000   1.0000   1.0000   1.0000
     1.0000   1.0000   1.0000   1.0000   1.0000   1.0000   1.0000   1.0000
     1.0000   1.0000   1.0000   1.0000   1.0000   1.0000   1.0000   1.0000
     1.0000   1.0000   1.0000   1.0000   1.0000   1.0000   1.0000   1.0000
     1.0000   1.0000   1.0000   1.0000   1.0000   1.0000   1.0000   1.0000
     1.0000   1.0000   1.0000   1.0000   1.0000   1.0000   1.0000   1.0000
     1.0000   1.0000   1.0000   1.0000   1.0000   1.0000   1.0000   1.0000
     0.0000   0.0000   0.0000   0.0000   0.0000   0.0000   0.0000   0.0000
     0.0000   0.0000   0.0000   0.0000   0.0000

          k = 0.0000-1.0000 0.4912 ( 48018 PWs)   bands (ev):

   -80.7701 -80.7701 -80.7701 -80.7701 -69.4646 -69.4646 -69.4645 -69.4645
   -46.9857 -46.9857 -46.9857 -46.9857 -46.8407 -46.8407 -46.8407 -46.8406
   -46.8406 -46.8406 -46.8406 -46.8406 -38.5181 -38.5181 -38.5181 -38.5180
   -38.3428 -38.3428 -38.3428 -38.3428 -38.3428 -38.3428 -38.3428 -38.3428
   -30.3343 -30.3343 -30.3342 -30.3342 -15.8945 -15.8945 -15.8900 -15.8900
   -10.8000 -10.8000 -10.6300 -10.6300 -10.6147 -10.6147 -10.6116 -10.6113
   -10.5980 -10.5980 -10.4108 -10.4108  -7.0990  -7.0990  -6.9691  -6.9691
    -6.6071  -6.6071  -6.5286  -6.5248  -6.5180  -6.5180  -6.2918  -6.2918
    -6.2052  -6.2052  -6.1976  -6.1976  -6.0939  -6.0939  -5.9554  -5.9480
    -1.3054  -1.3054  -1.1356  -1.1327  -1.1327  -1.1239  -0.9948  -0.9948
    -0.9222  -0.9222  -0.8241  -0.8241   3.2068   3.2068   3.2496   3.2496
     3.2938   3.2938   3.2990   3.2990   3.3119   3.3131   3.3821   3.3821
     3.3920   3.3925   3.4309   3.4309   3.4692   3.4692   3.4772   3.4772
     4.8585   4.8585   5.1020   5.1020   5.7502   5.7502   5.7832   5.8258
     5.9005   5.9005   6.1307   6.1378   6.1378   6.1490   6.1959   6.1959
     6.3083   6.3083   6.4139   6.4139   6.5291   6.5291   6.7765   6.7765
     6.7973   6.7973   6.9704   7.0045   7.2205   7.2205   7.3925   7.5128
     7.5677   7.5677   7.7677   7.7951   7.9699   7.9699   7.9988   8.0730
     8.0730   8.1102   8.1215   8.3045   8.3402   8.3402   8.5011   8.5011
     8.5136   8.5329   8.6577   8.6577   8.7120   8.7120   8.8459   8.8459
     8.9893   8.9893   9.0045   9.0045   9.1167   9.1188   9.1188   9.1302
     9.2282   9.2282   9.3488   9.3584   9.3584   9.4389   9.9026   9.9026
     9.9540   9.9540  10.1529  10.1529  10.2754  10.2754  10.9202  10.9202
    14.6854  14.6854  15.3187  15.4505  15.4507  15.6394  15.6541  15.6546
    15.6547  15.6988  15.7330  15.7338  15.8679

     occupation numbers 
     1.0000   1.0000   1.0000   1.0000   1.0000   1.0000   1.0000   1.0000
     1.0000   1.0000   1.0000   1.0000   1.0000   1.0000   1.0000   1.0000
     1.0000   1.0000   1.0000   1.0000   1.0000   1.0000   1.0000   1.0000
     1.0000   1.0000   1.0000   1.0000   1.0000   1.0000   1.0000   1.0000
     1.0000   1.0000   1.0000   1.0000   1.0000   1.0000   1.0000   1.0000
     1.0000   1.0000   1.0000   1.0000   1.0000   1.0000   1.0000   1.0000
     1.0000   1.0000   1.0000   1.0000   1.0000   1.0000   1.0000   1.0000
     1.0000   1.0000   1.0000   1.0000   1.0000   1.0000   1.0000   1.0000
     1.0000   1.0000   1.0000   1.0000   1.0000   1.0000   1.0000   1.0000
     1.0000   1.0000   1.0000   1.0000   1.0000   1.0000   1.0000   1.0000
     1.0000   1.0000   1.0000   1.0000   1.0000   1.0000   1.0000   1.0000
     1.0000   1.0000   1.0000   1.0000   1.0000   1.0000   1.0000   1.0000
     1.0000   1.0000   1.0000   1.0000   1.0000   1.0000   1.0000   1.0000
     1.0000   1.0000   1.0000   1.0000   1.0000   1.0000   1.0000   1.0000
     1.0000   1.0000   1.0000   1.0000   1.0000   1.0000   1.0000   1.0000
     1.0000   1.0000   1.0000   1.0000   1.0000   1.0000   1.0000   1.0000
     1.0000   1.0000   1.0000   1.0000   1.0000   1.0000   1.0000   1.0000
     1.0000   1.0000   1.0000   1.0000   1.0000   1.0000   1.0000   1.0000
     1.0000   1.0000   1.0000   1.0000   1.0000   1.0000   1.0000   1.0000
     1.0000   1.0000   1.0000   1.0000   1.0000   1.0000   1.0000   1.0000
     1.0000   1.0000   1.0000   1.0000   1.0000   1.0000   1.0000   1.0000
     1.0000   1.0000   1.0000   1.0000   1.0000   1.0000   1.0000   1.0000
     1.0000   1.0000   1.0000   1.0000   1.0000   1.0000   1.0000   1.0000
     0.0000   0.0000   0.0000   0.0000   0.0000   0.0000   0.0000   0.0000
     0.0000   0.0000   0.0000   0.0000   0.0000

          k =-0.5000 0.0000 0.0000 ( 48016 PWs)   bands (ev):

   -80.7701 -80.7701 -80.7701 -80.7701 -69.4646 -69.4646 -69.4645 -69.4645
   -46.9857 -46.9857 -46.9857 -46.9857 -46.8407 -46.8407 -46.8407 -46.8407
   -46.8406 -46.8406 -46.8406 -46.8406 -38.5181 -38.5180 -38.5180 -38.5180
   -38.3428 -38.3428 -38.3428 -38.3428 -38.3428 -38.3428 -38.3428 -38.3428
   -30.3392 -30.3392 -30.3291 -30.3291 -15.9424 -15.9424 -15.8490 -15.8490
   -10.7350 -10.7350 -10.7264 -10.7264 -10.7177 -10.7177 -10.5307 -10.5307
   -10.4834 -10.4834 -10.4745 -10.4745  -7.0624  -7.0624  -6.9164  -6.9164
    -6.7557  -6.7557  -6.3887  -6.3887  -6.2956  -6.2956  -6.2479  -6.2479
    -6.2313  -6.2313  -6.2161  -6.2161  -6.0831  -6.0831  -6.0113  -6.0113
    -1.5170  -1.5170  -1.3432  -1.3432  -1.1377  -1.1377  -1.1187  -1.1187
    -1.0861  -1.0861  -0.8898  -0.8898   3.2203   3.2203   3.2747   3.2747
     3.3263   3.3263   3.3283   3.3283   3.3753   3.3753   3.4012   3.4012
     3.4082   3.4082   3.4118   3.4118   3.4756   3.4756   3.5014   3.5014
     4.7967   4.7967   5.1175   5.1175   5.6020   5.6020   5.7089   5.7089
     5.8957   5.8957   5.9732   5.9732   6.0540   6.0540   6.1341   6.1341
     6.3277   6.3277   6.4081   6.4081   6.5473   6.5473   6.6402   6.6402
     6.7600   6.7601   7.0260   7.0260   7.1839   7.1839   7.4019   7.4019
     7.4969   7.4969   7.8391   7.8391   8.2286   8.2286   8.2770   8.2770
     8.3226   8.3226   8.3973   8.3973   8.4288   8.4288   8.5917   8.5917
     8.7923   8.7923   8.8355   8.8355   8.8656   8.8656   8.8667   8.8667
     8.9009   8.9009   9.0287   9.0287   9.0882   9.0882   9.1722   9.1722
     9.3147   9.3147   9.3421   9.3421   9.8392   9.8392   9.9469   9.9469
    10.0227  10.0227  10.3273  10.3273  11.3698  11.3698  11.3707  11.3707
    13.7020  13.7020  14.2344  14.2344  14.4976  14.4976  14.9682  14.9682
    15.6072  15.6072  15.6379  15.7553  15.7563

     occupation numbers 
     1.0000   1.0000   1.0000   1.0000   1.0000   1.0000   1.0000   1.0000
     1.0000   1.0000   1.0000   1.0000   1.0000   1.0000   1.0000   1.0000
     1.0000   1.0000   1.0000   1.0000   1.0000   1.0000   1.0000   1.0000
     1.0000   1.0000   1.0000   1.0000   1.0000   1.0000   1.0000   1.0000
     1.0000   1.0000   1.0000   1.0000   1.0000   1.0000   1.0000   1.0000
     1.0000   1.0000   1.0000   1.0000   1.0000   1.0000   1.0000   1.0000
     1.0000   1.0000   1.0000   1.0000   1.0000   1.0000   1.0000   1.0000
     1.0000   1.0000   1.0000   1.0000   1.0000   1.0000   1.0000   1.0000
     1.0000   1.0000   1.0000   1.0000   1.0000   1.0000   1.0000   1.0000
     1.0000   1.0000   1.0000   1.0000   1.0000   1.0000   1.0000   1.0000
     1.0000   1.0000   1.0000   1.0000   1.0000   1.0000   1.0000   1.0000
     1.0000   1.0000   1.0000   1.0000   1.0000   1.0000   1.0000   1.0000
     1.0000   1.0000   1.0000   1.0000   1.0000   1.0000   1.0000   1.0000
     1.0000   1.0000   1.0000   1.0000   1.0000   1.0000   1.0000   1.0000
     1.0000   1.0000   1.0000   1.0000   1.0000   1.0000   1.0000   1.0000
     1.0000   1.0000   1.0000   1.0000   1.0000   1.0000   1.0000   1.0000
     1.0000   1.0000   1.0000   1.0000   1.0000   1.0000   1.0000   1.0000
     1.0000   1.0000   1.0000   1.0000   1.0000   1.0000   1.0000   1.0000
     1.0000   1.0000   1.0000   1.0000   1.0000   1.0000   1.0000   1.0000
     1.0000   1.0000   1.0000   1.0000   1.0000   1.0000   1.0000   1.0000
     1.0000   1.0000   1.0000   1.0000   1.0000   1.0000   1.0000   1.0000
     1.0000   1.0000   1.0000   1.0000   1.0000   1.0000   1.0000   1.0000
     1.0000   1.0000   1.0000   1.0000   1.0000   1.0000   1.0000   1.0000
     0.0000   0.0000   0.0000   0.0000   0.0000   0.0000   0.0000   0.0000
     0.0000   0.0000   0.0000   0.0000   0.0000

          k =-0.5000 0.0000 0.4912 ( 48052 PWs)   bands (ev):

   -80.7701 -80.7701 -80.7701 -80.7701 -69.4646 -69.4645 -69.4645 -69.4645
   -46.9857 -46.9857 -46.9857 -46.9857 -46.8407 -46.8407 -46.8407 -46.8407
   -46.8406 -46.8406 -46.8406 -46.8406 -38.5181 -38.5181 -38.5180 -38.5180
   -38.3428 -38.3428 -38.3428 -38.3428 -38.3428 -38.3428 -38.3428 -38.3428
   -30.3391 -30.3391 -30.3292 -30.3292 -15.9429 -15.9429 -15.8498 -15.8498
   -10.7320 -10.7320 -10.7257 -10.7257 -10.7146 -10.7146 -10.5274 -10.5274
   -10.4836 -10.4836 -10.4744 -10.4744  -7.0560  -7.0560  -6.9132  -6.9132
    -6.8503  -6.8503  -6.3201  -6.3201  -6.2912  -6.2911  -6.2627  -6.2627
    -6.2481  -6.2481  -6.2008  -6.2007  -6.0824  -6.0824  -5.9944  -5.9944
    -1.5149  -1.5149  -1.3388  -1.3388  -1.1437  -1.1437  -1.1349  -1.1349
    -1.0841  -1.0841  -0.8876  -0.8876   3.1677   3.1677   3.2808   3.2808
     3.3166   3.3166   3.3540   3.3540   3.3675   3.3675   3.4037   3.4037
     3.4168   3.4168   3.4226   3.4226   3.4630   3.4630   3.4778   3.4778
     4.6755   4.6755   5.0722   5.0722   5.7388   5.7388   5.8615   5.8615
     5.9071   5.9071   5.9550   5.9550   6.0476   6.0476   6.1860   6.1860
     6.3406   6.3406   6.4949   6.4949   6.6327   6.6327   6.6479   6.6479
     6.7371   6.7371   7.1026   7.1026   7.1613   7.1613   7.2187   7.2187
     7.4463   7.4463   7.8419   7.8419   8.1111   8.1111   8.2033   8.2033
     8.3322   8.3322   8.5307   8.5307   8.6263   8.6263   8.7017   8.7017
     8.7303   8.7303   8.7998   8.7998   8.8465   8.8465   8.9843   8.9843
     9.0400   9.0400   9.0664   9.0664   9.1728   9.1728   9.1844   9.1844
     9.2757   9.2757   9.3505   9.3505   9.5586   9.5586   9.7196   9.7196
     9.9978   9.9978  10.1138  10.1138  11.3466  11.3466  11.3872  11.3872
    13.9172  13.9172  14.3589  14.3589  14.8260  14.8260  15.3082  15.3083
    15.4295  15.4296  15.5667  15.5681  15.7351

     occupation numbers 
     1.0000   1.0000   1.0000   1.0000   1.0000   1.0000   1.0000   1.0000
     1.0000   1.0000   1.0000   1.0000   1.0000   1.0000   1.0000   1.0000
     1.0000   1.0000   1.0000   1.0000   1.0000   1.0000   1.0000   1.0000
     1.0000   1.0000   1.0000   1.0000   1.0000   1.0000   1.0000   1.0000
     1.0000   1.0000   1.0000   1.0000   1.0000   1.0000   1.0000   1.0000
     1.0000   1.0000   1.0000   1.0000   1.0000   1.0000   1.0000   1.0000
     1.0000   1.0000   1.0000   1.0000   1.0000   1.0000   1.0000   1.0000
     1.0000   1.0000   1.0000   1.0000   1.0000   1.0000   1.0000   1.0000
     1.0000   1.0000   1.0000   1.0000   1.0000   1.0000   1.0000   1.0000
     1.0000   1.0000   1.0000   1.0000   1.0000   1.0000   1.0000   1.0000
     1.0000   1.0000   1.0000   1.0000   1.0000   1.0000   1.0000   1.0000
     1.0000   1.0000   1.0000   1.0000   1.0000   1.0000   1.0000   1.0000
     1.0000   1.0000   1.0000   1.0000   1.0000   1.0000   1.0000   1.0000
     1.0000   1.0000   1.0000   1.0000   1.0000   1.0000   1.0000   1.0000
     1.0000   1.0000   1.0000   1.0000   1.0000   1.0000   1.0000   1.0000
     1.0000   1.0000   1.0000   1.0000   1.0000   1.0000   1.0000   1.0000
     1.0000   1.0000   1.0000   1.0000   1.0000   1.0000   1.0000   1.0000
     1.0000   1.0000   1.0000   1.0000   1.0000   1.0000   1.0000   1.0000
     1.0000   1.0000   1.0000   1.0000   1.0000   1.0000   1.0000   1.0000
     1.0000   1.0000   1.0000   1.0000   1.0000   1.0000   1.0000   1.0000
     1.0000   1.0000   1.0000   1.0000   1.0000   1.0000   1.0000   1.0000
     1.0000   1.0000   1.0000   1.0000   1.0000   1.0000   1.0000   1.0000
     1.0000   1.0000   1.0000   1.0000   1.0000   1.0000   1.0000   1.0000
     0.0000   0.0000   0.0000   0.0000   0.0000   0.0000   0.0000   0.0000
     0.0000   0.0000   0.0000   0.0000   0.0000

          k =-0.5000 0.5000 0.0000 ( 47946 PWs)   bands (ev):

   -80.7701 -80.7701 -80.7701 -80.7701 -69.4646 -69.4646 -69.4645 -69.4645
   -46.9857 -46.9857 -46.9857 -46.9857 -46.8407 -46.8407 -46.8407 -46.8407
   -46.8406 -46.8406 -46.8406 -46.8406 -38.5181 -38.5180 -38.5180 -38.5180
   -38.3428 -38.3428 -38.3428 -38.3428 -38.3428 -38.3428 -38.3428 -38.3428
   -30.3378 -30.3378 -30.3307 -30.3307 -15.9268 -15.9268 -15.8607 -15.8607
   -10.7855 -10.7855 -10.6954 -10.6954 -10.6232 -10.6232 -10.5989 -10.5989
   -10.5523 -10.5523 -10.4156 -10.4156  -7.0268  -7.0268  -6.9721  -6.9721
    -6.7389  -6.7389  -6.4448  -6.4448  -6.4078  -6.4078  -6.2694  -6.2694
    -6.2092  -6.2091  -6.1169  -6.1169  -6.0856  -6.0856  -6.0594  -6.0594
    -1.3082  -1.3082  -1.2447  -1.2447  -1.1321  -1.1321  -1.1168  -1.1168
    -1.0007  -1.0007  -0.9090  -0.9090   3.2198   3.2199   3.2798   3.2798
     3.2904   3.2904   3.3465   3.3465   3.3733   3.3733   3.3794   3.3794
     3.4118   3.4118   3.4123   3.4123   3.4391   3.4391   3.4924   3.4924
     4.9330   4.9330   5.1003   5.1003   5.6740   5.6740   5.7963   5.7963
     5.8397   5.8397   6.0107   6.0107   6.1154   6.1154   6.1566   6.1566
     6.1895   6.1895   6.3592   6.3592   6.5256   6.5256   6.5727   6.5727
     6.9953   6.9953   7.1312   7.1312   7.2168   7.2168   7.3070   7.3070
     7.6881   7.6881   7.8148   7.8148   8.0876   8.0876   8.1323   8.1323
     8.2326   8.2326   8.2611   8.2611   8.4065   8.4065   8.4068   8.4068
     8.6015   8.6015   8.6274   8.6274   8.7130   8.7130   8.8777   8.8777
     8.9111   8.9111   8.9925   8.9926   9.0452   9.0452   9.1528   9.1528
     9.3019   9.3019   9.4434   9.4434   9.6493   9.6493   9.7686   9.7686
    10.1142  10.1142  10.4088  10.4089  10.9824  10.9824  10.9931  10.9931
    14.2190  14.2190  14.7163  14.7163  14.7549  14.7549  15.2095  15.2095
    15.5436  15.5436  15.6675  15.6677  15.7739

     occupation numbers 
     1.0000   1.0000   1.0000   1.0000   1.0000   1.0000   1.0000   1.0000
     1.0000   1.0000   1.0000   1.0000   1.0000   1.0000   1.0000   1.0000
     1.0000   1.0000   1.0000   1.0000   1.0000   1.0000   1.0000   1.0000
     1.0000   1.0000   1.0000   1.0000   1.0000   1.0000   1.0000   1.0000
     1.0000   1.0000   1.0000   1.0000   1.0000   1.0000   1.0000   1.0000
     1.0000   1.0000   1.0000   1.0000   1.0000   1.0000   1.0000   1.0000
     1.0000   1.0000   1.0000   1.0000   1.0000   1.0000   1.0000   1.0000
     1.0000   1.0000   1.0000   1.0000   1.0000   1.0000   1.0000   1.0000
     1.0000   1.0000   1.0000   1.0000   1.0000   1.0000   1.0000   1.0000
     1.0000   1.0000   1.0000   1.0000   1.0000   1.0000   1.0000   1.0000
     1.0000   1.0000   1.0000   1.0000   1.0000   1.0000   1.0000   1.0000
     1.0000   1.0000   1.0000   1.0000   1.0000   1.0000   1.0000   1.0000
     1.0000   1.0000   1.0000   1.0000   1.0000   1.0000   1.0000   1.0000
     1.0000   1.0000   1.0000   1.0000   1.0000   1.0000   1.0000   1.0000
     1.0000   1.0000   1.0000   1.0000   1.0000   1.0000   1.0000   1.0000
     1.0000   1.0000   1.0000   1.0000   1.0000   1.0000   1.0000   1.0000
     1.0000   1.0000   1.0000   1.0000   1.0000   1.0000   1.0000   1.0000
     1.0000   1.0000   1.0000   1.0000   1.0000   1.0000   1.0000   1.0000
     1.0000   1.0000   1.0000   1.0000   1.0000   1.0000   1.0000   1.0000
     1.0000   1.0000   1.0000   1.0000   1.0000   1.0000   1.0000   1.0000
     1.0000   1.0000   1.0000   1.0000   1.0000   1.0000   1.0000   1.0000
     1.0000   1.0000   1.0000   1.0000   1.0000   1.0000   1.0000   1.0000
     1.0000   1.0000   1.0000   1.0000   1.0000   1.0000   1.0000   1.0000
     0.0000   0.0000   0.0000   0.0000   0.0000   0.0000   0.0000   0.0000
     0.0000   0.0000   0.0000   0.0000   0.0000

          k =-0.5000 0.5000 0.4912 ( 48044 PWs)   bands (ev):

   -80.7701 -80.7701 -80.7701 -80.7701 -69.4646 -69.4646 -69.4645 -69.4645
   -46.9857 -46.9857 -46.9857 -46.9857 -46.8407 -46.8407 -46.8407 -46.8407
   -46.8406 -46.8406 -46.8406 -46.8406 -38.5181 -38.5181 -38.5181 -38.5180
   -38.3428 -38.3428 -38.3428 -38.3428 -38.3428 -38.3428 -38.3428 -38.3428
   -30.3377 -30.3377 -30.3307 -30.3307 -15.9272 -15.9272 -15.8615 -15.8615
   -10.7851 -10.7851 -10.6898 -10.6898 -10.6231 -10.6231 -10.5988 -10.5988
   -10.5488 -10.5488 -10.4156 -10.4156  -7.0103  -7.0103  -6.9721  -6.9721
    -6.8440  -6.8440  -6.4004  -6.4004  -6.3909  -6.3909  -6.2834  -6.2834
    -6.2118  -6.2118  -6.1041  -6.1041  -6.0863  -6.0863  -6.0393  -6.0393
    -1.3066  -1.3066  -1.2392  -1.2392  -1.1385  -1.1385  -1.1295  -1.1295
    -0.9960  -0.9960  -0.9096  -0.9096   3.1869   3.1869   3.2664   3.2664
     3.2991   3.2991   3.3326   3.3326   3.3779   3.3779   3.3807   3.3807
     3.4026   3.4026   3.4233   3.4233   3.4398   3.4398   3.4811   3.4811
     4.8147   4.8147   5.0668   5.0668   5.8312   5.8312   5.8727   5.8727
     5.9141   5.9141   6.0000   6.0000   6.0794   6.0794   6.1120   6.1120
     6.3268   6.3268   6.3711   6.3711   6.5320   6.5320   6.6368   6.6368
     7.0168   7.0168   7.0559   7.0559   7.1588   7.1588   7.4553   7.4553
     7.5439   7.5439   7.6102   7.6102   7.9671   7.9671   8.2378   8.2378
     8.2675   8.2676   8.3439   8.3439   8.4425   8.4425   8.5760   8.5760
     8.6993   8.6993   8.7223   8.7223   8.7537   8.7537   8.7847   8.7847
     8.9170   8.9170   9.0100   9.0100   9.1607   9.1607   9.2434   9.2434
     9.3197   9.3197   9.4304   9.4304   9.5715   9.5715   9.7415   9.7415
     9.7929   9.7929  10.1528  10.1528  10.9319  10.9320  11.0243  11.0243
    14.3237  14.3238  14.7737  14.7737  14.9921  14.9921  15.5596  15.5596
    15.6572  15.6573  15.7162  15.7164  15.7665

     occupation numbers 
     1.0000   1.0000   1.0000   1.0000   1.0000   1.0000   1.0000   1.0000
     1.0000   1.0000   1.0000   1.0000   1.0000   1.0000   1.0000   1.0000
     1.0000   1.0000   1.0000   1.0000   1.0000   1.0000   1.0000   1.0000
     1.0000   1.0000   1.0000   1.0000   1.0000   1.0000   1.0000   1.0000
     1.0000   1.0000   1.0000   1.0000   1.0000   1.0000   1.0000   1.0000
     1.0000   1.0000   1.0000   1.0000   1.0000   1.0000   1.0000   1.0000
     1.0000   1.0000   1.0000   1.0000   1.0000   1.0000   1.0000   1.0000
     1.0000   1.0000   1.0000   1.0000   1.0000   1.0000   1.0000   1.0000
     1.0000   1.0000   1.0000   1.0000   1.0000   1.0000   1.0000   1.0000
     1.0000   1.0000   1.0000   1.0000   1.0000   1.0000   1.0000   1.0000
     1.0000   1.0000   1.0000   1.0000   1.0000   1.0000   1.0000   1.0000
     1.0000   1.0000   1.0000   1.0000   1.0000   1.0000   1.0000   1.0000
     1.0000   1.0000   1.0000   1.0000   1.0000   1.0000   1.0000   1.0000
     1.0000   1.0000   1.0000   1.0000   1.0000   1.0000   1.0000   1.0000
     1.0000   1.0000   1.0000   1.0000   1.0000   1.0000   1.0000   1.0000
     1.0000   1.0000   1.0000   1.0000   1.0000   1.0000   1.0000   1.0000
     1.0000   1.0000   1.0000   1.0000   1.0000   1.0000   1.0000   1.0000
     1.0000   1.0000   1.0000   1.0000   1.0000   1.0000   1.0000   1.0000
     1.0000   1.0000   1.0000   1.0000   1.0000   1.0000   1.0000   1.0000
     1.0000   1.0000   1.0000   1.0000   1.0000   1.0000   1.0000   1.0000
     1.0000   1.0000   1.0000   1.0000   1.0000   1.0000   1.0000   1.0000
     1.0000   1.0000   1.0000   1.0000   1.0000   1.0000   1.0000   1.0000
     1.0000   1.0000   1.0000   1.0000   1.0000   1.0000   1.0000   1.0000
     0.0000   0.0000   0.0000   0.0000   0.0000   0.0000   0.0000   0.0000
     0.0000   0.0000   0.0000   0.0000   0.0000

          k =-0.5000-1.0000 0.0000 ( 47968 PWs)   bands (ev):

   -80.7701 -80.7701 -80.7701 -80.7701 -69.4646 -69.4646 -69.4646 -69.4646
   -46.9857 -46.9857 -46.9857 -46.9857 -46.8407 -46.8407 -46.8407 -46.8407
   -46.8406 -46.8406 -46.8406 -46.8406 -38.5180 -38.5180 -38.5180 -38.5180
   -38.3428 -38.3428 -38.3428 -38.3428 -38.3428 -38.3428 -38.3428 -38.3428
   -30.3344 -30.3344 -30.3344 -30.3344 -15.8918 -15.8918 -15.8918 -15.8918
   -10.7465 -10.7465 -10.7462 -10.7462 -10.6214 -10.6214 -10.6202 -10.6202
   -10.4704 -10.4704 -10.4695 -10.4695  -7.0275  -7.0275  -7.0271  -7.0271
    -6.5532  -6.5532  -6.5274  -6.5274  -6.4681  -6.4681  -6.4350  -6.4350
    -6.1562  -6.1562  -6.1496  -6.1496  -6.0528  -6.0528  -6.0525  -6.0525
    -1.1410  -1.1410  -1.1342  -1.1342  -1.1191  -1.1191  -1.1111  -1.1111
    -0.9047  -0.9047  -0.9036  -0.9036   3.2242   3.2242   3.2545   3.2545
     3.2990   3.2990   3.3005   3.3005   3.3728   3.3728   3.3830   3.3830
     3.3844   3.3844   3.4172   3.4172   3.4602   3.4602   3.4702   3.4702
     5.0494   5.0494   5.0532   5.0532   5.6947   5.6947   5.7108   5.7108
     5.9442   5.9442   5.9791   5.9791   6.2092   6.2092   6.2497   6.2497
     6.2756   6.2756   6.2938   6.2938   6.5902   6.5902   6.6833   6.6833
     6.8480   6.8480   6.9169   6.9169   7.4252   7.4252   7.4615   7.4615
     7.6583   7.6583   7.7071   7.7071   7.9855   7.9855   8.0919   8.0919
     8.1611   8.1611   8.1894   8.1894   8.3009   8.3009   8.3460   8.3460
     8.3772   8.3772   8.5393   8.5393   8.6063   8.6063   8.6906   8.6906
     8.7650   8.7650   8.8106   8.8106   9.1509   9.1509   9.1543   9.1543
     9.3533   9.3533   9.3736   9.3736   9.8363   9.8363   9.9151   9.9151
    10.2043  10.2043  10.2407  10.2407  10.5554  10.5554  10.5788  10.5788
    15.0603  15.0603  15.0677  15.0677  15.3665  15.3666  15.3822  15.3822
    15.7239  15.7253  15.7348  15.7350  15.9058

     occupation numbers 
     1.0000   1.0000   1.0000   1.0000   1.0000   1.0000   1.0000   1.0000
     1.0000   1.0000   1.0000   1.0000   1.0000   1.0000   1.0000   1.0000
     1.0000   1.0000   1.0000   1.0000   1.0000   1.0000   1.0000   1.0000
     1.0000   1.0000   1.0000   1.0000   1.0000   1.0000   1.0000   1.0000
     1.0000   1.0000   1.0000   1.0000   1.0000   1.0000   1.0000   1.0000
     1.0000   1.0000   1.0000   1.0000   1.0000   1.0000   1.0000   1.0000
     1.0000   1.0000   1.0000   1.0000   1.0000   1.0000   1.0000   1.0000
     1.0000   1.0000   1.0000   1.0000   1.0000   1.0000   1.0000   1.0000
     1.0000   1.0000   1.0000   1.0000   1.0000   1.0000   1.0000   1.0000
     1.0000   1.0000   1.0000   1.0000   1.0000   1.0000   1.0000   1.0000
     1.0000   1.0000   1.0000   1.0000   1.0000   1.0000   1.0000   1.0000
     1.0000   1.0000   1.0000   1.0000   1.0000   1.0000   1.0000   1.0000
     1.0000   1.0000   1.0000   1.0000   1.0000   1.0000   1.0000   1.0000
     1.0000   1.0000   1.0000   1.0000   1.0000   1.0000   1.0000   1.0000
     1.0000   1.0000   1.0000   1.0000   1.0000   1.0000   1.0000   1.0000
     1.0000   1.0000   1.0000   1.0000   1.0000   1.0000   1.0000   1.0000
     1.0000   1.0000   1.0000   1.0000   1.0000   1.0000   1.0000   1.0000
     1.0000   1.0000   1.0000   1.0000   1.0000   1.0000   1.0000   1.0000
     1.0000   1.0000   1.0000   1.0000   1.0000   1.0000   1.0000   1.0000
     1.0000   1.0000   1.0000   1.0000   1.0000   1.0000   1.0000   1.0000
     1.0000   1.0000   1.0000   1.0000   1.0000   1.0000   1.0000   1.0000
     1.0000   1.0000   1.0000   1.0000   1.0000   1.0000   1.0000   1.0000
     1.0000   1.0000   1.0000   1.0000   1.0000   1.0000   1.0000   1.0000
     0.0000   0.0000   0.0000   0.0000   0.0000   0.0000   0.0000   0.0000
     0.0000   0.0000   0.0000   0.0000   0.0000

          k =-0.5000-1.0000 0.4912 ( 48012 PWs)   bands (ev):

   -80.7701 -80.7701 -80.7701 -80.7701 -69.4646 -69.4646 -69.4646 -69.4645
   -46.9857 -46.9857 -46.9857 -46.9857 -46.8407 -46.8407 -46.8407 -46.8407
   -46.8407 -46.8406 -46.8406 -46.8406 -38.5181 -38.5181 -38.5181 -38.5180
   -38.3428 -38.3428 -38.3428 -38.3428 -38.3428 -38.3428 -38.3428 -38.3428
   -30.3343 -30.3343 -30.3343 -30.3343 -15.8923 -15.8923 -15.8923 -15.8923
   -10.7462 -10.7462 -10.7458 -10.7458 -10.6170 -10.6170 -10.6159 -10.6159
   -10.4705 -10.4705 -10.4696 -10.4696  -7.0362  -7.0362  -7.0349  -7.0349
    -6.5896  -6.5896  -6.5718  -6.5718  -6.4404  -6.4404  -6.4139  -6.4139
    -6.1661  -6.1661  -6.1547  -6.1547  -6.0308  -6.0308  -6.0234  -6.0234
    -1.1457  -1.1457  -1.1345  -1.1345  -1.1248  -1.1248  -1.1120  -1.1120
    -0.9017  -0.9017  -0.9002  -0.9002   3.2245   3.2245   3.2396   3.2396
     3.2761   3.2761   3.2853   3.2853   3.3475   3.3475   3.3772   3.3772
     3.4088   3.4088   3.4234   3.4234   3.4632   3.4632   3.4719   3.4720
     4.9649   4.9649   4.9807   4.9807   5.7318   5.7318   5.7693   5.7693
     6.0145   6.0145   6.0367   6.0367   6.2169   6.2169   6.2422   6.2422
     6.3262   6.3262   6.3485   6.3485   6.6611   6.6611   6.7543   6.7543
     6.8426   6.8426   6.9600   6.9600   7.2887   7.2887   7.3710   7.3710
     7.5263   7.5263   7.5657   7.5657   7.9639   7.9639   8.0514   8.0514
     8.1517   8.1517   8.2916   8.2916   8.3420   8.3420   8.4501   8.4501
     8.5075   8.5075   8.6223   8.6224   8.7133   8.7133   8.7620   8.7620
     8.8558   8.8558   8.9242   8.9242   9.1279   9.1279   9.2525   9.2526
     9.2944   9.2944   9.4338   9.4338   9.7824   9.7824   9.8546   9.8546
     9.9768   9.9768   9.9958   9.9958  10.4946  10.4946  10.5087  10.5087
    14.9757  14.9757  15.0418  15.0418  15.4626  15.4626  15.5769  15.5771
    15.7896  15.7900  15.8425  15.8432  16.0227

     occupation numbers 
     1.0000   1.0000   1.0000   1.0000   1.0000   1.0000   1.0000   1.0000
     1.0000   1.0000   1.0000   1.0000   1.0000   1.0000   1.0000   1.0000
     1.0000   1.0000   1.0000   1.0000   1.0000   1.0000   1.0000   1.0000
     1.0000   1.0000   1.0000   1.0000   1.0000   1.0000   1.0000   1.0000
     1.0000   1.0000   1.0000   1.0000   1.0000   1.0000   1.0000   1.0000
     1.0000   1.0000   1.0000   1.0000   1.0000   1.0000   1.0000   1.0000
     1.0000   1.0000   1.0000   1.0000   1.0000   1.0000   1.0000   1.0000
     1.0000   1.0000   1.0000   1.0000   1.0000   1.0000   1.0000   1.0000
     1.0000   1.0000   1.0000   1.0000   1.0000   1.0000   1.0000   1.0000
     1.0000   1.0000   1.0000   1.0000   1.0000   1.0000   1.0000   1.0000
     1.0000   1.0000   1.0000   1.0000   1.0000   1.0000   1.0000   1.0000
     1.0000   1.0000   1.0000   1.0000   1.0000   1.0000   1.0000   1.0000
     1.0000   1.0000   1.0000   1.0000   1.0000   1.0000   1.0000   1.0000
     1.0000   1.0000   1.0000   1.0000   1.0000   1.0000   1.0000   1.0000
     1.0000   1.0000   1.0000   1.0000   1.0000   1.0000   1.0000   1.0000
     1.0000   1.0000   1.0000   1.0000   1.0000   1.0000   1.0000   1.0000
     1.0000   1.0000   1.0000   1.0000   1.0000   1.0000   1.0000   1.0000
     1.0000   1.0000   1.0000   1.0000   1.0000   1.0000   1.0000   1.0000
     1.0000   1.0000   1.0000   1.0000   1.0000   1.0000   1.0000   1.0000
     1.0000   1.0000   1.0000   1.0000   1.0000   1.0000   1.0000   1.0000
     1.0000   1.0000   1.0000   1.0000   1.0000   1.0000   1.0000   1.0000
     1.0000   1.0000   1.0000   1.0000   1.0000   1.0000   1.0000   1.0000
     1.0000   1.0000   1.0000   1.0000   1.0000   1.0000   1.0000   1.0000
     0.0000   0.0000   0.0000   0.0000   0.0000   0.0000   0.0000   0.0000
     0.0000   0.0000   0.0000   0.0000   0.0000

 ------ SPIN DOWN ----------


          k = 0.0000 0.0000 0.0000 ( 48047 PWs)   bands (ev):

   -76.1476 -76.1475 -76.1475 -76.1475 -64.8436 -64.8436 -64.8436 -64.8436
   -42.1681 -42.1681 -42.1681 -42.1681 -42.0001 -42.0001 -42.0001 -42.0001
   -42.0001 -42.0001 -42.0000 -42.0000 -33.6507 -33.6507 -33.6507 -33.6506
   -33.4279 -33.4279 -33.4278 -33.4278 -33.4278 -33.4278 -33.4278 -33.4278
   -30.3314 -30.3230 -30.3230 -30.3153 -15.9637 -15.8920 -15.8920 -15.8282
   -10.7294 -10.7294 -10.7257 -10.5990 -10.5990 -10.5843 -10.5843 -10.5673
   -10.5673 -10.4628 -10.4022 -10.4022  -6.8643  -6.5855  -6.5855  -6.3929
    -6.2302  -6.1513  -6.1513  -6.0641  -6.0167  -6.0167  -5.9690  -5.9690
    -5.8035  -5.8035  -5.7791  -5.7170  -5.7170  -5.6924  -5.6924  -5.6575
    -1.5396  -1.5396  -1.2681  -1.2681  -1.1049  -1.1046  -1.1023  -1.1023
    -0.9690  -0.9690  -0.8955  -0.8955   5.1123   5.5420   5.9676   5.9676
     6.1058   6.1236   6.1236   6.4600   6.5498   6.5498   6.6105   6.8668
     6.8668   6.9569   6.9569   6.9832   7.0306   7.0306   7.0900   7.0900
     7.2294   7.2646   7.2646   7.4070   7.4093   7.4093   7.4749   7.6897
     7.6897   7.8059   7.8059   7.8457   7.8457   7.8827   7.9882   7.9882
     8.1100   8.1100   8.5281   8.5961   8.5961   8.6700   8.6700   8.7105
     8.7105   8.9012   8.9012   8.9989   8.9989   9.0363   9.0363   9.1435
     9.1435   9.1598   9.4064   9.4064   9.4847   9.4847   9.5291   9.5833
    11.8453  12.3592  12.3592  12.4421  12.4421  12.5026  12.5026  12.5031
    12.5186  12.5250  12.5250  12.6033  12.6787  12.6787  12.6898  12.6898
    13.4611  13.4611  13.4615  13.5533  13.6803  13.9487  14.6525  14.6771
    14.9523  14.9523  15.1020  15.1020  15.1550  15.1550  15.3221  15.3515
    15.3515  15.4712  15.4712  15.5609  15.5609  15.7208  15.7427  15.7427
    15.8641  15.8641  15.8845  15.9432  16.0809  16.1796  16.1797  16.2821
    16.2821  16.3962  16.5705  16.6281  16.6281

     occupation numbers 
     1.0000   1.0000   1.0000   1.0000   1.0000   1.0000   1.0000   1.0000
     1.0000   1.0000   1.0000   1.0000   1.0000   1.0000   1.0000   1.0000
     1.0000   1.0000   1.0000   1.0000   1.0000   1.0000   1.0000   1.0000
     1.0000   1.0000   1.0000   1.0000   1.0000   1.0000   1.0000   1.0000
     1.0000   1.0000   1.0000   1.0000   1.0000   1.0000   1.0000   1.0000
     1.0000   1.0000   1.0000   1.0000   1.0000   1.0000   1.0000   1.0000
     1.0000   1.0000   1.0000   1.0000   1.0000   1.0000   1.0000   1.0000
     1.0000   1.0000   1.0000   1.0000   1.0000   1.0000   1.0000   1.0000
     1.0000   1.0000   1.0000   1.0000   1.0000   1.0000   1.0000   1.0000
     1.0000   1.0000   1.0000   1.0000   1.0000   1.0000   1.0000   1.0000
     1.0000   1.0000   1.0000   1.0000   1.0000   1.0000   1.0000   1.0000
     1.0000   1.0000   1.0000   1.0000   1.0000   1.0000   1.0000   1.0000
     1.0000   1.0000   1.0000   1.0000   1.0000   1.0000   1.0000   1.0000
     1.0000   1.0000   1.0000   1.0000   1.0000   1.0000   1.0000   1.0000
     1.0000   1.0000   1.0000   1.0000   1.0000   1.0000   1.0000   1.0000
     1.0000   1.0000   1.0000   1.0000   1.0000   1.0000   1.0000   1.0000
     1.0000   1.0000   1.0000   1.0000   1.0000   1.0000   1.0000   1.0000
     1.0000   1.0000   1.0000   1.0000   1.0000   1.0000   1.0000   1.0000
     0.0785   0.0000   0.0000   0.0000   0.0000   0.0000   0.0000   0.0000
     0.0000   0.0000   0.0000   0.0000   0.0000   0.0000   0.0000   0.0000
     0.0000   0.0000   0.0000   0.0000   0.0000   0.0000   0.0000   0.0000
     0.0000   0.0000   0.0000   0.0000   0.0000   0.0000   0.0000   0.0000
     0.0000   0.0000   0.0000   0.0000   0.0000   0.0000   0.0000   0.0000
     0.0000   0.0000   0.0000   0.0000   0.0000   0.0000   0.0000   0.0000
     0.0000   0.0000   0.0000   0.0000   0.0000

          k = 0.0000 0.0000 0.4912 ( 48026 PWs)   bands (ev):

   -76.1476 -76.1476 -76.1476 -76.1475 -64.8436 -64.8436 -64.8436 -64.8436
   -42.1681 -42.1681 -42.1681 -42.1681 -42.0001 -42.0001 -42.0001 -42.0001
   -42.0001 -42.0001 -42.0000 -42.0000 -33.6507 -33.6506 -33.6506 -33.6506
   -33.4279 -33.4279 -33.4278 -33.4278 -33.4278 -33.4278 -33.4278 -33.4278
   -30.3314 -30.3231 -30.3231 -30.3152 -15.9643 -15.8924 -15.8924 -15.8282
   -10.7292 -10.7292 -10.7189 -10.5959 -10.5959 -10.5839 -10.5839 -10.5665
   -10.5665 -10.4602 -10.4023 -10.4023  -6.8799  -6.5634  -6.5634  -6.4008
    -6.3524  -6.2642  -6.2642  -5.9885  -5.9885  -5.9339  -5.9339  -5.9123
    -5.8167  -5.8167  -5.7704  -5.7009  -5.7009  -5.6716  -5.6716  -5.6704
    -1.5394  -1.5394  -1.2648  -1.2648  -1.1302  -1.1148  -1.1056  -1.1056
    -0.9694  -0.9694  -0.8909  -0.8909   4.9572   5.7511   5.7615   5.7615
     6.3430   6.3483   6.3483   6.4928   6.6042   6.6042   6.8134   6.8355
     6.8355   6.9367   6.9844   6.9844   7.0703   7.0703   7.0999   7.1076
     7.1076   7.2725   7.2725   7.2917   7.4029   7.4029   7.4777   7.5613
     7.5613   7.6953   7.6953   7.7333   7.7333   7.9169   7.9169   7.9330
     8.1442   8.1442   8.2272   8.3842   8.3842   8.5820   8.5820   8.9115
     8.9115   9.0480   9.0480   9.0571   9.1181   9.1181   9.2047   9.2047
     9.2891   9.2891   9.4052   9.4052   9.4314   9.4314   9.4576   9.6235
    11.8395  12.3513  12.3513  12.4580  12.4580  12.4607  12.4607  12.4995
    12.5196  12.6022  12.6022  12.6430  12.6430  12.6944  12.6944  12.8138
    13.4616  13.4671  13.4671  13.5311  13.8946  14.1908  14.5361  14.7345
    14.7345  15.0525  15.1699  15.1699  15.2229  15.2229  15.3171  15.3417
    15.3417  15.4072  15.4072  15.6251  15.6252  15.6912  15.7749  15.7883
    15.7883  15.8701  15.8701  15.9001  16.1131  16.2415  16.2417  16.2591
    16.2591  16.4211  16.5014  16.5309  16.5312

     occupation numbers 
     1.0000   1.0000   1.0000   1.0000   1.0000   1.0000   1.0000   1.0000
     1.0000   1.0000   1.0000   1.0000   1.0000   1.0000   1.0000   1.0000
     1.0000   1.0000   1.0000   1.0000   1.0000   1.0000   1.0000   1.0000
     1.0000   1.0000   1.0000   1.0000   1.0000   1.0000   1.0000   1.0000
     1.0000   1.0000   1.0000   1.0000   1.0000   1.0000   1.0000   1.0000
     1.0000   1.0000   1.0000   1.0000   1.0000   1.0000   1.0000   1.0000
     1.0000   1.0000   1.0000   1.0000   1.0000   1.0000   1.0000   1.0000
     1.0000   1.0000   1.0000   1.0000   1.0000   1.0000   1.0000   1.0000
     1.0000   1.0000   1.0000   1.0000   1.0000   1.0000   1.0000   1.0000
     1.0000   1.0000   1.0000   1.0000   1.0000   1.0000   1.0000   1.0000
     1.0000   1.0000   1.0000   1.0000   1.0000   1.0000   1.0000   1.0000
     1.0000   1.0000   1.0000   1.0000   1.0000   1.0000   1.0000   1.0000
     1.0000   1.0000   1.0000   1.0000   1.0000   1.0000   1.0000   1.0000
     1.0000   1.0000   1.0000   1.0000   1.0000   1.0000   1.0000   1.0000
     1.0000   1.0000   1.0000   1.0000   1.0000   1.0000   1.0000   1.0000
     1.0000   1.0000   1.0000   1.0000   1.0000   1.0000   1.0000   1.0000
     1.0000   1.0000   1.0000   1.0000   1.0000   1.0000   1.0000   1.0000
     1.0000   1.0000   1.0000   1.0000   1.0000   1.0000   1.0000   1.0000
     0.0976   0.0000   0.0000   0.0000   0.0000   0.0000   0.0000   0.0000
     0.0000   0.0000   0.0000   0.0000   0.0000   0.0000   0.0000   0.0000
     0.0000   0.0000   0.0000   0.0000   0.0000   0.0000   0.0000   0.0000
     0.0000   0.0000   0.0000   0.0000   0.0000   0.0000   0.0000   0.0000
     0.0000   0.0000   0.0000   0.0000   0.0000   0.0000   0.0000   0.0000
     0.0000   0.0000   0.0000   0.0000   0.0000   0.0000   0.0000   0.0000
     0.0000   0.0000   0.0000   0.0000   0.0000

          k = 0.0000 0.5000 0.0000 ( 47992 PWs)   bands (ev):

   -76.1476 -76.1475 -76.1475 -76.1475 -64.8436 -64.8436 -64.8436 -64.8436
   -42.1681 -42.1681 -42.1681 -42.1681 -42.0001 -42.0001 -42.0001 -42.0001
   -42.0001 -42.0001 -42.0001 -42.0001 -33.6507 -33.6506 -33.6506 -33.6506
   -33.4279 -33.4279 -33.4279 -33.4279 -33.4278 -33.4278 -33.4278 -33.4278
   -30.3289 -30.3229 -30.3229 -30.3175 -15.9420 -15.8893 -15.8893 -15.8460
   -10.7073 -10.7070 -10.6951 -10.6882 -10.6784 -10.5895 -10.5886 -10.5021
   -10.4612 -10.4517 -10.4470 -10.4462  -6.7492  -6.6225  -6.6219  -6.4702
    -6.2628  -6.1801  -6.1795  -6.0854  -6.0835  -6.0603  -5.9876  -5.9197
    -5.8439  -5.7601  -5.7586  -5.7460  -5.7220  -5.7100  -5.7091  -5.6696
    -1.4626  -1.2893  -1.1037  -1.1037  -1.1024  -1.0963  -1.0884  -1.0791
    -1.0592  -0.8792  -0.8773  -0.8670   5.3808   5.7236   6.0642   6.0802
     6.1747   6.1932   6.3259   6.4195   6.5891   6.7175   6.7390   6.7471
     6.7687   6.7780   6.8964   6.9201   6.9757   7.0543   7.0692   7.1586
     7.2722   7.3223   7.3577   7.3706   7.4123   7.4223   7.5110   7.5186
     7.7114   7.7252   7.7417   7.8168   7.8255   7.8695   7.9147   7.9806
     8.1224   8.2796   8.2887   8.3159   8.3162   8.5195   8.5536   8.6102
     8.6313   8.6422   8.8150   8.8401   8.8587   8.8647   8.9048   8.9328
     8.9541   9.0195   9.1303   9.1509   9.1567   9.3191   9.4664   9.5123
    12.0483  12.3698  12.3811  12.4301  12.4485  12.4529  12.4824  12.5051
    12.5928  12.6041  12.6258  12.6375  12.6386  12.6827  12.7608  12.7733
    13.3105  13.3381  13.4433  13.5265  14.2446  14.3591  14.7947  15.0281
    15.0543  15.0611  15.1143  15.1628  15.2841  15.2869  15.3753  15.3920
    15.4421  15.4630  15.6245  15.6703  15.6725  15.7146  15.7391  15.8643
    15.8703  15.9028  15.9388  15.9855  16.1952  16.2312  16.3884  16.4155
    16.4265  16.4907  16.5239  16.6246  16.7181

     occupation numbers 
     1.0000   1.0000   1.0000   1.0000   1.0000   1.0000   1.0000   1.0000
     1.0000   1.0000   1.0000   1.0000   1.0000   1.0000   1.0000   1.0000
     1.0000   1.0000   1.0000   1.0000   1.0000   1.0000   1.0000   1.0000
     1.0000   1.0000   1.0000   1.0000   1.0000   1.0000   1.0000   1.0000
     1.0000   1.0000   1.0000   1.0000   1.0000   1.0000   1.0000   1.0000
     1.0000   1.0000   1.0000   1.0000   1.0000   1.0000   1.0000   1.0000
     1.0000   1.0000   1.0000   1.0000   1.0000   1.0000   1.0000   1.0000
     1.0000   1.0000   1.0000   1.0000   1.0000   1.0000   1.0000   1.0000
     1.0000   1.0000   1.0000   1.0000   1.0000   1.0000   1.0000   1.0000
     1.0000   1.0000   1.0000   1.0000   1.0000   1.0000   1.0000   1.0000
     1.0000   1.0000   1.0000   1.0000   1.0000   1.0000   1.0000   1.0000
     1.0000   1.0000   1.0000   1.0000   1.0000   1.0000   1.0000   1.0000
     1.0000   1.0000   1.0000   1.0000   1.0000   1.0000   1.0000   1.0000
     1.0000   1.0000   1.0000   1.0000   1.0000   1.0000   1.0000   1.0000
     1.0000   1.0000   1.0000   1.0000   1.0000   1.0000   1.0000   1.0000
     1.0000   1.0000   1.0000   1.0000   1.0000   1.0000   1.0000   1.0000
     1.0000   1.0000   1.0000   1.0000   1.0000   1.0000   1.0000   1.0000
     1.0000   1.0000   1.0000   1.0000   1.0000   1.0000   1.0000   1.0000
     0.0000   0.0000   0.0000   0.0000   0.0000   0.0000   0.0000   0.0000
     0.0000   0.0000   0.0000   0.0000   0.0000   0.0000   0.0000   0.0000
     0.0000   0.0000   0.0000   0.0000   0.0000   0.0000   0.0000   0.0000
     0.0000   0.0000   0.0000   0.0000   0.0000   0.0000   0.0000   0.0000
     0.0000   0.0000   0.0000   0.0000   0.0000   0.0000   0.0000   0.0000
     0.0000   0.0000   0.0000   0.0000   0.0000   0.0000   0.0000   0.0000
     0.0000   0.0000   0.0000   0.0000   0.0000

          k = 0.0000 0.5000 0.4912 ( 48032 PWs)   bands (ev):

   -76.1476 -76.1475 -76.1475 -76.1475 -64.8436 -64.8436 -64.8436 -64.8436
   -42.1681 -42.1681 -42.1681 -42.1681 -42.0001 -42.0001 -42.0001 -42.0001
   -42.0001 -42.0001 -42.0001 -42.0000 -33.6507 -33.6506 -33.6506 -33.6506
   -33.4279 -33.4279 -33.4279 -33.4279 -33.4278 -33.4278 -33.4278 -33.4278
   -30.3290 -30.3230 -30.3230 -30.3174 -15.9425 -15.8897 -15.8897 -15.8461
   -10.7070 -10.7067 -10.6932 -10.6872 -10.6750 -10.5852 -10.5842 -10.4992
   -10.4613 -10.4516 -10.4471 -10.4463  -6.7352  -6.6293  -6.6289  -6.4754
    -6.4104  -6.2569  -6.2537  -6.0126  -6.0096  -5.9692  -5.9430  -5.9307
    -5.8594  -5.7709  -5.7572  -5.7466  -5.7062  -5.7001  -5.6908  -5.6645
    -1.4608  -1.2864  -1.1189  -1.1116  -1.1089  -1.1021  -1.0879  -1.0780
    -1.0570  -0.8770  -0.8748  -0.8655   5.2096   5.8520   5.8642   5.9503
     6.2896   6.4377   6.4704   6.5457   6.6304   6.7966   6.8019   6.8224
     6.8416   6.8842   6.8963   6.9784   7.0006   7.0178   7.1011   7.1740
     7.2290   7.2881   7.3069   7.3208   7.4036   7.4178   7.4932   7.5888
     7.5965   7.6066   7.7017   7.7058   7.7852   7.7918   7.8161   7.8670
     7.9772   8.0411   8.0757   8.1463   8.2150   8.3229   8.4811   8.6265
     8.7179   8.7465   8.8556   8.8708   8.9698   8.9944   9.0344   9.0461
     9.0893   9.2149   9.2380   9.2635   9.3179   9.3782   9.4457   9.4636
    12.0380  12.4076  12.4162  12.4257  12.4313  12.5084  12.5309  12.5661
    12.5803  12.6028  12.6099  12.6312  12.6328  12.7661  12.7736  12.7804
    13.2841  13.3004  13.4478  13.5262  14.3779  14.4027  14.7057  14.8336
    14.8986  15.1350  15.2018  15.2333  15.3567  15.4085  15.4134  15.4261
    15.4490  15.4912  15.6035  15.6719  15.7176  15.7553  15.7636  15.8537
    15.8699  15.9750  16.0729  16.1279  16.1868  16.2441  16.3292  16.3535
    16.4137  16.4285  16.4578  16.5232  16.5462

     occupation numbers 
     1.0000   1.0000   1.0000   1.0000   1.0000   1.0000   1.0000   1.0000
     1.0000   1.0000   1.0000   1.0000   1.0000   1.0000   1.0000   1.0000
     1.0000   1.0000   1.0000   1.0000   1.0000   1.0000   1.0000   1.0000
     1.0000   1.0000   1.0000   1.0000   1.0000   1.0000   1.0000   1.0000
     1.0000   1.0000   1.0000   1.0000   1.0000   1.0000   1.0000   1.0000
     1.0000   1.0000   1.0000   1.0000   1.0000   1.0000   1.0000   1.0000
     1.0000   1.0000   1.0000   1.0000   1.0000   1.0000   1.0000   1.0000
     1.0000   1.0000   1.0000   1.0000   1.0000   1.0000   1.0000   1.0000
     1.0000   1.0000   1.0000   1.0000   1.0000   1.0000   1.0000   1.0000
     1.0000   1.0000   1.0000   1.0000   1.0000   1.0000   1.0000   1.0000
     1.0000   1.0000   1.0000   1.0000   1.0000   1.0000   1.0000   1.0000
     1.0000   1.0000   1.0000   1.0000   1.0000   1.0000   1.0000   1.0000
     1.0000   1.0000   1.0000   1.0000   1.0000   1.0000   1.0000   1.0000
     1.0000   1.0000   1.0000   1.0000   1.0000   1.0000   1.0000   1.0000
     1.0000   1.0000   1.0000   1.0000   1.0000   1.0000   1.0000   1.0000
     1.0000   1.0000   1.0000   1.0000   1.0000   1.0000   1.0000   1.0000
     1.0000   1.0000   1.0000   1.0000   1.0000   1.0000   1.0000   1.0000
     1.0000   1.0000   1.0000   1.0000   1.0000   1.0000   1.0000   1.0000
     0.0000   0.0000   0.0000   0.0000   0.0000   0.0000   0.0000   0.0000
     0.0000   0.0000   0.0000   0.0000   0.0000   0.0000   0.0000   0.0000
     0.0000   0.0000   0.0000   0.0000   0.0000   0.0000   0.0000   0.0000
     0.0000   0.0000   0.0000   0.0000   0.0000   0.0000   0.0000   0.0000
     0.0000   0.0000   0.0000   0.0000   0.0000   0.0000   0.0000   0.0000
     0.0000   0.0000   0.0000   0.0000   0.0000   0.0000   0.0000   0.0000
     0.0000   0.0000   0.0000   0.0000   0.0000

          k = 0.0000-1.0000 0.0000 ( 48100 PWs)   bands (ev):

   -76.1475 -76.1475 -76.1475 -76.1475 -64.8436 -64.8436 -64.8436 -64.8436
   -42.1681 -42.1681 -42.1681 -42.1681 -42.0001 -42.0001 -42.0001 -42.0001
   -42.0001 -42.0001 -42.0000 -42.0000 -33.6507 -33.6507 -33.6506 -33.6506
   -33.4280 -33.4280 -33.4279 -33.4279 -33.4278 -33.4278 -33.4278 -33.4278
   -30.3230 -30.3230 -30.3227 -30.3227 -15.8920 -15.8920 -15.8865 -15.8865
   -10.7587 -10.7587 -10.5990 -10.5990 -10.5854 -10.5854 -10.5843 -10.5843
   -10.5673 -10.5673 -10.3909 -10.3909  -6.6643  -6.6643  -6.5855  -6.5855
    -6.1887  -6.1887  -6.1513  -6.1513  -6.1425  -6.1425  -6.0167  -6.0167
    -5.8035  -5.8035  -5.7388  -5.7388  -5.7170  -5.7170  -5.7007  -5.7007
    -1.2681  -1.2681  -1.1023  -1.1023  -1.0868  -1.0868  -0.9528  -0.9528
    -0.8955  -0.8955  -0.8111  -0.8111   5.9676   5.9676   6.1189   6.1189
     6.1236   6.1236   6.2836   6.2836   6.5520   6.5520   6.8668   6.8668
     6.9317   6.9317   6.9569   6.9569   7.0900   7.0900   7.1212   7.1212
     7.2646   7.2646   7.4093   7.4093   7.4729   7.4729   7.5564   7.5564
     7.6614   7.6614   7.6897   7.6897   7.7858   7.7858   7.8059   7.8059
     7.9048   7.9048   7.9882   7.9882   8.2829   8.2829   8.4001   8.4001
     8.5961   8.5961   8.7105   8.7105   8.7485   8.7485   8.7603   8.7603
     8.9012   8.9012   8.9672   8.9672   9.0363   9.0363   9.4847   9.4847
    12.3592  12.3592  12.4100  12.4100  12.4377  12.4377  12.5026  12.5026
    12.5250  12.5250  12.6898  12.6898  12.6917  12.6917  12.8219  12.8219
    13.2479  13.2479  13.4611  13.4611  14.9523  14.9523  15.1107  15.1107
    15.1550  15.1550  15.3280  15.3280  15.3302  15.3302  15.4712  15.4712
    15.5609  15.5609  15.7071  15.7071  15.7229  15.7229  15.7427  15.7427
    15.8641  15.8641  16.1069  16.1069  16.2822  16.2822  16.3218  16.3219
    16.3517  16.3517  16.5887  16.5887  16.6282

     occupation numbers 
     1.0000   1.0000   1.0000   1.0000   1.0000   1.0000   1.0000   1.0000
     1.0000   1.0000   1.0000   1.0000   1.0000   1.0000   1.0000   1.0000
     1.0000   1.0000   1.0000   1.0000   1.0000   1.0000   1.0000   1.0000
     1.0000   1.0000   1.0000   1.0000   1.0000   1.0000   1.0000   1.0000
     1.0000   1.0000   1.0000   1.0000   1.0000   1.0000   1.0000   1.0000
     1.0000   1.0000   1.0000   1.0000   1.0000   1.0000   1.0000   1.0000
     1.0000   1.0000   1.0000   1.0000   1.0000   1.0000   1.0000   1.0000
     1.0000   1.0000   1.0000   1.0000   1.0000   1.0000   1.0000   1.0000
     1.0000   1.0000   1.0000   1.0000   1.0000   1.0000   1.0000   1.0000
     1.0000   1.0000   1.0000   1.0000   1.0000   1.0000   1.0000   1.0000
     1.0000   1.0000   1.0000   1.0000   1.0000   1.0000   1.0000   1.0000
     1.0000   1.0000   1.0000   1.0000   1.0000   1.0000   1.0000   1.0000
     1.0000   1.0000   1.0000   1.0000   1.0000   1.0000   1.0000   1.0000
     1.0000   1.0000   1.0000   1.0000   1.0000   1.0000   1.0000   1.0000
     1.0000   1.0000   1.0000   1.0000   1.0000   1.0000   1.0000   1.0000
     1.0000   1.0000   1.0000   1.0000   1.0000   1.0000   1.0000   1.0000
     1.0000   1.0000   1.0000   1.0000   1.0000   1.0000   1.0000   1.0000
     1.0000   1.0000   1.0000   1.0000   1.0000   1.0000   1.0000   1.0000
     0.0000   0.0000   0.0000   0.0000   0.0000   0.0000   0.0000   0.0000
     0.0000   0.0000   0.0000   0.0000   0.0000   0.0000   0.0000   0.0000
     0.0000   0.0000   0.0000   0.0000   0.0000   0.0000   0.0000   0.0000
     0.0000   0.0000   0.0000   0.0000   0.0000   0.0000   0.0000   0.0000
     0.0000   0.0000   0.0000   0.0000   0.0000   0.0000   0.0000   0.0000
     0.0000   0.0000   0.0000   0.0000   0.0000   0.0000   0.0000   0.0000
     0.0000   0.0000   0.0000   0.0000   0.0000

          k = 0.0000-1.0000 0.4912 ( 48018 PWs)   bands (ev):

   -76.1476 -76.1476 -76.1475 -76.1475 -64.8436 -64.8436 -64.8436 -64.8436
   -42.1681 -42.1681 -42.1681 -42.1681 -42.0001 -42.0001 -42.0001 -42.0001
   -42.0001 -42.0001 -42.0000 -42.0000 -33.6506 -33.6506 -33.6506 -33.6506
   -33.4279 -33.4279 -33.4279 -33.4279 -33.4278 -33.4278 -33.4278 -33.4278
   -30.3231 -30.3231 -30.3228 -30.3228 -15.8924 -15.8924 -15.8871 -15.8871
   -10.7581 -10.7581 -10.5959 -10.5959 -10.5839 -10.5839 -10.5812 -10.5808
   -10.5665 -10.5665 -10.3909 -10.3909  -6.6947  -6.6947  -6.5634  -6.5634
    -6.2642  -6.2642  -6.2312  -6.2270  -6.0716  -6.0716  -5.9339  -5.9339
    -5.8167  -5.8167  -5.7775  -5.7775  -5.7009  -5.7009  -5.6662  -5.6578
    -1.2648  -1.2648  -1.1056  -1.1056  -1.1054  -1.0934  -0.9517  -0.9517
    -0.8909  -0.8909  -0.8116  -0.8116   5.7615   5.7615   5.9440   5.9440
     6.3483   6.3483   6.5330   6.5330   6.7447   6.8355   6.8355   6.8484
     6.8484   6.8763   7.0703   7.0703   7.1076   7.1076   7.1803   7.1824
     7.2725   7.2725   7.3559   7.4029   7.4029   7.4057   7.4930   7.4930
     7.5613   7.5613   7.6411   7.6750   7.6953   7.6953   7.7833   7.8167
     7.8463   7.8463   7.9169   7.9169   7.9969   8.0568   8.3842   8.3842
     8.4204   8.4204   8.5430   8.5469   8.7755   8.7755   8.9115   8.9115
     9.0480   9.0480   9.2513   9.2891   9.2891   9.3401   9.4314   9.4314
    12.3513  12.3513  12.4551  12.4607  12.4607  12.4712  12.5705  12.5705
    12.6022  12.6022  12.6119  12.6544  12.6944  12.6944  12.8289  12.8289
    13.1799  13.1799  13.4671  13.4671  14.7345  14.7345  15.1609  15.2229
    15.2229  15.2285  15.2530  15.2530  15.3076  15.3417  15.3417  15.6034
    15.6251  15.6252  15.7527  15.7527  15.7883  15.7883  15.8184  15.8701
    15.8702  15.9033  16.1223  16.1510  16.1510  16.2415  16.2416  16.2723
    16.2975  16.3567  16.5315  16.5745  16.5746

     occupation numbers 
     1.0000   1.0000   1.0000   1.0000   1.0000   1.0000   1.0000   1.0000
     1.0000   1.0000   1.0000   1.0000   1.0000   1.0000   1.0000   1.0000
     1.0000   1.0000   1.0000   1.0000   1.0000   1.0000   1.0000   1.0000
     1.0000   1.0000   1.0000   1.0000   1.0000   1.0000   1.0000   1.0000
     1.0000   1.0000   1.0000   1.0000   1.0000   1.0000   1.0000   1.0000
     1.0000   1.0000   1.0000   1.0000   1.0000   1.0000   1.0000   1.0000
     1.0000   1.0000   1.0000   1.0000   1.0000   1.0000   1.0000   1.0000
     1.0000   1.0000   1.0000   1.0000   1.0000   1.0000   1.0000   1.0000
     1.0000   1.0000   1.0000   1.0000   1.0000   1.0000   1.0000   1.0000
     1.0000   1.0000   1.0000   1.0000   1.0000   1.0000   1.0000   1.0000
     1.0000   1.0000   1.0000   1.0000   1.0000   1.0000   1.0000   1.0000
     1.0000   1.0000   1.0000   1.0000   1.0000   1.0000   1.0000   1.0000
     1.0000   1.0000   1.0000   1.0000   1.0000   1.0000   1.0000   1.0000
     1.0000   1.0000   1.0000   1.0000   1.0000   1.0000   1.0000   1.0000
     1.0000   1.0000   1.0000   1.0000   1.0000   1.0000   1.0000   1.0000
     1.0000   1.0000   1.0000   1.0000   1.0000   1.0000   1.0000   1.0000
     1.0000   1.0000   1.0000   1.0000   1.0000   1.0000   1.0000   1.0000
     1.0000   1.0000   1.0000   1.0000   1.0000   1.0000   1.0000   1.0000
     0.0000   0.0000   0.0000   0.0000   0.0000   0.0000   0.0000   0.0000
     0.0000   0.0000   0.0000   0.0000   0.0000   0.0000   0.0000   0.0000
     0.0000   0.0000   0.0000   0.0000   0.0000   0.0000   0.0000   0.0000
     0.0000   0.0000   0.0000   0.0000   0.0000   0.0000   0.0000   0.0000
     0.0000   0.0000   0.0000   0.0000   0.0000   0.0000   0.0000   0.0000
     0.0000   0.0000   0.0000   0.0000   0.0000   0.0000   0.0000   0.0000
     0.0000   0.0000   0.0000   0.0000   0.0000

          k =-0.5000 0.0000 0.0000 ( 48016 PWs)   bands (ev):

   -76.1476 -76.1476 -76.1475 -76.1475 -64.8436 -64.8436 -64.8436 -64.8436
   -42.1681 -42.1681 -42.1681 -42.1681 -42.0001 -42.0001 -42.0001 -42.0001
   -42.0001 -42.0001 -42.0001 -42.0001 -33.6507 -33.6507 -33.6506 -33.6506
   -33.4279 -33.4279 -33.4279 -33.4279 -33.4278 -33.4278 -33.4278 -33.4278
   -30.3289 -30.3289 -30.3175 -30.3175 -15.9420 -15.9420 -15.8460 -15.8460
   -10.6951 -10.6951 -10.6882 -10.6882 -10.6784 -10.6784 -10.5021 -10.5021
   -10.4612 -10.4612 -10.4517 -10.4517  -6.7492  -6.7492  -6.4702  -6.4702
    -6.2628  -6.2628  -6.0603  -6.0603  -5.9876  -5.9876  -5.9197  -5.9197
    -5.8439  -5.8439  -5.7586  -5.7586  -5.7091  -5.7091  -5.6696  -5.6696
    -1.4626  -1.4626  -1.2893  -1.2893  -1.1037  -1.1037  -1.1024  -1.1024
    -1.0592  -1.0592  -0.8671  -0.8670   5.3808   5.3808   5.7236   5.7236
     6.3259   6.3259   6.4195   6.4195   6.5891   6.5891   6.7175   6.7175
     6.7687   6.7687   6.7780   6.7780   6.9757   6.9757   7.0692   7.0692
     7.3223   7.3223   7.4123   7.4123   7.4223   7.4223   7.5110   7.5110
     7.7417   7.7417   7.8168   7.8168   7.9806   7.9807   8.2796   8.2796
     8.2887   8.2887   8.5195   8.5195   8.6102   8.6102   8.6422   8.6422
     8.8401   8.8401   8.8587   8.8587   8.9048   8.9048   9.0195   9.0195
     9.1509   9.1509   9.3191   9.3191   9.4664   9.4664   9.5123   9.5123
    12.0483  12.0483  12.4301  12.4301  12.4485  12.4485  12.5051  12.5051
    12.5928  12.5928  12.6041  12.6041  12.6375  12.6375  12.6827  12.6827
    13.4433  13.4433  13.5265  13.5265  14.2446  14.2446  14.3591  14.3591
    14.7947  14.7947  15.0610  15.0611  15.1143  15.1143  15.2869  15.2869
    15.3753  15.3753  15.4420  15.4420  15.6703  15.6703  15.7145  15.7146
    15.8703  15.8703  15.9855  15.9855  16.1951  16.1952  16.4155  16.4155
    16.4259  16.4263  16.6244  16.6245  16.7505

     occupation numbers 
     1.0000   1.0000   1.0000   1.0000   1.0000   1.0000   1.0000   1.0000
     1.0000   1.0000   1.0000   1.0000   1.0000   1.0000   1.0000   1.0000
     1.0000   1.0000   1.0000   1.0000   1.0000   1.0000   1.0000   1.0000
     1.0000   1.0000   1.0000   1.0000   1.0000   1.0000   1.0000   1.0000
     1.0000   1.0000   1.0000   1.0000   1.0000   1.0000   1.0000   1.0000
     1.0000   1.0000   1.0000   1.0000   1.0000   1.0000   1.0000   1.0000
     1.0000   1.0000   1.0000   1.0000   1.0000   1.0000   1.0000   1.0000
     1.0000   1.0000   1.0000   1.0000   1.0000   1.0000   1.0000   1.0000
     1.0000   1.0000   1.0000   1.0000   1.0000   1.0000   1.0000   1.0000
     1.0000   1.0000   1.0000   1.0000   1.0000   1.0000   1.0000   1.0000
     1.0000   1.0000   1.0000   1.0000   1.0000   1.0000   1.0000   1.0000
     1.0000   1.0000   1.0000   1.0000   1.0000   1.0000   1.0000   1.0000
     1.0000   1.0000   1.0000   1.0000   1.0000   1.0000   1.0000   1.0000
     1.0000   1.0000   1.0000   1.0000   1.0000   1.0000   1.0000   1.0000
     1.0000   1.0000   1.0000   1.0000   1.0000   1.0000   1.0000   1.0000
     1.0000   1.0000   1.0000   1.0000   1.0000   1.0000   1.0000   1.0000
     1.0000   1.0000   1.0000   1.0000   1.0000   1.0000   1.0000   1.0000
     1.0000   1.0000   1.0000   1.0000   1.0000   1.0000   1.0000   1.0000
     0.0000   0.0000   0.0000   0.0000   0.0000   0.0000   0.0000   0.0000
     0.0000   0.0000   0.0000   0.0000   0.0000   0.0000   0.0000   0.0000
     0.0000   0.0000   0.0000   0.0000   0.0000   0.0000   0.0000   0.0000
     0.0000   0.0000   0.0000   0.0000   0.0000   0.0000   0.0000   0.0000
     0.0000   0.0000   0.0000   0.0000   0.0000   0.0000   0.0000   0.0000
     0.0000   0.0000   0.0000   0.0000   0.0000   0.0000   0.0000   0.0000
     0.0000   0.0000   0.0000   0.0000   0.0000

          k =-0.5000 0.0000 0.4912 ( 48052 PWs)   bands (ev):

   -76.1476 -76.1476 -76.1475 -76.1475 -64.8436 -64.8436 -64.8436 -64.8436
   -42.1681 -42.1681 -42.1681 -42.1681 -42.0001 -42.0001 -42.0001 -42.0001
   -42.0001 -42.0001 -42.0001 -42.0000 -33.6507 -33.6507 -33.6506 -33.6506
   -33.4279 -33.4279 -33.4279 -33.4279 -33.4278 -33.4278 -33.4278 -33.4278
   -30.3290 -30.3290 -30.3174 -30.3174 -15.9425 -15.9425 -15.8461 -15.8461
   -10.6932 -10.6932 -10.6872 -10.6872 -10.6750 -10.6750 -10.4992 -10.4992
   -10.4613 -10.4613 -10.4516 -10.4516  -6.7352  -6.7352  -6.4754  -6.4754
    -6.4104  -6.4104  -5.9692  -5.9692  -5.9430  -5.9430  -5.9307  -5.9307
    -5.8594  -5.8594  -5.7466  -5.7466  -5.7001  -5.7001  -5.6645  -5.6645
    -1.4609  -1.4608  -1.2864  -1.2864  -1.1189  -1.1189  -1.1089  -1.1089
    -1.0570  -1.0570  -0.8655  -0.8655   5.2096   5.2096   5.9503   5.9503
     6.2896   6.2896   6.5457   6.5457   6.6304   6.6304   6.8019   6.8019
     6.8224   6.8224   6.8842   6.8842   6.9784   6.9784   7.0178   7.0178
     7.1740   7.1740   7.3069   7.3069   7.4178   7.4178   7.6066   7.6066
     7.7017   7.7017   7.7918   7.7918   7.8670   7.8670   7.9772   7.9772
     8.2150   8.2150   8.3229   8.3229   8.4811   8.4811   8.7465   8.7465
     8.9698   8.9698   8.9944   8.9944   9.0344   9.0344   9.2149   9.2149
     9.2380   9.2380   9.3782   9.3782   9.4457   9.4457   9.4636   9.4636
    12.0380  12.0380  12.4257  12.4257  12.4313  12.4313  12.5661  12.5661
    12.5803  12.5803  12.6028  12.6028  12.6328  12.6328  12.7736  12.7736
    13.4478  13.4478  13.5262  13.5262  14.3779  14.3779  14.4027  14.4027
    14.7057  14.7057  15.1350  15.1350  15.2018  15.2018  15.3567  15.3568
    15.4085  15.4085  15.4490  15.4490  15.6035  15.6036  15.7553  15.7553
    15.8699  15.8699  16.0729  16.0730  16.2442  16.2443  16.3535  16.3536
    16.4285  16.4286  16.4578  16.4583  16.5654

     occupation numbers 
     1.0000   1.0000   1.0000   1.0000   1.0000   1.0000   1.0000   1.0000
     1.0000   1.0000   1.0000   1.0000   1.0000   1.0000   1.0000   1.0000
     1.0000   1.0000   1.0000   1.0000   1.0000   1.0000   1.0000   1.0000
     1.0000   1.0000   1.0000   1.0000   1.0000   1.0000   1.0000   1.0000
     1.0000   1.0000   1.0000   1.0000   1.0000   1.0000   1.0000   1.0000
     1.0000   1.0000   1.0000   1.0000   1.0000   1.0000   1.0000   1.0000
     1.0000   1.0000   1.0000   1.0000   1.0000   1.0000   1.0000   1.0000
     1.0000   1.0000   1.0000   1.0000   1.0000   1.0000   1.0000   1.0000
     1.0000   1.0000   1.0000   1.0000   1.0000   1.0000   1.0000   1.0000
     1.0000   1.0000   1.0000   1.0000   1.0000   1.0000   1.0000   1.0000
     1.0000   1.0000   1.0000   1.0000   1.0000   1.0000   1.0000   1.0000
     1.0000   1.0000   1.0000   1.0000   1.0000   1.0000   1.0000   1.0000
     1.0000   1.0000   1.0000   1.0000   1.0000   1.0000   1.0000   1.0000
     1.0000   1.0000   1.0000   1.0000   1.0000   1.0000   1.0000   1.0000
     1.0000   1.0000   1.0000   1.0000   1.0000   1.0000   1.0000   1.0000
     1.0000   1.0000   1.0000   1.0000   1.0000   1.0000   1.0000   1.0000
     1.0000   1.0000   1.0000   1.0000   1.0000   1.0000   1.0000   1.0000
     1.0000   1.0000   1.0000   1.0000   1.0000   1.0000   1.0000   1.0000
     0.0000   0.0000   0.0000   0.0000   0.0000   0.0000   0.0000   0.0000
     0.0000   0.0000   0.0000   0.0000   0.0000   0.0000   0.0000   0.0000
     0.0000   0.0000   0.0000   0.0000   0.0000   0.0000   0.0000   0.0000
     0.0000   0.0000   0.0000   0.0000   0.0000   0.0000   0.0000   0.0000
     0.0000   0.0000   0.0000   0.0000   0.0000   0.0000   0.0000   0.0000
     0.0000   0.0000   0.0000   0.0000   0.0000   0.0000   0.0000   0.0000
     0.0000   0.0000   0.0000   0.0000   0.0000

          k =-0.5000 0.5000 0.0000 ( 47946 PWs)   bands (ev):

   -76.1475 -76.1475 -76.1475 -76.1475 -64.8436 -64.8436 -64.8436 -64.8436
   -42.1681 -42.1681 -42.1681 -42.1681 -42.0001 -42.0001 -42.0001 -42.0001
   -42.0001 -42.0001 -42.0001 -42.0001 -33.6507 -33.6507 -33.6506 -33.6506
   -33.4279 -33.4279 -33.4279 -33.4279 -33.4278 -33.4278 -33.4278 -33.4278
   -30.3271 -30.3271 -30.3190 -30.3190 -15.9257 -15.9257 -15.8577 -15.8577
   -10.7442 -10.7442 -10.6574 -10.6574 -10.5907 -10.5907 -10.5677 -10.5677
   -10.5245 -10.5245 -10.3965 -10.3965  -6.6891  -6.6891  -6.5373  -6.5373
    -6.2910  -6.2910  -6.0786  -6.0786  -6.0510  -6.0510  -5.9482  -5.9482
    -5.8396  -5.8396  -5.7425  -5.7425  -5.7137  -5.7137  -5.6821  -5.6821
    -1.2525  -1.2525  -1.2039  -1.2039  -1.0991  -1.0991  -1.0970  -1.0970
    -0.9660  -0.9660  -0.8918  -0.8918   5.6190   5.6190   5.8609   5.8609
     6.2949   6.2949   6.6012   6.6012   6.6321   6.6321   6.6398   6.6398
     6.8106   6.8106   6.8883   6.8883   6.9470   6.9470   7.0917   7.0917
     7.2255   7.2255   7.3729   7.3729   7.3924   7.3924   7.4206   7.4206
     7.6817   7.6817   7.7890   7.7890   7.9647   7.9647   8.1918   8.1918
     8.2178   8.2178   8.4722   8.4722   8.4838   8.4838   8.5787   8.5787
     8.5916   8.5916   8.7027   8.7027   8.7975   8.7975   8.8699   8.8699
     9.0215   9.0215   9.0906   9.0906   9.2022   9.2022   9.3560   9.3560
    12.2020  12.2020  12.4207  12.4207  12.4424  12.4424  12.5019  12.5019
    12.5874  12.5874  12.6725  12.6725  12.6769  12.6769  12.7439  12.7439
    13.3629  13.3629  13.4140  13.4140  14.6186  14.6186  14.7908  14.7908
    14.9001  14.9001  15.1402  15.1402  15.2695  15.2695  15.3223  15.3223
    15.4402  15.4402  15.5281  15.5281  15.7260  15.7260  15.8059  15.8059
    15.8455  15.8455  16.0893  16.0894  16.3117  16.3118  16.4895  16.4895
    16.5571  16.5576  16.8905  16.8956  16.9074

     occupation numbers 
     1.0000   1.0000   1.0000   1.0000   1.0000   1.0000   1.0000   1.0000
     1.0000   1.0000   1.0000   1.0000   1.0000   1.0000   1.0000   1.0000
     1.0000   1.0000   1.0000   1.0000   1.0000   1.0000   1.0000   1.0000
     1.0000   1.0000   1.0000   1.0000   1.0000   1.0000   1.0000   1.0000
     1.0000   1.0000   1.0000   1.0000   1.0000   1.0000   1.0000   1.0000
     1.0000   1.0000   1.0000   1.0000   1.0000   1.0000   1.0000   1.0000
     1.0000   1.0000   1.0000   1.0000   1.0000   1.0000   1.0000   1.0000
     1.0000   1.0000   1.0000   1.0000   1.0000   1.0000   1.0000   1.0000
     1.0000   1.0000   1.0000   1.0000   1.0000   1.0000   1.0000   1.0000
     1.0000   1.0000   1.0000   1.0000   1.0000   1.0000   1.0000   1.0000
     1.0000   1.0000   1.0000   1.0000   1.0000   1.0000   1.0000   1.0000
     1.0000   1.0000   1.0000   1.0000   1.0000   1.0000   1.0000   1.0000
     1.0000   1.0000   1.0000   1.0000   1.0000   1.0000   1.0000   1.0000
     1.0000   1.0000   1.0000   1.0000   1.0000   1.0000   1.0000   1.0000
     1.0000   1.0000   1.0000   1.0000   1.0000   1.0000   1.0000   1.0000
     1.0000   1.0000   1.0000   1.0000   1.0000   1.0000   1.0000   1.0000
     1.0000   1.0000   1.0000   1.0000   1.0000   1.0000   1.0000   1.0000
     1.0000   1.0000   1.0000   1.0000   1.0000   1.0000   1.0000   1.0000
     0.0000   0.0000   0.0000   0.0000   0.0000   0.0000   0.0000   0.0000
     0.0000   0.0000   0.0000   0.0000   0.0000   0.0000   0.0000   0.0000
     0.0000   0.0000   0.0000   0.0000   0.0000   0.0000   0.0000   0.0000
     0.0000   0.0000   0.0000   0.0000   0.0000   0.0000   0.0000   0.0000
     0.0000   0.0000   0.0000   0.0000   0.0000   0.0000   0.0000   0.0000
     0.0000   0.0000   0.0000   0.0000   0.0000   0.0000   0.0000   0.0000
     0.0000   0.0000   0.0000   0.0000   0.0000

          k =-0.5000 0.5000 0.4912 ( 48044 PWs)   bands (ev):

   -76.1476 -76.1476 -76.1475 -76.1475 -64.8436 -64.8436 -64.8436 -64.8436
   -42.1681 -42.1681 -42.1681 -42.1681 -42.0001 -42.0001 -42.0001 -42.0001
   -42.0001 -42.0001 -42.0001 -42.0001 -33.6507 -33.6507 -33.6506 -33.6506
   -33.4279 -33.4279 -33.4279 -33.4279 -33.4278 -33.4278 -33.4278 -33.4278
   -30.3272 -30.3272 -30.3190 -30.3190 -15.9262 -15.9262 -15.8578 -15.8578
   -10.7438 -10.7438 -10.6519 -10.6519 -10.5906 -10.5906 -10.5678 -10.5678
   -10.5212 -10.5212 -10.3965 -10.3965  -6.6576  -6.6576  -6.5522  -6.5522
    -6.4469  -6.4469  -6.0142  -6.0142  -5.9697  -5.9697  -5.9658  -5.9658
    -5.8425  -5.8425  -5.7337  -5.7337  -5.7221  -5.7221  -5.6728  -5.6728
    -1.2520  -1.2520  -1.1993  -1.1993  -1.1118  -1.1118  -1.1028  -1.1028
    -0.9623  -0.9623  -0.8923  -0.8923   5.4255   5.4255   6.0935   6.0935
     6.2345   6.2345   6.6445   6.6445   6.7588   6.7588   6.8056   6.8056
     6.8526   6.8526   6.9061   6.9061   6.9802   6.9802   7.0771   7.0771
     7.1282   7.1282   7.3534   7.3534   7.4046   7.4046   7.4554   7.4554
     7.6350   7.6350   7.7810   7.7810   7.8158   7.8158   7.9062   7.9062
     8.0518   8.0518   8.1467   8.1467   8.3844   8.3844   8.6435   8.6435
     8.7206   8.7206   8.7743   8.7743   8.9357   8.9357   9.0516   9.0516
     9.1249   9.1249   9.2576   9.2576   9.2862   9.2862   9.3101   9.3101
    12.2034  12.2034  12.4404  12.4404  12.4595  12.4595  12.4962  12.4962
    12.6315  12.6315  12.6804  12.6804  12.7162  12.7162  12.7552  12.7552
    13.3285  13.3285  13.4111  13.4111  14.5701  14.5701  14.7668  14.7668
    14.8818  14.8819  15.1650  15.1650  15.3910  15.3910  15.4099  15.4099
    15.5174  15.5174  15.6585  15.6585  15.7142  15.7142  15.7709  15.7709
    15.9265  15.9265  16.1112  16.1112  16.2802  16.2803  16.3710  16.3714
    16.5335  16.5335  16.6144  16.6155  16.7001

     occupation numbers 
     1.0000   1.0000   1.0000   1.0000   1.0000   1.0000   1.0000   1.0000
     1.0000   1.0000   1.0000   1.0000   1.0000   1.0000   1.0000   1.0000
     1.0000   1.0000   1.0000   1.0000   1.0000   1.0000   1.0000   1.0000
     1.0000   1.0000   1.0000   1.0000   1.0000   1.0000   1.0000   1.0000
     1.0000   1.0000   1.0000   1.0000   1.0000   1.0000   1.0000   1.0000
     1.0000   1.0000   1.0000   1.0000   1.0000   1.0000   1.0000   1.0000
     1.0000   1.0000   1.0000   1.0000   1.0000   1.0000   1.0000   1.0000
     1.0000   1.0000   1.0000   1.0000   1.0000   1.0000   1.0000   1.0000
     1.0000   1.0000   1.0000   1.0000   1.0000   1.0000   1.0000   1.0000
     1.0000   1.0000   1.0000   1.0000   1.0000   1.0000   1.0000   1.0000
     1.0000   1.0000   1.0000   1.0000   1.0000   1.0000   1.0000   1.0000
     1.0000   1.0000   1.0000   1.0000   1.0000   1.0000   1.0000   1.0000
     1.0000   1.0000   1.0000   1.0000   1.0000   1.0000   1.0000   1.0000
     1.0000   1.0000   1.0000   1.0000   1.0000   1.0000   1.0000   1.0000
     1.0000   1.0000   1.0000   1.0000   1.0000   1.0000   1.0000   1.0000
     1.0000   1.0000   1.0000   1.0000   1.0000   1.0000   1.0000   1.0000
     1.0000   1.0000   1.0000   1.0000   1.0000   1.0000   1.0000   1.0000
     1.0000   1.0000   1.0000   1.0000   1.0000   1.0000   1.0000   1.0000
     0.0000   0.0000   0.0000   0.0000   0.0000   0.0000   0.0000   0.0000
     0.0000   0.0000   0.0000   0.0000   0.0000   0.0000   0.0000   0.0000
     0.0000   0.0000   0.0000   0.0000   0.0000   0.0000   0.0000   0.0000
     0.0000   0.0000   0.0000   0.0000   0.0000   0.0000   0.0000   0.0000
     0.0000   0.0000   0.0000   0.0000   0.0000   0.0000   0.0000   0.0000
     0.0000   0.0000   0.0000   0.0000   0.0000   0.0000   0.0000   0.0000
     0.0000   0.0000   0.0000   0.0000   0.0000

          k =-0.5000-1.0000 0.0000 ( 47968 PWs)   bands (ev):

   -76.1475 -76.1475 -76.1475 -76.1475 -64.8436 -64.8436 -64.8436 -64.8436
   -42.1681 -42.1681 -42.1681 -42.1681 -42.0001 -42.0001 -42.0001 -42.0001
   -42.0001 -42.0001 -42.0001 -42.0001 -33.6507 -33.6506 -33.6506 -33.6506
   -33.4279 -33.4279 -33.4279 -33.4279 -33.4278 -33.4278 -33.4278 -33.4278
   -30.3229 -30.3229 -30.3229 -30.3229 -15.8893 -15.8893 -15.8893 -15.8893
   -10.7073 -10.7073 -10.7070 -10.7070 -10.5895 -10.5895 -10.5886 -10.5886
   -10.4470 -10.4470 -10.4462 -10.4462  -6.6225  -6.6225  -6.6219  -6.6219
    -6.1801  -6.1801  -6.1795  -6.1795  -6.0854  -6.0854  -6.0835  -6.0835
    -5.7601  -5.7601  -5.7461  -5.7460  -5.7220  -5.7220  -5.7100  -5.7100
    -1.1037  -1.1037  -1.0963  -1.0963  -1.0884  -1.0884  -1.0791  -1.0791
    -0.8793  -0.8792  -0.8773  -0.8773   6.0642   6.0642   6.0802   6.0802
     6.1747   6.1747   6.1932   6.1932   6.7390   6.7390   6.7471   6.7471
     6.8964   6.8964   6.9201   6.9201   7.0543   7.0543   7.1586   7.1586
     7.2722   7.2722   7.3577   7.3577   7.3706   7.3706   7.5186   7.5186
     7.7114   7.7114   7.7252   7.7252   7.8255   7.8255   7.8695   7.8695
     7.9147   7.9147   8.1224   8.1224   8.3159   8.3159   8.3162   8.3162
     8.5536   8.5536   8.6313   8.6313   8.8149   8.8150   8.8647   8.8647
     8.9328   8.9328   8.9541   8.9541   9.1303   9.1303   9.1567   9.1567
    12.3698  12.3698  12.3811  12.3811  12.4529  12.4529  12.4824  12.4824
    12.6258  12.6258  12.6386  12.6386  12.7608  12.7608  12.7733  12.7733
    13.3105  13.3105  13.3381  13.3381  15.0281  15.0281  15.0543  15.0543
    15.1628  15.1628  15.2841  15.2841  15.3920  15.3920  15.4630  15.4630
    15.6245  15.6245  15.6725  15.6725  15.7391  15.7391  15.8642  15.8642
    15.9028  15.9028  15.9387  15.9387  16.2312  16.2312  16.3883  16.3883
    16.4903  16.4903  16.5238  16.5239  16.7180

     occupation numbers 
     1.0000   1.0000   1.0000   1.0000   1.0000   1.0000   1.0000   1.0000
     1.0000   1.0000   1.0000   1.0000   1.0000   1.0000   1.0000   1.0000
     1.0000   1.0000   1.0000   1.0000   1.0000   1.0000   1.0000   1.0000
     1.0000   1.0000   1.0000   1.0000   1.0000   1.0000   1.0000   1.0000
     1.0000   1.0000   1.0000   1.0000   1.0000   1.0000   1.0000   1.0000
     1.0000   1.0000   1.0000   1.0000   1.0000   1.0000   1.0000   1.0000
     1.0000   1.0000   1.0000   1.0000   1.0000   1.0000   1.0000   1.0000
     1.0000   1.0000   1.0000   1.0000   1.0000   1.0000   1.0000   1.0000
     1.0000   1.0000   1.0000   1.0000   1.0000   1.0000   1.0000   1.0000
     1.0000   1.0000   1.0000   1.0000   1.0000   1.0000   1.0000   1.0000
     1.0000   1.0000   1.0000   1.0000   1.0000   1.0000   1.0000   1.0000
     1.0000   1.0000   1.0000   1.0000   1.0000   1.0000   1.0000   1.0000
     1.0000   1.0000   1.0000   1.0000   1.0000   1.0000   1.0000   1.0000
     1.0000   1.0000   1.0000   1.0000   1.0000   1.0000   1.0000   1.0000
     1.0000   1.0000   1.0000   1.0000   1.0000   1.0000   1.0000   1.0000
     1.0000   1.0000   1.0000   1.0000   1.0000   1.0000   1.0000   1.0000
     1.0000   1.0000   1.0000   1.0000   1.0000   1.0000   1.0000   1.0000
     1.0000   1.0000   1.0000   1.0000   1.0000   1.0000   1.0000   1.0000
     0.0000   0.0000   0.0000   0.0000   0.0000   0.0000   0.0000   0.0000
     0.0000   0.0000   0.0000   0.0000   0.0000   0.0000   0.0000   0.0000
     0.0000   0.0000   0.0000   0.0000   0.0000   0.0000   0.0000   0.0000
     0.0000   0.0000   0.0000   0.0000   0.0000   0.0000   0.0000   0.0000
     0.0000   0.0000   0.0000   0.0000   0.0000   0.0000   0.0000   0.0000
     0.0000   0.0000   0.0000   0.0000   0.0000   0.0000   0.0000   0.0000
     0.0000   0.0000   0.0000   0.0000   0.0000

          k =-0.5000-1.0000 0.4912 ( 48012 PWs)   bands (ev):

   -76.1475 -76.1475 -76.1475 -76.1475 -64.8436 -64.8436 -64.8436 -64.8436
   -42.1681 -42.1681 -42.1681 -42.1681 -42.0001 -42.0001 -42.0001 -42.0001
   -42.0001 -42.0001 -42.0001 -42.0001 -33.6506 -33.6506 -33.6506 -33.6506
   -33.4279 -33.4279 -33.4279 -33.4279 -33.4278 -33.4278 -33.4278 -33.4278
   -30.3230 -30.3230 -30.3230 -30.3230 -15.8897 -15.8897 -15.8897 -15.8897
   -10.7070 -10.7070 -10.7067 -10.7067 -10.5852 -10.5852 -10.5842 -10.5842
   -10.4471 -10.4471 -10.4463 -10.4463  -6.6293  -6.6293  -6.6289  -6.6289
    -6.2569  -6.2569  -6.2537  -6.2537  -6.0126  -6.0126  -6.0096  -6.0096
    -5.7709  -5.7709  -5.7572  -5.7572  -5.7062  -5.7062  -5.6908  -5.6908
    -1.1116  -1.1116  -1.1021  -1.1021  -1.0879  -1.0879  -1.0780  -1.0780
    -0.8770  -0.8770  -0.8748  -0.8748   5.8520   5.8520   5.8642   5.8642
     6.4377   6.4377   6.4704   6.4704   6.7966   6.7966   6.8416   6.8416
     6.8963   6.8963   7.0006   7.0006   7.1011   7.1011   7.2290   7.2290
     7.2881   7.2881   7.3208   7.3208   7.4036   7.4036   7.4932   7.4932
     7.5888   7.5888   7.5965   7.5965   7.7058   7.7058   7.7852   7.7852
     7.8161   7.8161   8.0411   8.0411   8.0757   8.0757   8.1463   8.1463
     8.6265   8.6265   8.7179   8.7179   8.8556   8.8556   8.8708   8.8708
     9.0461   9.0461   9.0893   9.0893   9.2635   9.2635   9.3179   9.3179
    12.4076  12.4076  12.4162  12.4162  12.5084  12.5084  12.5309  12.5309
    12.6099  12.6099  12.6312  12.6312  12.7661  12.7661  12.7804  12.7804
    13.2841  13.2841  13.3004  13.3004  14.8336  14.8336  14.8986  14.8986
    15.2333  15.2333  15.4134  15.4134  15.4261  15.4261  15.4912  15.4912
    15.6719  15.6719  15.7176  15.7176  15.7636  15.7636  15.8537  15.8537
    15.9750  15.9750  16.1279  16.1279  16.1868  16.1868  16.3292  16.3292
    16.4137  16.4137  16.5232  16.5234  16.5459

     occupation numbers 
     1.0000   1.0000   1.0000   1.0000   1.0000   1.0000   1.0000   1.0000
     1.0000   1.0000   1.0000   1.0000   1.0000   1.0000   1.0000   1.0000
     1.0000   1.0000   1.0000   1.0000   1.0000   1.0000   1.0000   1.0000
     1.0000   1.0000   1.0000   1.0000   1.0000   1.0000   1.0000   1.0000
     1.0000   1.0000   1.0000   1.0000   1.0000   1.0000   1.0000   1.0000
     1.0000   1.0000   1.0000   1.0000   1.0000   1.0000   1.0000   1.0000
     1.0000   1.0000   1.0000   1.0000   1.0000   1.0000   1.0000   1.0000
     1.0000   1.0000   1.0000   1.0000   1.0000   1.0000   1.0000   1.0000
     1.0000   1.0000   1.0000   1.0000   1.0000   1.0000   1.0000   1.0000
     1.0000   1.0000   1.0000   1.0000   1.0000   1.0000   1.0000   1.0000
     1.0000   1.0000   1.0000   1.0000   1.0000   1.0000   1.0000   1.0000
     1.0000   1.0000   1.0000   1.0000   1.0000   1.0000   1.0000   1.0000
     1.0000   1.0000   1.0000   1.0000   1.0000   1.0000   1.0000   1.0000
     1.0000   1.0000   1.0000   1.0000   1.0000   1.0000   1.0000   1.0000
     1.0000   1.0000   1.0000   1.0000   1.0000   1.0000   1.0000   1.0000
     1.0000   1.0000   1.0000   1.0000   1.0000   1.0000   1.0000   1.0000
     1.0000   1.0000   1.0000   1.0000   1.0000   1.0000   1.0000   1.0000
     1.0000   1.0000   1.0000   1.0000   1.0000   1.0000   1.0000   1.0000
     0.0000   0.0000   0.0000   0.0000   0.0000   0.0000   0.0000   0.0000
     0.0000   0.0000   0.0000   0.0000   0.0000   0.0000   0.0000   0.0000
     0.0000   0.0000   0.0000   0.0000   0.0000   0.0000   0.0000   0.0000
     0.0000   0.0000   0.0000   0.0000   0.0000   0.0000   0.0000   0.0000
     0.0000   0.0000   0.0000   0.0000   0.0000   0.0000   0.0000   0.0000
     0.0000   0.0000   0.0000   0.0000   0.0000   0.0000   0.0000   0.0000
     0.0000   0.0000   0.0000   0.0000   0.0000

     the Fermi energy is    11.7772 ev

!    total energy              =   -3088.73109041 Ry
     estimated scf accuracy    <       0.00000011 Ry
     smearing contrib. (-TS)   =      -0.00015611 Ry
     internal energy E=F+TS    =   -3088.73093430 Ry

     The total energy is F=E-TS. E is the sum of the following terms:
     one-electron contribution =   -1464.97271762 Ry
     hartree contribution      =     911.18716729 Ry
     xc contribution           =    -575.43902904 Ry
     ewald contribution        =   -1960.11463468 Ry
     Hubbard energy            =       0.60827977 Ry

     total magnetization       =    39.98 Bohr mag/cell
     absolute magnetization    =    40.06 Bohr mag/cell

     convergence has been achieved in  15 iterations

     Writing all to output data dir /tmp/scratch/single/single.save/ :
     XML data file, charge density, pseudopotentials, collected wavefunctions

     init_run     :     11.16s CPU     12.19s WALL (       1 calls)
     electrons    :    345.29s CPU    379.73s WALL (       1 calls)

     Called by init_run:
     wfcinit      :      9.18s CPU     10.03s WALL (       1 calls)
     wfcinit:atom :      0.07s CPU      0.06s WALL (       2 calls)
     wfcinit:wfcr :      6.66s CPU      7.38s WALL (       2 calls)
     potinit      :      0.75s CPU      0.85s WALL (       1 calls)
     hinit0       :      0.92s CPU      0.96s WALL (       1 calls)

     Called by electrons:
     c_bands      :    293.29s CPU    321.25s WALL (      15 calls)
     sum_band     :     37.43s CPU     42.83s WALL (      15 calls)
     v_of_rho     :      5.23s CPU      5.60s WALL (      16 calls)
     v_h          :      0.16s CPU      0.19s WALL (      16 calls)
     v_xc         :      5.07s CPU      5.41s WALL (      16 calls)
     mix_rho      :      5.99s CPU      6.63s WALL (      15 calls)

     Called by c_bands:
     init_us_2    :      3.22s CPU      3.37s WALL (      64 calls)
     cegterg      :    269.47s CPU    296.59s WALL (      30 calls)

     Called by sum_band:
     sum_band:wei :      0.01s CPU      0.02s WALL (      15 calls)
     sum_band:loo :     33.25s CPU     37.72s WALL (      15 calls)
     sum_band:buf :      0.42s CPU      0.44s WALL (      30 calls)
     sum_band:ini :      1.45s CPU      1.48s WALL (      30 calls)

     Called by *egterg:
     cdiaghg      :      6.95s CPU      7.20s WALL (     196 calls)
     cegterg:over :     24.20s CPU     25.08s WALL (     166 calls)
     cegterg:upda :     13.21s CPU     13.91s WALL (     166 calls)
     cegterg:last :     22.36s CPU     23.06s WALL (      59 calls)
     h_psi        :    197.41s CPU    222.27s WALL (     198 calls)
     g_psi        :      1.00s CPU      1.03s WALL (     166 calls)

     Called by h_psi:
     h_psi:calbec :     30.78s CPU     31.73s WALL (     198 calls)
     vloc_psi     :    129.88s CPU    152.51s WALL (     198 calls)
                                        0.00s GPU  (     198 calls)
     add_vuspsi   :     29.76s CPU     30.74s WALL (     198 calls)
     vhpsi        :      5.88s CPU      6.18s WALL (     198 calls)

     General routines
     calbec       :     35.57s CPU     36.68s WALL (     428 calls)
     fft          :      2.21s CPU      2.69s WALL (     302 calls)
     ffts         :      3.32s CPU      3.75s WALL (     510 calls)
     fftw         :    135.58s CPU    161.74s WALL (   35036 calls)

     Parallel routines

     Hubbard U routines
     new_ns       :      1.67s CPU      1.72s WALL (      15 calls)
     vhpsi        :      5.88s CPU      6.18s WALL (     198 calls)

     PWSCF        :   5m56.96s CPU   6m33.03s WALL


   This run was terminated on:   7:49:11   2Oct2026            

=------------------------------------------------------------------------------=
   JOB DONE.
=------------------------------------------------------------------------------=
