
     Program PWSCF v.7.5 starts on  3Oct2026 at 11:14:49 

     This program is part of the open-source Quantum ESPRESSO suite
     for quantum simulation of materials; please cite
         "P. Giannozzi et al., J. Phys.:Condens. Matter 21 395502 (2009);
         "P. Giannozzi et al., J. Phys.:Condens. Matter 29 465901 (2017);
         "P. Giannozzi et al., J. Chem. Phys. 152 154105 (2020);
          URL http://www.quantum-espresso.org", 
     in publications or presentations arising from this work. More details at
     http://www.quantum-espresso.org/quote

     Parallel version (MPI & OpenMP), running on      64 processor cores
     Number of MPI processes:                64
     Threads/MPI process:                     1

     MPI processes distributed on     1 nodes
     695121 MiB available memory on the printing compute node when the environment starts

     Reading input from hse_lcm.in

     Current dimensions of program PWSCF are:
     Max number of different atomic species (ntypx) = 10
     Max number of k-points (npk) =  40000
     Max angular momentum in pseudopotentials (lmaxx) =  4

     IMPORTANT: XC functional enforced from input :
     Exchange-correlation= HSE
                           (   1   4  12   4   0   0   0)
     EXX-fraction              =        0.25
     Any further DFT definition will be discarded
     Please, verify this is what you really want

     Message from routine setup :
     BEWARE: nonlinear core correction is not consistent with hybrid XC
     Message from routine setup:
     using ibrav=0 with symmetry is DISCOURAGED, use correct ibrav instead

     K-points division:     npool     =       8
     R & G space division:  proc/nbgrp/npool/nimage =       8
     Subspace diagonalization in iterative solution of the eigenvalue problem:
     a serial algorithm will be used

     EXX: q-point mesh:     2    2    2
     EXX: setup a grid of 40 q-points centered on each k-point
     (k+q)-points:
   0.0000000   0.0000000   0.0000000         1    1
  -0.3535534  -0.3535534   0.3535534         3    1
  -0.3535534   0.3535534  -0.3535534         3    4
  -0.7071068   0.0000000   0.0000000         7    1
   0.3535534  -0.3535534  -0.3535534         3    3
   0.0000000  -0.7071068   0.0000000         7    5
   0.0000000   0.0000000  -0.7071068         7    9
   0.3535534   0.3535534   0.3535534         3    2
   0.1767767   0.1767767  -0.1767767         2    1
  -0.1767767  -0.1767767   0.1767767         2   -1
  -0.1767767   0.5303301  -0.5303301         5    4
   0.1767767  -0.5303301   0.5303301         5   -4
   0.5303301  -0.1767767  -0.5303301         5   -8
  -0.5303301   0.1767767   0.5303301         5    8
  -0.5303301  -0.5303301  -0.1767767         5   11
   0.5303301   0.5303301   0.1767767         5  -11
   0.3535534   0.0000000   0.0000000         4    1
   0.0000000  -0.3535534   0.3535534         6    1
   0.0000000   0.3535534  -0.3535534         6   -1
  -0.3535534   0.0000000   0.0000000         4   -1
   0.0000000   0.3535534   0.3535534         6    2
   0.3535534  -0.7071068   0.0000000         8    5
  -0.3535534   0.7071068   0.0000000         8   -5
   0.0000000  -0.3535534  -0.3535534         6   -2
  -0.1767767  -0.5303301   0.5303301         5    1
   0.1767767  -0.1767767   0.1767767         2    4
   0.1767767   0.5303301  -0.5303301         5   -1
  -0.1767767   0.1767767  -0.1767767         2   -4
  -0.5303301  -0.1767767  -0.5303301         5    5
   0.5303301  -0.5303301  -0.1767767         5  -10
   0.5303301   0.1767767   0.5303301         5   -5
  -0.5303301   0.5303301   0.1767767         5   10
  -0.7071068   0.3535534   0.0000000         8    1
   0.3535534   0.0000000   0.3535534         6   -5
  -0.3535534   0.0000000   0.3535534         6   -6
   0.0000000   0.3535534   0.0000000         4    5
  -0.3535534   0.0000000  -0.3535534         6    5
   0.7071068  -0.3535534   0.0000000         8   -1
   0.0000000  -0.3535534   0.0000000         4   -5
   0.3535534   0.0000000  -0.3535534         6    6

     Parallelization info
     --------------------
     sticks:   dense  smooth     PW     G-vecs:    dense   smooth      PW
     Min         609     609    161                28071    28071    3892
     Max         610     610    165                28075    28075    3893
     Sum        4879    4879   1303               224595   224595   31139

     Using Slab Decomposition



     bravais-lattice index     =            0
     lattice parameter (alat)  =      14.0134  a.u.
     unit-cell volume          =    1945.8679 (a.u.)^3
     number of atoms/cell      =           14
     number of atomic types    =            4
     number of electrons       =        82.00
     number of Kohn-Sham states=           49
     kinetic-energy cutoff     =      90.0000  Ry
     charge density cutoff     =     360.0000  Ry
     cutoff for Fock operator  =     180.0000  Ry
     scf convergence threshold =      1.4E-07
     mixing beta               =       0.3000
     number of iterations used =            8  local-TF  mixing
     Exchange-correlation= HSE
                           (   1   4  12   4   0   0   0)
     EXX-fraction              =        0.25

     celldm(1)=  14.013376  celldm(2)=   0.000000  celldm(3)=   0.000000
     celldm(4)=   0.000000  celldm(5)=   0.000000  celldm(6)=   0.000000

     crystal axes: (cart. coord. in units of alat)
               a(1) = (   0.000000   0.707107   0.707107 )  
               a(2) = (   0.707107   0.000000   0.707107 )  
               a(3) = (   0.707107   0.707107   0.000000 )  

     reciprocal axes: (cart. coord. in units 2 pi/alat)
               b(1) = ( -0.707107  0.707107  0.707107 )  
               b(2) = (  0.707107 -0.707107  0.707107 )  
               b(3) = (  0.707107  0.707107 -0.707107 )  


     PseudoPot. # 1 for Cr read from file:
     /data/pseudo/dojo_sr/Cr.upf
     MD5 check sum: 41892f80c335c8b1e803fd21ab4016b0
     Pseudo is Norm-conserving + core correction, Zval = 14.0
     Generated using ONCVPSP code by D. R. Hamann
     Using radial grid of 1638 points,  6 beta functions with: 
                l(1) =   0
                l(2) =   0
                l(3) =   1
                l(4) =   1
                l(5) =   2
                l(6) =   2

     PseudoPot. # 2 for Cr read from file:
     /data/pseudo/dojo_sr/Cr.upf
     MD5 check sum: 41892f80c335c8b1e803fd21ab4016b0
     Pseudo is Norm-conserving + core correction, Zval = 14.0
     Generated using ONCVPSP code by D. R. Hamann
     Using radial grid of 1638 points,  6 beta functions with: 
                l(1) =   0
                l(2) =   0
                l(3) =   1
                l(4) =   1
                l(5) =   2
                l(6) =   2

     PseudoPot. # 3 for C  read from file:
     /data/pseudo/dojo_sr/C.upf
     MD5 check sum: 34a24e64c0a39f27c6c36b90a16ac686
     Pseudo is Norm-conserving + core correction, Zval =  4.0
     Generated using ONCVPSP code by D. R. Hamann
     Using radial grid of 1248 points,  4 beta functions with: 
                l(1) =   0
                l(2) =   0
                l(3) =   1
                l(4) =   1

     PseudoPot. # 4 for N  read from file:
     /data/pseudo/dojo_sr/N.upf
     MD5 check sum: d34365f73bb0e2ee98afc20ec3e87676
     Pseudo is Norm-conserving + core correction, Zval =  5.0
     Generated using ONCVPSP code by D. R. Hamann
     Using radial grid of 1058 points,  4 beta functions with: 
                l(1) =   0
                l(2) =   0
                l(3) =   1
                l(4) =   1

     atomic species   valence    mass     pseudopotential
     Cr               14.00    51.99610     Cr( 1.00)
     Cr1              14.00    51.99610     Cr( 1.00)
     C                 4.00    12.01100     C ( 1.00)
     N                 5.00    14.00700     N ( 1.00)

     Starting magnetic structure 
     atomic species   magnetization
     Cr             -0.214
     Cr1             0.214
     C               0.000
     N               0.000

     48 Sym. Ops., with inversion, found


                                    s                        frac. trans.

      isym =  1     identity                                     

 cryst.   s( 1) = (     1          0          0      )
                  (     0          1          0      )
                  (     0          0          1      )

 cart.    s( 1) = (  1.0000000  0.0000000  0.0000000 )
                  (  0.0000000  1.0000000  0.0000000 )
                  (  0.0000000  0.0000000  1.0000000 )


      isym =  2     180 deg rotation - cart. axis [0,0,1]        

 cryst.   s( 2) = (     0          1         -1      )
                  (     1          0         -1      )
                  (     0          0         -1      )

 cart.    s( 2) = ( -1.0000000  0.0000000  0.0000000 )
                  (  0.0000000 -1.0000000  0.0000000 )
                  (  0.0000000  0.0000000  1.0000000 )


      isym =  3     180 deg rotation - cart. axis [0,1,0]        

 cryst.   s( 3) = (     0         -1          1      )
                  (     0         -1          0      )
                  (     1         -1          0      )

 cart.    s( 3) = ( -1.0000000  0.0000000  0.0000000 )
                  (  0.0000000  1.0000000  0.0000000 )
                  (  0.0000000  0.0000000 -1.0000000 )


      isym =  4     180 deg rotation - cart. axis [1,0,0]        

 cryst.   s( 4) = (    -1          0          0      )
                  (    -1          0          1      )
                  (    -1          1          0      )

 cart.    s( 4) = (  1.0000000  0.0000000  0.0000000 )
                  (  0.0000000 -1.0000000  0.0000000 )
                  (  0.0000000  0.0000000 -1.0000000 )


      isym =  5     180 deg rotation - cart. axis [1,1,0]        

 cryst.   s( 5) = (    -1          0          1      )
                  (     0         -1          1      )
                  (     0          0          1      )

 cart.    s( 5) = (  0.0000000  1.0000000  0.0000000 )
                  (  1.0000000  0.0000000  0.0000000 )
                  (  0.0000000  0.0000000 -1.0000000 )


      isym =  6     180 deg rotation - cart. axis [1,-1,0]       

 cryst.   s( 6) = (     0         -1          0      )
                  (    -1          0          0      )
                  (     0          0         -1      )

 cart.    s( 6) = (  0.0000000 -1.0000000  0.0000000 )
                  ( -1.0000000  0.0000000  0.0000000 )
                  (  0.0000000  0.0000000 -1.0000000 )


      isym =  7      90 deg rotation - cart. axis [0,0,-1]       

 cryst.   s( 7) = (     0          1          0      )
                  (     0          1         -1      )
                  (    -1          1          0      )

 cart.    s( 7) = (  0.0000000  1.0000000  0.0000000 )
                  ( -1.0000000  0.0000000  0.0000000 )
                  (  0.0000000  0.0000000  1.0000000 )


      isym =  8      90 deg rotation - cart. axis [0,0,1]        

 cryst.   s( 8) = (     1          0         -1      )
                  (     1          0          0      )
                  (     1         -1          0      )

 cart.    s( 8) = (  0.0000000 -1.0000000  0.0000000 )
                  (  1.0000000  0.0000000  0.0000000 )
                  (  0.0000000  0.0000000  1.0000000 )


      isym =  9     180 deg rotation - cart. axis [1,0,1]        

 cryst.   s( 9) = (    -1          1          0      )
                  (     0          1          0      )
                  (     0          1         -1      )

 cart.    s( 9) = (  0.0000000  0.0000000  1.0000000 )
                  (  0.0000000 -1.0000000  0.0000000 )
                  (  1.0000000  0.0000000  0.0000000 )


      isym = 10     180 deg rotation - cart. axis [-1,0,1]       

 cryst.   s(10) = (     0          0         -1      )
                  (     0         -1          0      )
                  (    -1          0          0      )

 cart.    s(10) = (  0.0000000  0.0000000 -1.0000000 )
                  (  0.0000000 -1.0000000  0.0000000 )
                  ( -1.0000000  0.0000000  0.0000000 )


      isym = 11      90 deg rotation - cart. axis [0,1,0]        

 cryst.   s(11) = (     0          0          1      )
                  (    -1          0          1      )
                  (     0         -1          1      )

 cart.    s(11) = (  0.0000000  0.0000000  1.0000000 )
                  (  0.0000000  1.0000000  0.0000000 )
                  ( -1.0000000  0.0000000  0.0000000 )


      isym = 12      90 deg rotation - cart. axis [0,-1,0]       

 cryst.   s(12) = (     1         -1          0      )
                  (     1          0         -1      )
                  (     1          0          0      )

 cart.    s(12) = (  0.0000000  0.0000000 -1.0000000 )
                  (  0.0000000  1.0000000  0.0000000 )
                  (  1.0000000  0.0000000  0.0000000 )


      isym = 13     180 deg rotation - cart. axis [0,1,1]        

 cryst.   s(13) = (     1          0          0      )
                  (     1         -1          0      )
                  (     1          0         -1      )

 cart.    s(13) = ( -1.0000000  0.0000000  0.0000000 )
                  (  0.0000000  0.0000000  1.0000000 )
                  (  0.0000000  1.0000000  0.0000000 )


      isym = 14     180 deg rotation - cart. axis [0,1,-1]       

 cryst.   s(14) = (    -1          0          0      )
                  (     0          0         -1      )
                  (     0         -1          0      )

 cart.    s(14) = ( -1.0000000  0.0000000  0.0000000 )
                  (  0.0000000  0.0000000 -1.0000000 )
                  (  0.0000000 -1.0000000  0.0000000 )


      isym = 15      90 deg rotation - cart. axis [-1,0,0]       

 cryst.   s(15) = (     0         -1          1      )
                  (     0          0          1      )
                  (    -1          0          1      )

 cart.    s(15) = (  1.0000000  0.0000000  0.0000000 )
                  (  0.0000000  0.0000000  1.0000000 )
                  (  0.0000000 -1.0000000  0.0000000 )


      isym = 16      90 deg rotation - cart. axis [1,0,0]        

 cryst.   s(16) = (     0          1         -1      )
                  (    -1          1          0      )
                  (     0          1          0      )

 cart.    s(16) = (  1.0000000  0.0000000  0.0000000 )
                  (  0.0000000  0.0000000 -1.0000000 )
                  (  0.0000000  1.0000000  0.0000000 )


      isym = 17     120 deg rotation - cart. axis [-1,-1,-1]     

 cryst.   s(17) = (     0          0          1      )
                  (     1          0          0      )
                  (     0          1          0      )

 cart.    s(17) = (  0.0000000  1.0000000  0.0000000 )
                  (  0.0000000  0.0000000  1.0000000 )
                  (  1.0000000  0.0000000  0.0000000 )


      isym = 18     120 deg rotation - cart. axis [-1,1,1]       

 cryst.   s(18) = (     1         -1          0      )
                  (     0         -1          1      )
                  (     0         -1          0      )

 cart.    s(18) = (  0.0000000 -1.0000000  0.0000000 )
                  (  0.0000000  0.0000000  1.0000000 )
                  ( -1.0000000  0.0000000  0.0000000 )


      isym = 19     120 deg rotation - cart. axis [1,1,-1]       

 cryst.   s(19) = (    -1          1          0      )
                  (    -1          0          0      )
                  (    -1          0          1      )

 cart.    s(19) = (  0.0000000  1.0000000  0.0000000 )
                  (  0.0000000  0.0000000 -1.0000000 )
                  ( -1.0000000  0.0000000  0.0000000 )


      isym = 20     120 deg rotation - cart. axis [1,-1,1]       

 cryst.   s(20) = (     0          0         -1      )
                  (     0          1         -1      )
                  (     1          0         -1      )

 cart.    s(20) = (  0.0000000 -1.0000000  0.0000000 )
                  (  0.0000000  0.0000000 -1.0000000 )
                  (  1.0000000  0.0000000  0.0000000 )


      isym = 21     120 deg rotation - cart. axis [1,1,1]        

 cryst.   s(21) = (     0          1          0      )
                  (     0          0          1      )
                  (     1          0          0      )

 cart.    s(21) = (  0.0000000  0.0000000  1.0000000 )
                  (  1.0000000  0.0000000  0.0000000 )
                  (  0.0000000  1.0000000  0.0000000 )


      isym = 22     120 deg rotation - cart. axis [-1,1,-1]      

 cryst.   s(22) = (    -1          0          1      )
                  (    -1          1          0      )
                  (    -1          0          0      )

 cart.    s(22) = (  0.0000000  0.0000000  1.0000000 )
                  ( -1.0000000  0.0000000  0.0000000 )
                  (  0.0000000 -1.0000000  0.0000000 )


      isym = 23     120 deg rotation - cart. axis [1,-1,-1]      

 cryst.   s(23) = (     1          0         -1      )
                  (     0          0         -1      )
                  (     0          1         -1      )

 cart.    s(23) = (  0.0000000  0.0000000 -1.0000000 )
                  ( -1.0000000  0.0000000  0.0000000 )
                  (  0.0000000  1.0000000  0.0000000 )


      isym = 24     120 deg rotation - cart. axis [-1,-1,1]      

 cryst.   s(24) = (     0         -1          0      )
                  (     1         -1          0      )
                  (     0         -1          1      )

 cart.    s(24) = (  0.0000000  0.0000000 -1.0000000 )
                  (  1.0000000  0.0000000  0.0000000 )
                  (  0.0000000 -1.0000000  0.0000000 )


      isym = 25     inversion                                    

 cryst.   s(25) = (    -1          0          0      )
                  (     0         -1          0      )
                  (     0          0         -1      )

 cart.    s(25) = ( -1.0000000  0.0000000  0.0000000 )
                  (  0.0000000 -1.0000000  0.0000000 )
                  (  0.0000000  0.0000000 -1.0000000 )


      isym = 26     inv. 180 deg rotation - cart. axis [0,0,1]   

 cryst.   s(26) = (     0         -1          1      )
                  (    -1          0          1      )
                  (     0          0          1      )

 cart.    s(26) = (  1.0000000  0.0000000  0.0000000 )
                  (  0.0000000  1.0000000  0.0000000 )
                  (  0.0000000  0.0000000 -1.0000000 )


      isym = 27     inv. 180 deg rotation - cart. axis [0,1,0]   

 cryst.   s(27) = (     0          1         -1      )
                  (     0          1          0      )
                  (    -1          1          0      )

 cart.    s(27) = (  1.0000000  0.0000000  0.0000000 )
                  (  0.0000000 -1.0000000  0.0000000 )
                  (  0.0000000  0.0000000  1.0000000 )


      isym = 28     inv. 180 deg rotation - cart. axis [1,0,0]   

 cryst.   s(28) = (     1          0          0      )
                  (     1          0         -1      )
                  (     1         -1          0      )

 cart.    s(28) = ( -1.0000000  0.0000000  0.0000000 )
                  (  0.0000000  1.0000000  0.0000000 )
                  (  0.0000000  0.0000000  1.0000000 )


      isym = 29     inv. 180 deg rotation - cart. axis [1,1,0]   

 cryst.   s(29) = (     1          0         -1      )
                  (     0          1         -1      )
                  (     0          0         -1      )

 cart.    s(29) = (  0.0000000 -1.0000000  0.0000000 )
                  ( -1.0000000  0.0000000  0.0000000 )
                  (  0.0000000  0.0000000  1.0000000 )


      isym = 30     inv. 180 deg rotation - cart. axis [1,-1,0]  

 cryst.   s(30) = (     0          1          0      )
                  (     1          0          0      )
                  (     0          0          1      )

 cart.    s(30) = (  0.0000000  1.0000000  0.0000000 )
                  (  1.0000000  0.0000000  0.0000000 )
                  (  0.0000000  0.0000000  1.0000000 )


      isym = 31     inv.  90 deg rotation - cart. axis [0,0,-1]  

 cryst.   s(31) = (     0         -1          0      )
                  (     0         -1          1      )
                  (     1         -1          0      )

 cart.    s(31) = (  0.0000000 -1.0000000  0.0000000 )
                  (  1.0000000  0.0000000  0.0000000 )
                  (  0.0000000  0.0000000 -1.0000000 )


      isym = 32     inv.  90 deg rotation - cart. axis [0,0,1]   

 cryst.   s(32) = (    -1          0          1      )
                  (    -1          0          0      )
                  (    -1          1          0      )

 cart.    s(32) = (  0.0000000  1.0000000  0.0000000 )
                  ( -1.0000000  0.0000000  0.0000000 )
                  (  0.0000000  0.0000000 -1.0000000 )


      isym = 33     inv. 180 deg rotation - cart. axis [1,0,1]   

 cryst.   s(33) = (     1         -1          0      )
                  (     0         -1          0      )
                  (     0         -1          1      )

 cart.    s(33) = (  0.0000000  0.0000000 -1.0000000 )
                  (  0.0000000  1.0000000  0.0000000 )
                  ( -1.0000000  0.0000000  0.0000000 )


      isym = 34     inv. 180 deg rotation - cart. axis [-1,0,1]  

 cryst.   s(34) = (     0          0          1      )
                  (     0          1          0      )
                  (     1          0          0      )

 cart.    s(34) = (  0.0000000  0.0000000  1.0000000 )
                  (  0.0000000  1.0000000  0.0000000 )
                  (  1.0000000  0.0000000  0.0000000 )


      isym = 35     inv.  90 deg rotation - cart. axis [0,1,0]   

 cryst.   s(35) = (     0          0         -1      )
                  (     1          0         -1      )
                  (     0          1         -1      )

 cart.    s(35) = (  0.0000000  0.0000000 -1.0000000 )
                  (  0.0000000 -1.0000000  0.0000000 )
                  (  1.0000000  0.0000000  0.0000000 )


      isym = 36     inv.  90 deg rotation - cart. axis [0,-1,0]  

 cryst.   s(36) = (    -1          1          0      )
                  (    -1          0          1      )
                  (    -1          0          0      )

 cart.    s(36) = (  0.0000000  0.0000000  1.0000000 )
                  (  0.0000000 -1.0000000  0.0000000 )
                  ( -1.0000000  0.0000000  0.0000000 )


      isym = 37     inv. 180 deg rotation - cart. axis [0,1,1]   

 cryst.   s(37) = (    -1          0          0      )
                  (    -1          1          0      )
                  (    -1          0          1      )

 cart.    s(37) = (  1.0000000  0.0000000  0.0000000 )
                  (  0.0000000  0.0000000 -1.0000000 )
                  (  0.0000000 -1.0000000  0.0000000 )


      isym = 38     inv. 180 deg rotation - cart. axis [0,1,-1]  

 cryst.   s(38) = (     1          0          0      )
                  (     0          0          1      )
                  (     0          1          0      )

 cart.    s(38) = (  1.0000000  0.0000000  0.0000000 )
                  (  0.0000000  0.0000000  1.0000000 )
                  (  0.0000000  1.0000000  0.0000000 )


      isym = 39     inv.  90 deg rotation - cart. axis [-1,0,0]  

 cryst.   s(39) = (     0          1         -1      )
                  (     0          0         -1      )
                  (     1          0         -1      )

 cart.    s(39) = ( -1.0000000  0.0000000  0.0000000 )
                  (  0.0000000  0.0000000 -1.0000000 )
                  (  0.0000000  1.0000000  0.0000000 )


      isym = 40     inv.  90 deg rotation - cart. axis [1,0,0]   

 cryst.   s(40) = (     0         -1          1      )
                  (     1         -1          0      )
                  (     0         -1          0      )

 cart.    s(40) = ( -1.0000000  0.0000000  0.0000000 )
                  (  0.0000000  0.0000000  1.0000000 )
                  (  0.0000000 -1.0000000  0.0000000 )


      isym = 41     inv. 120 deg rotation - cart. axis [-1,-1,-1]

 cryst.   s(41) = (     0          0         -1      )
                  (    -1          0          0      )
                  (     0         -1          0      )

 cart.    s(41) = (  0.0000000 -1.0000000  0.0000000 )
                  (  0.0000000  0.0000000 -1.0000000 )
                  ( -1.0000000  0.0000000  0.0000000 )


      isym = 42     inv. 120 deg rotation - cart. axis [-1,1,1]  

 cryst.   s(42) = (    -1          1          0      )
                  (     0          1         -1      )
                  (     0          1          0      )

 cart.    s(42) = (  0.0000000  1.0000000  0.0000000 )
                  (  0.0000000  0.0000000 -1.0000000 )
                  (  1.0000000  0.0000000  0.0000000 )


      isym = 43     inv. 120 deg rotation - cart. axis [1,1,-1]  

 cryst.   s(43) = (     1         -1          0      )
                  (     1          0          0      )
                  (     1          0         -1      )

 cart.    s(43) = (  0.0000000 -1.0000000  0.0000000 )
                  (  0.0000000  0.0000000  1.0000000 )
                  (  1.0000000  0.0000000  0.0000000 )


      isym = 44     inv. 120 deg rotation - cart. axis [1,-1,1]  

 cryst.   s(44) = (     0          0          1      )
                  (     0         -1          1      )
                  (    -1          0          1      )

 cart.    s(44) = (  0.0000000  1.0000000  0.0000000 )
                  (  0.0000000  0.0000000  1.0000000 )
                  ( -1.0000000  0.0000000  0.0000000 )


      isym = 45     inv. 120 deg rotation - cart. axis [1,1,1]   

 cryst.   s(45) = (     0         -1          0      )
                  (     0          0         -1      )
                  (    -1          0          0      )

 cart.    s(45) = (  0.0000000  0.0000000 -1.0000000 )
                  ( -1.0000000  0.0000000  0.0000000 )
                  (  0.0000000 -1.0000000  0.0000000 )


      isym = 46     inv. 120 deg rotation - cart. axis [-1,1,-1] 

 cryst.   s(46) = (     1          0         -1      )
                  (     1         -1          0      )
                  (     1          0          0      )

 cart.    s(46) = (  0.0000000  0.0000000 -1.0000000 )
                  (  1.0000000  0.0000000  0.0000000 )
                  (  0.0000000  1.0000000  0.0000000 )


      isym = 47     inv. 120 deg rotation - cart. axis [1,-1,-1] 

 cryst.   s(47) = (    -1          0          1      )
                  (     0          0          1      )
                  (     0         -1          1      )

 cart.    s(47) = (  0.0000000  0.0000000  1.0000000 )
                  (  1.0000000  0.0000000  0.0000000 )
                  (  0.0000000 -1.0000000  0.0000000 )


      isym = 48     inv. 120 deg rotation - cart. axis [-1,-1,1] 

 cryst.   s(48) = (     0          1          0      )
                  (    -1          1          0      )
                  (     0          1         -1      )

 cart.    s(48) = (  0.0000000  0.0000000  1.0000000 )
                  ( -1.0000000  0.0000000  0.0000000 )
                  (  0.0000000  1.0000000  0.0000000 )


   Cartesian axes

     site n.     atom                  positions (alat units)
         1        Cr     tau(   1) = (   0.0000000   0.0000000   0.0000000  )
         2        Cr1    tau(   2) = (   0.7071068   0.7071068   0.7071068  )
         3        C      tau(   3) = (   0.4283603   0.7071068   0.7071068  )
         4        C      tau(   4) = (   0.9858533   0.7071068   0.7071068  )
         5        C      tau(   5) = (   0.7071068   0.4283603   0.7071068  )
         6        C      tau(   6) = (   0.7071068   0.9858533   0.7071068  )
         7        C      tau(   7) = (   0.7071068   0.7071068   0.4283603  )
         8        C      tau(   8) = (   0.7071068   0.7071068   0.9858533  )
         9        N      tau(   9) = (   0.2714084   0.7071068   0.7071068  )
        10        N      tau(  10) = (   1.1428051   0.7071068   0.7071068  )
        11        N      tau(  11) = (   0.7071068   0.2714084   0.7071068  )
        12        N      tau(  12) = (   0.7071068   1.1428051   0.7071068  )
        13        N      tau(  13) = (   0.7071068   0.7071068   0.2714084  )
        14        N      tau(  14) = (   0.7071068   0.7071068   1.1428051  )

   Crystallographic axes

     site n.     atom                  positions (cryst. coord.)
         1        Cr     tau(   1) = (  0.0000000  0.0000000  0.0000000  )
         2        Cr1    tau(   2) = (  0.5000000  0.5000000  0.5000000  )
         3        C      tau(   3) = (  0.6971035  0.3028965  0.3028965  )
         4        C      tau(   4) = (  0.3028965  0.6971035  0.6971035  )
         5        C      tau(   5) = (  0.3028965  0.6971035  0.3028965  )
         6        C      tau(   6) = (  0.6971035  0.3028965  0.6971035  )
         7        C      tau(   7) = (  0.3028965  0.3028965  0.6971035  )
         8        C      tau(   8) = (  0.6971035  0.6971035  0.3028965  )
         9        N      tau(   9) = (  0.8080853  0.1919147  0.1919147  )
        10        N      tau(  10) = (  0.1919147  0.8080853  0.8080853  )
        11        N      tau(  11) = (  0.1919147  0.8080853  0.1919147  )
        12        N      tau(  12) = (  0.8080853  0.1919147  0.8080853  )
        13        N      tau(  13) = (  0.1919147  0.1919147  0.8080853  )
        14        N      tau(  14) = (  0.8080853  0.8080853  0.1919147  )

     number of k points=     8  Gaussian smearing, width (Ry)=  0.0050
                       cart. coord. in units 2pi/alat
        k(    1) = (   0.0000000   0.0000000   0.0000000), wk =   0.0156250
        k(    2) = (   0.1767767   0.1767767  -0.1767767), wk =   0.1250000
        k(    3) = (  -0.3535534  -0.3535534   0.3535534), wk =   0.0625000
        k(    4) = (   0.3535534   0.0000000   0.0000000), wk =   0.0937500
        k(    5) = (  -0.1767767  -0.5303301   0.5303301), wk =   0.3750000
        k(    6) = (   0.0000000  -0.3535534   0.3535534), wk =   0.1875000
        k(    7) = (  -0.7071068   0.0000000   0.0000000), wk =   0.0468750
        k(    8) = (  -0.7071068   0.3535534   0.0000000), wk =   0.0937500

                       cryst. coord.
        k(    1) = (   0.0000000   0.0000000   0.0000000), wk =   0.0156250
        k(    2) = (   0.0000000   0.0000000   0.2500000), wk =   0.1250000
        k(    3) = (   0.0000000   0.0000000  -0.5000000), wk =   0.0625000
        k(    4) = (   0.0000000   0.2500000   0.2500000), wk =   0.0937500
        k(    5) = (   0.0000000   0.2500000  -0.5000000), wk =   0.3750000
        k(    6) = (   0.0000000   0.2500000  -0.2500000), wk =   0.1875000
        k(    7) = (   0.0000000  -0.5000000  -0.5000000), wk =   0.0468750
        k(    8) = (   0.2500000  -0.5000000  -0.2500000), wk =   0.0937500

     Dense  grid:   224595 G-vectors     FFT dimensions: (  90,  90,  90)

     Dynamical RAM for                 wfc:       2.62 MB

     Dynamical RAM for     wfc (w. buffer):       7.87 MB

     Dynamical RAM for                 EXX:    1197.29 MB

     Dynamical RAM for           str. fact:       1.71 MB

     Dynamical RAM for           local pot:       0.00 MB

     Dynamical RAM for          nlocal pot:       7.06 MB

     Dynamical RAM for                qrad:       6.24 MB

     Dynamical RAM for          rho,v,vnew:       7.02 MB

     Dynamical RAM for               rhoin:       2.34 MB

     Dynamical RAM for            rho*nmix:      13.71 MB

     Dynamical RAM for           G-vectors:       1.82 MB

     Dynamical RAM for          h,s,v(r/c):       0.44 MB

     Dynamical RAM for          <psi|beta>:       0.10 MB

     Dynamical RAM for                 psi:       5.24 MB

     Dynamical RAM for                hpsi:       5.24 MB

     Dynamical RAM for      wfcinit/wfcrot:       5.30 MB

     Estimated static dynamical RAM per process >       1.21 GB

     Estimated max dynamical RAM per process >       1.23 GB

     Estimated total dynamical RAM >      78.25 GB
     EXX: ACE will be initialized later
     Generating pointlists ...
     new r_m :   0.1120 (alat units)  1.5689 (a.u.) for type    1
     new r_m :   0.1150 (alat units)  1.6113 (a.u.) for type    2
     new r_m :   0.0647 (alat units)  0.9073 (a.u.) for type    3
     new r_m :   0.0647 (alat units)  0.9073 (a.u.) for type    4

     Initial potential from superposition of free atoms

     starting charge      81.9968, renormalised to      82.0000
     Starting wfcs are   68 randomized atomic wfcs

     total cpu time spent up to now is        3.4 secs

     per-process dynamical memory:    50.3 Mb

     Self-consistent Calculation

     iteration #  1     ecut=    90.00 Ry     beta= 0.30
     Davidson diagonalization with overlap

---- Real-time Memory Report at c_bands before calling an iterative solver
           195 MiB given to the printing process from OS
            49 MiB allocation reported by mallinfo(arena+hblkhd)
        692182 MiB available memory on the node where the printing process lives
------------------
     ethr =  1.00E-02,  avg # of iterations =  2.0

     total cpu time spent up to now is        7.4 secs

     total energy              =    -552.65570793 Ry
     estimated scf accuracy    <       9.30495601 Ry

     total magnetization       =    -0.00 Bohr mag/cell
     absolute magnetization    =     2.31 Bohr mag/cell

     iteration #  2     ecut=    90.00 Ry     beta= 0.30
     Davidson diagonalization with overlap

---- Real-time Memory Report at c_bands before calling an iterative solver
           216 MiB given to the printing process from OS
            69 MiB allocation reported by mallinfo(arena+hblkhd)
        690959 MiB available memory on the node where the printing process lives
------------------
     ethr =  1.00E-02,  avg # of iterations =  1.4

     total cpu time spent up to now is       10.6 secs

     total energy              =    -551.95448012 Ry
     estimated scf accuracy    <       3.47185710 Ry

     total magnetization       =    -0.00 Bohr mag/cell
     absolute magnetization    =     5.03 Bohr mag/cell

     iteration #  3     ecut=    90.00 Ry     beta= 0.30
     Davidson diagonalization with overlap

---- Real-time Memory Report at c_bands before calling an iterative solver
           218 MiB given to the printing process from OS
            70 MiB allocation reported by mallinfo(arena+hblkhd)
        690962 MiB available memory on the node where the printing process lives
------------------
     ethr =  4.23E-03,  avg # of iterations =  4.9

     total cpu time spent up to now is       14.3 secs

     total energy              =    -552.60730484 Ry
     estimated scf accuracy    <       0.29303272 Ry

     total magnetization       =     0.00 Bohr mag/cell
     absolute magnetization    =     6.75 Bohr mag/cell

     iteration #  4     ecut=    90.00 Ry     beta= 0.30
     Davidson diagonalization with overlap

---- Real-time Memory Report at c_bands before calling an iterative solver
           220 MiB given to the printing process from OS
            72 MiB allocation reported by mallinfo(arena+hblkhd)
        691119 MiB available memory on the node where the printing process lives
------------------
     ethr =  3.57E-04,  avg # of iterations =  9.8

     total cpu time spent up to now is       19.1 secs

     total energy              =    -552.57995139 Ry
     estimated scf accuracy    <       0.33851057 Ry

     total magnetization       =     0.00 Bohr mag/cell
     absolute magnetization    =     6.61 Bohr mag/cell

     iteration #  5     ecut=    90.00 Ry     beta= 0.30
     Davidson diagonalization with overlap

---- Real-time Memory Report at c_bands before calling an iterative solver
           222 MiB given to the printing process from OS
            74 MiB allocation reported by mallinfo(arena+hblkhd)
        691058 MiB available memory on the node where the printing process lives
------------------
     ethr =  3.57E-04,  avg # of iterations =  4.6

     total cpu time spent up to now is       22.7 secs

     total energy              =    -552.61458714 Ry
     estimated scf accuracy    <       0.23741321 Ry

     total magnetization       =    -0.00 Bohr mag/cell
     absolute magnetization    =     6.39 Bohr mag/cell

     iteration #  6     ecut=    90.00 Ry     beta= 0.30
     Davidson diagonalization with overlap

---- Real-time Memory Report at c_bands before calling an iterative solver
           224 MiB given to the printing process from OS
            77 MiB allocation reported by mallinfo(arena+hblkhd)
        690902 MiB available memory on the node where the printing process lives
------------------
     ethr =  2.90E-04,  avg # of iterations =  2.0

     total cpu time spent up to now is       26.2 secs

     total energy              =    -552.58944247 Ry
     estimated scf accuracy    <       0.11019606 Ry

     total magnetization       =    -0.00 Bohr mag/cell
     absolute magnetization    =     6.62 Bohr mag/cell

     iteration #  7     ecut=    90.00 Ry     beta= 0.30
     Davidson diagonalization with overlap

---- Real-time Memory Report at c_bands before calling an iterative solver
           225 MiB given to the printing process from OS
            77 MiB allocation reported by mallinfo(arena+hblkhd)
        691007 MiB available memory on the node where the printing process lives
------------------
     ethr =  1.34E-04,  avg # of iterations =  4.0

     total cpu time spent up to now is       29.8 secs

     total energy              =    -552.61543962 Ry
     estimated scf accuracy    <       0.01738504 Ry

     total magnetization       =    -0.00 Bohr mag/cell
     absolute magnetization    =     6.89 Bohr mag/cell

     iteration #  8     ecut=    90.00 Ry     beta= 0.30
     Davidson diagonalization with overlap

---- Real-time Memory Report at c_bands before calling an iterative solver
           227 MiB given to the printing process from OS
            79 MiB allocation reported by mallinfo(arena+hblkhd)
        690904 MiB available memory on the node where the printing process lives
------------------
     ethr =  2.12E-05,  avg # of iterations =  5.1

     total cpu time spent up to now is       33.6 secs

     total energy              =    -552.61410082 Ry
     estimated scf accuracy    <       0.01371958 Ry

     total magnetization       =     0.00 Bohr mag/cell
     absolute magnetization    =     6.91 Bohr mag/cell

     iteration #  9     ecut=    90.00 Ry     beta= 0.30
     Davidson diagonalization with overlap

---- Real-time Memory Report at c_bands before calling an iterative solver
           229 MiB given to the printing process from OS
            81 MiB allocation reported by mallinfo(arena+hblkhd)
        691040 MiB available memory on the node where the printing process lives
------------------
     ethr =  1.67E-05,  avg # of iterations =  1.9

     total cpu time spent up to now is       37.0 secs

     total energy              =    -552.61410498 Ry
     estimated scf accuracy    <       0.00297140 Ry

     total magnetization       =    -0.00 Bohr mag/cell
     absolute magnetization    =     6.91 Bohr mag/cell

     iteration # 10     ecut=    90.00 Ry     beta= 0.30
     Davidson diagonalization with overlap

---- Real-time Memory Report at c_bands before calling an iterative solver
           230 MiB given to the printing process from OS
            83 MiB allocation reported by mallinfo(arena+hblkhd)
        691062 MiB available memory on the node where the printing process lives
------------------
     ethr =  3.62E-06,  avg # of iterations =  8.5

     total cpu time spent up to now is       41.1 secs

     total energy              =    -552.61450461 Ry
     estimated scf accuracy    <       0.00008103 Ry

     total magnetization       =     0.00 Bohr mag/cell
     absolute magnetization    =     6.93 Bohr mag/cell

     iteration # 11     ecut=    90.00 Ry     beta= 0.30
     Davidson diagonalization with overlap

---- Real-time Memory Report at c_bands before calling an iterative solver
           230 MiB given to the printing process from OS
            83 MiB allocation reported by mallinfo(arena+hblkhd)
        690972 MiB available memory on the node where the printing process lives
------------------
     ethr =  9.88E-08,  avg # of iterations =  5.3

     total cpu time spent up to now is       45.6 secs

     total energy              =    -552.61455328 Ry
     estimated scf accuracy    <       0.00010682 Ry

     total magnetization       =    -0.00 Bohr mag/cell
     absolute magnetization    =     6.95 Bohr mag/cell

     iteration # 12     ecut=    90.00 Ry     beta= 0.30
     Davidson diagonalization with overlap

---- Real-time Memory Report at c_bands before calling an iterative solver
           230 MiB given to the printing process from OS
            83 MiB allocation reported by mallinfo(arena+hblkhd)
        690872 MiB available memory on the node where the printing process lives
------------------
     ethr =  9.88E-08,  avg # of iterations =  1.9

     total cpu time spent up to now is       49.2 secs

     total energy              =    -552.61455473 Ry
     estimated scf accuracy    <       0.00004602 Ry

     total magnetization       =     0.00 Bohr mag/cell
     absolute magnetization    =     6.96 Bohr mag/cell

     iteration # 13     ecut=    90.00 Ry     beta= 0.30
     Davidson diagonalization with overlap

---- Real-time Memory Report at c_bands before calling an iterative solver
           230 MiB given to the printing process from OS
            83 MiB allocation reported by mallinfo(arena+hblkhd)
        691102 MiB available memory on the node where the printing process lives
------------------
     ethr =  5.61E-08,  avg # of iterations =  2.1

     total cpu time spent up to now is       52.7 secs

     total energy              =    -552.61456124 Ry
     estimated scf accuracy    <       0.00000180 Ry

     total magnetization       =    -0.00 Bohr mag/cell
     absolute magnetization    =     6.97 Bohr mag/cell

     iteration # 14     ecut=    90.00 Ry     beta= 0.30
     Davidson diagonalization with overlap

---- Real-time Memory Report at c_bands before calling an iterative solver
           230 MiB given to the printing process from OS
            83 MiB allocation reported by mallinfo(arena+hblkhd)
        691017 MiB available memory on the node where the printing process lives
------------------
     ethr =  2.19E-09,  avg # of iterations =  4.5

     total cpu time spent up to now is       57.3 secs

     total energy              =    -552.61456346 Ry
     estimated scf accuracy    <       0.00000173 Ry

     total magnetization       =    -0.00 Bohr mag/cell
     absolute magnetization    =     6.98 Bohr mag/cell

     iteration # 15     ecut=    90.00 Ry     beta= 0.30
     Davidson diagonalization with overlap

---- Real-time Memory Report at c_bands before calling an iterative solver
           230 MiB given to the printing process from OS
            83 MiB allocation reported by mallinfo(arena+hblkhd)
        690860 MiB available memory on the node where the printing process lives
------------------
     ethr =  2.11E-09,  avg # of iterations =  3.0

     total cpu time spent up to now is       61.4 secs

     total energy              =    -552.61456319 Ry
     estimated scf accuracy    <       0.00000205 Ry

     total magnetization       =     0.00 Bohr mag/cell
     absolute magnetization    =     6.98 Bohr mag/cell

     iteration # 16     ecut=    90.00 Ry     beta= 0.30
     Davidson diagonalization with overlap

---- Real-time Memory Report at c_bands before calling an iterative solver
           230 MiB given to the printing process from OS
            83 MiB allocation reported by mallinfo(arena+hblkhd)
        690888 MiB available memory on the node where the printing process lives
------------------
     ethr =  2.11E-09,  avg # of iterations =  2.8

     total cpu time spent up to now is       64.9 secs

     total energy              =    -552.61456362 Ry
     estimated scf accuracy    <       0.00000016 Ry

     total magnetization       =    -0.00 Bohr mag/cell
     absolute magnetization    =     6.98 Bohr mag/cell

     iteration # 17     ecut=    90.00 Ry     beta= 0.30
     Davidson diagonalization with overlap

---- Real-time Memory Report at c_bands before calling an iterative solver
           230 MiB given to the printing process from OS
            83 MiB allocation reported by mallinfo(arena+hblkhd)
        690858 MiB available memory on the node where the printing process lives
------------------
     ethr =  2.01E-10,  avg # of iterations =  5.0

     total cpu time spent up to now is       69.3 secs

     total energy              =    -552.61456378 Ry
     estimated scf accuracy    <       0.00000043 Ry

     total magnetization       =     0.00 Bohr mag/cell
     absolute magnetization    =     6.98 Bohr mag/cell

     iteration # 18     ecut=    90.00 Ry     beta= 0.30
     Davidson diagonalization with overlap

---- Real-time Memory Report at c_bands before calling an iterative solver
           230 MiB given to the printing process from OS
            83 MiB allocation reported by mallinfo(arena+hblkhd)
        690954 MiB available memory on the node where the printing process lives
------------------
     ethr =  2.01E-10,  avg # of iterations =  3.1

     Magnetic moment per site  (integrated on atomic sphere of radius R)
     atom   1 (R=0.112)  charge= 10.8813  magn= -2.2396
     atom   2 (R=0.115)  charge= 11.0611  magn=  2.1769
     atom   3 (R=0.065)  charge=  1.0122  magn= -0.0386
     atom   4 (R=0.065)  charge=  1.0122  magn= -0.0386
     atom   5 (R=0.065)  charge=  1.0122  magn= -0.0386
     atom   6 (R=0.065)  charge=  1.0122  magn= -0.0386
     atom   7 (R=0.065)  charge=  1.0122  magn= -0.0386
     atom   8 (R=0.065)  charge=  1.0122  magn= -0.0386
     atom   9 (R=0.065)  charge=  1.8283  magn=  0.0534
     atom  10 (R=0.065)  charge=  1.8283  magn=  0.0534
     atom  11 (R=0.065)  charge=  1.8283  magn=  0.0534
     atom  12 (R=0.065)  charge=  1.8283  magn=  0.0534
     atom  13 (R=0.065)  charge=  1.8283  magn=  0.0534
     atom  14 (R=0.065)  charge=  1.8283  magn=  0.0534

     total cpu time spent up to now is       73.2 secs

     End of self-consistent calculation

 ------ SPIN UP ------------


          k = 0.0000 0.0000 0.0000 ( 27941 PWs)   bands (ev):

   -72.6722 -70.4475 -44.0314 -44.0314 -44.0314 -41.7628 -41.7628 -41.7628
   -17.5978 -17.3519 -17.3519 -17.3519 -17.2998 -17.2998  -8.4527  -6.6869
    -6.6869  -6.5075  -6.5075  -6.5075  -6.0555  -4.4410  -4.4410  -4.4410
    -4.3544  -4.3544  -3.5939  -3.5939  -3.5939  -3.1644  -3.1644  -3.1644
    -3.0670  -3.0670  -3.0670  -2.6519  -2.6519  -2.6519  -1.3406  -1.3406
    -1.3406   1.7805   1.7805   1.7805   2.9289   2.9289   4.1552   4.1552
     4.8046

     occupation numbers 
     1.0000   1.0000   1.0000   1.0000   1.0000   1.0000   1.0000   1.0000
     1.0000   1.0000   1.0000   1.0000   1.0000   1.0000   1.0000   1.0000
     1.0000   1.0000   1.0000   1.0000   1.0000   1.0000   1.0000   1.0000
     1.0000   1.0000   1.0000   1.0000   1.0000   1.0000   1.0000   1.0000
     1.0000   1.0000   1.0000   1.0000   1.0000   1.0000   1.0000   1.0000
     1.0000   0.0000   0.0000   0.0000   0.0000   0.0000   0.0000   0.0000
     0.0000

          k = 0.1768 0.1768-0.1768 ( 28028 PWs)   bands (ev):

   -72.6722 -70.4475 -44.0314 -44.0314 -44.0314 -41.7628 -41.7628 -41.7628
   -17.5772 -17.3748 -17.3456 -17.3456 -17.3064 -17.3064  -8.2932  -7.0825
    -6.7018  -6.7018  -6.4626  -6.4626  -5.5250  -4.4491  -4.3465  -4.3465
    -4.3432  -4.3432  -3.7208  -3.7208  -3.6852  -3.3914  -3.3914  -3.1886
    -3.1013  -3.0574  -3.0574  -2.7280  -2.5876  -2.5876  -1.1894  -1.1679
    -1.1679   1.7526   1.7684   1.7684   3.0823   3.0823   4.0016   4.0016
     4.6682

     occupation numbers 
     1.0000   1.0000   1.0000   1.0000   1.0000   1.0000   1.0000   1.0000
     1.0000   1.0000   1.0000   1.0000   1.0000   1.0000   1.0000   1.0000
     1.0000   1.0000   1.0000   1.0000   1.0000   1.0000   1.0000   1.0000
     1.0000   1.0000   1.0000   1.0000   1.0000   1.0000   1.0000   1.0000
     1.0000   1.0000   1.0000   1.0000   1.0000   1.0000   1.0000   1.0000
     1.0000   0.0000   0.0000   0.0000   0.0000   0.0000   0.0000   0.0000
     0.0000

          k =-0.3536-0.3536 0.3536 ( 28096 PWs)   bands (ev):

   -72.6722 -70.4475 -44.0314 -44.0314 -44.0314 -41.7628 -41.7628 -41.7628
   -17.5505 -17.4037 -17.3356 -17.3356 -17.3167 -17.3167  -7.9810  -7.5971
    -6.7114  -6.7114  -6.4225  -6.4225  -5.1537  -4.5072  -4.2920  -4.2920
    -4.2307  -4.2307  -3.8078  -3.8078  -3.7732  -3.7190  -3.7190  -3.3044
    -2.9867  -2.9820  -2.9820  -2.8554  -2.5706  -2.5706  -1.0479  -1.0141
    -1.0141   1.7207   1.7540   1.7540   3.3484   3.3484   3.7396   3.7396
     4.5624

     occupation numbers 
     1.0000   1.0000   1.0000   1.0000   1.0000   1.0000   1.0000   1.0000
     1.0000   1.0000   1.0000   1.0000   1.0000   1.0000   1.0000   1.0000
     1.0000   1.0000   1.0000   1.0000   1.0000   1.0000   1.0000   1.0000
     1.0000   1.0000   1.0000   1.0000   1.0000   1.0000   1.0000   1.0000
     1.0000   1.0000   1.0000   1.0000   1.0000   1.0000   1.0000   1.0000
     1.0000   0.0000   0.0000   0.0000   0.0000   0.0000   0.0000   0.0000
     0.0000

          k = 0.3536 0.0000 0.0000 ( 28050 PWs)   bands (ev):

   -72.6722 -70.4475 -44.0314 -44.0314 -44.0314 -41.7628 -41.7628 -41.7628
   -17.5718 -17.3621 -17.3526 -17.3526 -17.3183 -17.2994  -8.2689  -7.1782
    -6.6879  -6.5668  -6.4736  -6.4736  -5.5414  -4.4463  -4.3675  -4.3525
    -4.3073  -4.3073  -4.0196  -3.6102  -3.6102  -3.4783  -3.4783  -3.1850
    -3.1600  -3.1600  -2.7787  -2.6527  -2.6113  -2.6113  -1.3390  -1.0571
    -1.0571   1.7806   1.8015   1.8015   2.9317   3.2376   3.8064   4.1689
     4.7603

     occupation numbers 
     1.0000   1.0000   1.0000   1.0000   1.0000   1.0000   1.0000   1.0000
     1.0000   1.0000   1.0000   1.0000   1.0000   1.0000   1.0000   1.0000
     1.0000   1.0000   1.0000   1.0000   1.0000   1.0000   1.0000   1.0000
     1.0000   1.0000   1.0000   1.0000   1.0000   1.0000   1.0000   1.0000
     1.0000   1.0000   1.0000   1.0000   1.0000   1.0000   1.0000   1.0000
     1.0000   0.0000   0.0000   0.0000   0.0000   0.0000   0.0000   0.0000
     0.0000

          k =-0.1768-0.5303 0.5303 ( 28062 PWs)   bands (ev):

   -72.6722 -70.4475 -44.0314 -44.0314 -44.0314 -41.7628 -41.7628 -41.7628
   -17.5470 -17.3887 -17.3465 -17.3452 -17.3264 -17.3058  -8.0341  -7.5526
    -6.7005  -6.5808  -6.4296  -6.4067  -5.2863  -4.4590  -4.3790  -4.3456
    -4.3165  -4.1739  -4.0380  -3.8319  -3.6599  -3.6570  -3.6427  -3.3807
    -3.1151  -3.0529  -2.8272  -2.7182  -2.5347  -2.5066  -1.1744  -0.9541
    -0.9429   1.7623   1.8340   1.8470   3.0909   3.2717   3.7616   4.0066
     4.6769

     occupation numbers 
     1.0000   1.0000   1.0000   1.0000   1.0000   1.0000   1.0000   1.0000
     1.0000   1.0000   1.0000   1.0000   1.0000   1.0000   1.0000   1.0000
     1.0000   1.0000   1.0000   1.0000   1.0000   1.0000   1.0000   1.0000
     1.0000   1.0000   1.0000   1.0000   1.0000   1.0000   1.0000   1.0000
     1.0000   1.0000   1.0000   1.0000   1.0000   1.0000   1.0000   1.0000
     1.0000   0.0000   0.0000   0.0000   0.0000   0.0000   0.0000   0.0000
     0.0000

          k = 0.0000-0.3536 0.3536 ( 28037 PWs)   bands (ev):

   -72.6722 -70.4475 -44.0314 -44.0314 -44.0314 -41.7628 -41.7628 -41.7628
   -17.5540 -17.3886 -17.3533 -17.3357 -17.3167 -17.3104  -8.0857  -7.4720
    -6.7120  -6.6250  -6.4400  -6.4214  -5.2862  -4.4268  -4.3697  -4.3641
    -4.2972  -4.1880  -4.0087  -3.8019  -3.6481  -3.6206  -3.4860  -3.4822
    -3.0536  -2.9833  -2.8996  -2.8302  -2.5927  -2.4855  -1.0713  -1.0425
    -1.0253   1.7426   1.7894   1.8138   3.0922   3.3468   3.7314   3.9770
     4.6626

     occupation numbers 
     1.0000   1.0000   1.0000   1.0000   1.0000   1.0000   1.0000   1.0000
     1.0000   1.0000   1.0000   1.0000   1.0000   1.0000   1.0000   1.0000
     1.0000   1.0000   1.0000   1.0000   1.0000   1.0000   1.0000   1.0000
     1.0000   1.0000   1.0000   1.0000   1.0000   1.0000   1.0000   1.0000
     1.0000   1.0000   1.0000   1.0000   1.0000   1.0000   1.0000   1.0000
     1.0000   0.0000   0.0000   0.0000   0.0000   0.0000   0.0000   0.0000
     0.0000

          k =-0.7071 0.0000 0.0000 ( 28090 PWs)   bands (ev):

   -72.6722 -70.4475 -44.0314 -44.0314 -44.0314 -41.7628 -41.7628 -41.7628
   -17.5431 -17.3569 -17.3547 -17.3533 -17.3533 -17.2989  -8.0778  -7.5154
    -6.6888  -6.4375  -6.4375  -6.3685  -5.4657  -4.4719  -4.4517  -4.3661
    -4.3506  -4.0723  -4.0723  -3.8461  -3.8461  -3.6273  -3.6273  -3.2111
    -3.2111  -3.2055  -2.6536  -2.6010  -2.6010  -2.3917  -1.3375  -0.8774
    -0.8774   1.7808   1.9428   1.9428   2.9343   3.2003   3.7887   4.1823
     4.6642

     occupation numbers 
     1.0000   1.0000   1.0000   1.0000   1.0000   1.0000   1.0000   1.0000
     1.0000   1.0000   1.0000   1.0000   1.0000   1.0000   1.0000   1.0000
     1.0000   1.0000   1.0000   1.0000   1.0000   1.0000   1.0000   1.0000
     1.0000   1.0000   1.0000   1.0000   1.0000   1.0000   1.0000   1.0000
     1.0000   1.0000   1.0000   1.0000   1.0000   1.0000   1.0000   1.0000
     1.0000   0.0000   0.0000   0.0000   0.0000   0.0000   0.0000   0.0000
     0.0000

          k =-0.7071 0.3536 0.0000 ( 28076 PWs)   bands (ev):

   -72.6722 -70.4475 -44.0314 -44.0314 -44.0314 -41.7628 -41.7628 -41.7628
   -17.5395 -17.3842 -17.3540 -17.3540 -17.3183 -17.3103  -7.9604  -7.6526
    -6.7041  -6.5189  -6.4041  -6.4041  -5.3050  -4.4581  -4.4125  -4.4125
    -4.2942  -4.1186  -3.9471  -3.9471  -3.8461  -3.6273  -3.4947  -3.4947
    -3.1537  -2.9436  -2.9436  -2.7602  -2.4436  -2.4436  -1.0566  -1.0566
    -0.8774   1.8013   1.8013   1.9428   3.1139   3.1499   3.9241   3.9243
     4.8246

     occupation numbers 
     1.0000   1.0000   1.0000   1.0000   1.0000   1.0000   1.0000   1.0000
     1.0000   1.0000   1.0000   1.0000   1.0000   1.0000   1.0000   1.0000
     1.0000   1.0000   1.0000   1.0000   1.0000   1.0000   1.0000   1.0000
     1.0000   1.0000   1.0000   1.0000   1.0000   1.0000   1.0000   1.0000
     1.0000   1.0000   1.0000   1.0000   1.0000   1.0000   1.0000   1.0000
     1.0000   0.0000   0.0000   0.0000   0.0000   0.0000   0.0000   0.0000
     0.0000

 ------ SPIN DOWN ----------


          k = 0.0000 0.0000 0.0000 ( 27941 PWs)   bands (ev):

   -73.3019 -69.9500 -44.6474 -44.6474 -44.6474 -41.2730 -41.2730 -41.2730
   -17.5505 -17.3038 -17.3038 -17.3038 -17.2509 -17.2509  -8.4875  -6.8135
    -6.8135  -6.4946  -6.4946  -6.4946  -5.9527  -4.5153  -4.5153  -4.5153
    -4.1147  -4.1147  -3.5536  -3.5536  -3.5536  -3.1206  -3.1206  -3.1206
    -3.0494  -3.0494  -3.0494  -2.6048  -2.6048  -2.6048  -1.3762  -1.3762
    -1.3762   1.5350   1.5350   1.5350   2.2868   2.2868   4.5834   4.5834
     4.7460

     occupation numbers 
     1.0000   1.0000   1.0000   1.0000   1.0000   1.0000   1.0000   1.0000
     1.0000   1.0000   1.0000   1.0000   1.0000   1.0000   1.0000   1.0000
     1.0000   1.0000   1.0000   1.0000   1.0000   1.0000   1.0000   1.0000
     1.0000   1.0000   1.0000   1.0000   1.0000   1.0000   1.0000   1.0000
     1.0000   1.0000   1.0000   1.0000   1.0000   1.0000   1.0000   1.0000
     1.0000   0.0000   0.0000   0.0000   0.0000   0.0000   0.0000   0.0000
     0.0000

          k = 0.1768 0.1768-0.1768 ( 28028 PWs)   bands (ev):

   -73.3019 -69.9500 -44.6474 -44.6474 -44.6474 -41.2730 -41.2730 -41.2730
   -17.5291 -17.3274 -17.2972 -17.2972 -17.2577 -17.2577  -8.3378  -7.0340
    -6.8398  -6.8398  -6.4296  -6.4296  -5.4417  -4.5261  -4.4371  -4.4371
    -4.1341  -4.1341  -3.6551  -3.6551  -3.5994  -3.3560  -3.3560  -3.2466
    -3.0550  -3.0096  -3.0096  -2.6839  -2.5636  -2.5636  -1.1771  -1.1771
    -1.1707   1.4496   1.4859   1.4859   2.3669   2.3669   4.4990   4.4992
     4.7650

     occupation numbers 
     1.0000   1.0000   1.0000   1.0000   1.0000   1.0000   1.0000   1.0000
     1.0000   1.0000   1.0000   1.0000   1.0000   1.0000   1.0000   1.0000
     1.0000   1.0000   1.0000   1.0000   1.0000   1.0000   1.0000   1.0000
     1.0000   1.0000   1.0000   1.0000   1.0000   1.0000   1.0000   1.0000
     1.0000   1.0000   1.0000   1.0000   1.0000   1.0000   1.0000   1.0000
     1.0000   0.0000   0.0000   0.0000   0.0000   0.0000   0.0000   0.0000
     0.0000

          k =-0.3536-0.3536 0.3536 ( 28096 PWs)   bands (ev):

   -73.3019 -69.9500 -44.6474 -44.6474 -44.6474 -41.2730 -41.2730 -41.2730
   -17.5011 -17.3578 -17.2867 -17.2867 -17.2685 -17.2685  -8.0844  -7.4875
    -6.8595  -6.8595  -6.3693  -6.3693  -5.0495  -4.6008  -4.3707  -4.3707
    -4.0192  -4.0192  -3.8640  -3.8640  -3.6052  -3.6052  -3.5888  -3.4861
    -2.9277  -2.8868  -2.8868  -2.8247  -2.5849  -2.5849  -0.9984  -0.9984
    -0.9766   1.3534   1.4313   1.4313   2.4588   2.4588   4.4187   4.4187
     4.7907

     occupation numbers 
     1.0000   1.0000   1.0000   1.0000   1.0000   1.0000   1.0000   1.0000
     1.0000   1.0000   1.0000   1.0000   1.0000   1.0000   1.0000   1.0000
     1.0000   1.0000   1.0000   1.0000   1.0000   1.0000   1.0000   1.0000
     1.0000   1.0000   1.0000   1.0000   1.0000   1.0000   1.0000   1.0000
     1.0000   1.0000   1.0000   1.0000   1.0000   1.0000   1.0000   1.0000
     1.0000   0.0000   0.0000   0.0000   0.0000   0.0000   0.0000   0.0000
     0.0000

          k = 0.3536 0.0000 0.0000 ( 28050 PWs)   bands (ev):

   -73.3019 -69.9500 -44.6474 -44.6474 -44.6474 -41.2730 -41.2730 -41.2730
   -17.5235 -17.3145 -17.3044 -17.3044 -17.2700 -17.2505  -8.3144  -7.1903
    -6.8143  -6.6140  -6.4600  -6.4600  -5.4720  -4.5203  -4.3940  -4.3940
    -4.2416  -4.1127  -3.8807  -3.5980  -3.5980  -3.4234  -3.4234  -3.1418
    -3.1174  -3.1174  -2.7562  -2.6056  -2.5778  -2.5778  -1.3763  -1.0520
    -1.0520   1.4937   1.4937   1.5374   2.2867   2.4214   4.3795   4.6032
     4.7315

     occupation numbers 
     1.0000   1.0000   1.0000   1.0000   1.0000   1.0000   1.0000   1.0000
     1.0000   1.0000   1.0000   1.0000   1.0000   1.0000   1.0000   1.0000
     1.0000   1.0000   1.0000   1.0000   1.0000   1.0000   1.0000   1.0000
     1.0000   1.0000   1.0000   1.0000   1.0000   1.0000   1.0000   1.0000
     1.0000   1.0000   1.0000   1.0000   1.0000   1.0000   1.0000   1.0000
     1.0000   0.0000   0.0000   0.0000   0.0000   0.0000   0.0000   0.0000
     0.0000

          k =-0.1768-0.5303 0.5303 ( 28062 PWs)   bands (ev):

   -73.3019 -69.9500 -44.6474 -44.6474 -44.6474 -41.2730 -41.2730 -41.2730
   -17.4975 -17.3424 -17.2981 -17.2967 -17.2784 -17.2571  -8.1135  -7.5093
    -6.8387  -6.6536  -6.3948  -6.3727  -5.2523  -4.5270  -4.4173  -4.2828
    -4.1349  -4.0608  -4.0235  -3.9193  -3.7725  -3.5142  -3.4707  -3.3388
    -3.0507  -3.0035  -2.7856  -2.6905  -2.5138  -2.4865  -1.1745  -0.9402
    -0.9342   1.4656   1.5081   1.5261   2.3694   2.4243   4.3829   4.5147
     4.7763

     occupation numbers 
     1.0000   1.0000   1.0000   1.0000   1.0000   1.0000   1.0000   1.0000
     1.0000   1.0000   1.0000   1.0000   1.0000   1.0000   1.0000   1.0000
     1.0000   1.0000   1.0000   1.0000   1.0000   1.0000   1.0000   1.0000
     1.0000   1.0000   1.0000   1.0000   1.0000   1.0000   1.0000   1.0000
     1.0000   1.0000   1.0000   1.0000   1.0000   1.0000   1.0000   1.0000
     1.0000   0.0000   0.0000   0.0000   0.0000   0.0000   0.0000   0.0000
     0.0000

          k = 0.0000-0.3536 0.3536 ( 28037 PWs)   bands (ev):

   -73.3019 -69.9500 -44.6474 -44.6474 -44.6474 -41.2730 -41.2730 -41.2730
   -17.5049 -17.3422 -17.3051 -17.2868 -17.2685 -17.2618  -8.1559  -7.4248
    -6.8597  -6.7104  -6.4256  -6.3688  -5.2137  -4.4937  -4.4761  -4.3017
    -4.1623  -4.1040  -3.9054  -3.7862  -3.6345  -3.5929  -3.4259  -3.4133
    -3.0079  -2.8948  -2.8948  -2.7816  -2.5996  -2.4583  -1.0548  -1.0487
    -0.9910   1.4047   1.4695   1.5202   2.3653   2.4573   4.4002   4.4860
     4.8136

     occupation numbers 
     1.0000   1.0000   1.0000   1.0000   1.0000   1.0000   1.0000   1.0000
     1.0000   1.0000   1.0000   1.0000   1.0000   1.0000   1.0000   1.0000
     1.0000   1.0000   1.0000   1.0000   1.0000   1.0000   1.0000   1.0000
     1.0000   1.0000   1.0000   1.0000   1.0000   1.0000   1.0000   1.0000
     1.0000   1.0000   1.0000   1.0000   1.0000   1.0000   1.0000   1.0000
     1.0000   0.0000   0.0000   0.0000   0.0000   0.0000   0.0000   0.0000
     0.0000

          k =-0.7071 0.0000 0.0000 ( 28090 PWs)   bands (ev):

   -73.3019 -69.9500 -44.6474 -44.6474 -44.6474 -41.2730 -41.2730 -41.2730
   -17.4936 -17.3105 -17.3065 -17.3051 -17.3051 -17.2500  -8.1423  -7.5148
    -6.8152  -6.4231  -6.4231  -6.3524  -5.5228  -4.5252  -4.3484  -4.1671
    -4.1107  -4.0867  -4.0867  -4.0513  -4.0513  -3.4233  -3.4233  -3.1629
    -3.1603  -3.1603  -2.6065  -2.5718  -2.5718  -2.3519  -1.3763  -0.8855
    -0.8855   1.5400   1.6224   1.6224   2.2866   2.3897   4.3743   4.6098
     4.6223

     occupation numbers 
     1.0000   1.0000   1.0000   1.0000   1.0000   1.0000   1.0000   1.0000
     1.0000   1.0000   1.0000   1.0000   1.0000   1.0000   1.0000   1.0000
     1.0000   1.0000   1.0000   1.0000   1.0000   1.0000   1.0000   1.0000
     1.0000   1.0000   1.0000   1.0000   1.0000   1.0000   1.0000   1.0000
     1.0000   1.0000   1.0000   1.0000   1.0000   1.0000   1.0000   1.0000
     1.0000   0.0000   0.0000   0.0000   0.0000   0.0000   0.0000   0.0000
     0.0000

          k =-0.7071 0.3536 0.0000 ( 28076 PWs)   bands (ev):

   -73.3019 -69.9500 -44.6474 -44.6474 -44.6474 -41.2730 -41.2730 -41.2730
   -17.4897 -17.3381 -17.3058 -17.3058 -17.2696 -17.2619  -8.0596  -7.5983
    -6.8448  -6.5342  -6.3889  -6.3889  -5.3080  -4.4662  -4.4662  -4.1961
    -4.1247  -4.0866  -4.0210  -3.9858  -3.9858  -3.4234  -3.4214  -3.4214
    -3.0651  -2.9005  -2.9005  -2.7643  -2.4133  -2.4133  -1.0513  -1.0513
    -0.8855   1.4953   1.4953   1.6224   2.3630   2.3953   4.4400   4.4726
     4.8591

     occupation numbers 
     1.0000   1.0000   1.0000   1.0000   1.0000   1.0000   1.0000   1.0000
     1.0000   1.0000   1.0000   1.0000   1.0000   1.0000   1.0000   1.0000
     1.0000   1.0000   1.0000   1.0000   1.0000   1.0000   1.0000   1.0000
     1.0000   1.0000   1.0000   1.0000   1.0000   1.0000   1.0000   1.0000
     1.0000   1.0000   1.0000   1.0000   1.0000   1.0000   1.0000   1.0000
     1.0000   0.0000   0.0000   0.0000   0.0000   0.0000   0.0000   0.0000
     0.0000

     the Fermi energy is     0.5693 ev

!    total energy              =    -552.61456382 Ry
     estimated scf accuracy    <       0.00000009 Ry
     smearing contrib. (-TS)   =      -0.00000000 Ry
     internal energy E=F+TS    =    -552.61456382 Ry

     total magnetization       =    -0.00 Bohr mag/cell
     absolute magnetization    =     6.99 Bohr mag/cell

     convergence has been achieved in  18 iterations

     Using ACE for calculation of exact exchange

     EXX grid:    79231 G-vectors     FFT dimensions: (  60,  60,  60)
     ACE projected onto    49 (nbndproj) and applied to    49 (nbnd) bands

     EXX: now go back to refine exchange calculation

     total cpu time spent up to now is      428.8 secs

     per-process dynamical memory:  1879.7 Mb

     Self-consistent Calculation

     iteration #  1     ecut=    90.00 Ry     beta= 0.30
     Davidson diagonalization with overlap

---- Real-time Memory Report at c_bands before calling an iterative solver
          2013 MiB given to the printing process from OS
          1835 MiB allocation reported by mallinfo(arena+hblkhd)
        577604 MiB available memory on the node where the printing process lives
------------------
     ethr =  2.01E-10,  avg # of iterations = 15.2

     total cpu time spent up to now is      439.5 secs

     total energy              =    -547.01596819 Ry
     estimated scf accuracy    <       0.02243046 Ry

     total magnetization       =     0.00 Bohr mag/cell
     absolute magnetization    =     7.31 Bohr mag/cell

     iteration #  2     ecut=    90.00 Ry     beta= 0.30
     Davidson diagonalization with overlap

---- Real-time Memory Report at c_bands before calling an iterative solver
          2013 MiB given to the printing process from OS
          1840 MiB allocation reported by mallinfo(arena+hblkhd)
        577392 MiB available memory on the node where the printing process lives
------------------
     ethr =  2.74E-05,  avg # of iterations =  1.0

     total cpu time spent up to now is      442.2 secs

     total energy              =    -547.01151473 Ry
     estimated scf accuracy    <       0.01128973 Ry

     total magnetization       =     0.00 Bohr mag/cell
     absolute magnetization    =     7.33 Bohr mag/cell

     iteration #  3     ecut=    90.00 Ry     beta= 0.30
     Davidson diagonalization with overlap

---- Real-time Memory Report at c_bands before calling an iterative solver
          2013 MiB given to the printing process from OS
          1842 MiB allocation reported by mallinfo(arena+hblkhd)
        577378 MiB available memory on the node where the printing process lives
------------------
     ethr =  1.38E-05,  avg # of iterations =  2.4

     total cpu time spent up to now is      445.4 secs

     total energy              =    -547.01334836 Ry
     estimated scf accuracy    <       0.00062729 Ry

     total magnetization       =     0.00 Bohr mag/cell
     absolute magnetization    =     7.40 Bohr mag/cell

     iteration #  4     ecut=    90.00 Ry     beta= 0.30
     Davidson diagonalization with overlap

---- Real-time Memory Report at c_bands before calling an iterative solver
          2013 MiB given to the printing process from OS
          1844 MiB allocation reported by mallinfo(arena+hblkhd)
        577365 MiB available memory on the node where the printing process lives
------------------
     ethr =  7.65E-07,  avg # of iterations =  2.0

     total cpu time spent up to now is      448.4 secs

     total energy              =    -547.01331930 Ry
     estimated scf accuracy    <       0.00022203 Ry

     total magnetization       =     0.00 Bohr mag/cell
     absolute magnetization    =     7.40 Bohr mag/cell

     iteration #  5     ecut=    90.00 Ry     beta= 0.30
     Davidson diagonalization with overlap

---- Real-time Memory Report at c_bands before calling an iterative solver
          2013 MiB given to the printing process from OS
          1846 MiB allocation reported by mallinfo(arena+hblkhd)
        577351 MiB available memory on the node where the printing process lives
------------------
     ethr =  2.71E-07,  avg # of iterations =  2.0

     total cpu time spent up to now is      451.7 secs

     total energy              =    -547.01333114 Ry
     estimated scf accuracy    <       0.00003670 Ry

     total magnetization       =    -0.00 Bohr mag/cell
     absolute magnetization    =     7.41 Bohr mag/cell

     iteration #  6     ecut=    90.00 Ry     beta= 0.30
     Davidson diagonalization with overlap

---- Real-time Memory Report at c_bands before calling an iterative solver
          2013 MiB given to the printing process from OS
          1847 MiB allocation reported by mallinfo(arena+hblkhd)
        577337 MiB available memory on the node where the printing process lives
------------------
     ethr =  4.48E-08,  avg # of iterations =  2.1

     total cpu time spent up to now is      454.6 secs

     total energy              =    -547.01332943 Ry
     estimated scf accuracy    <       0.00001012 Ry

     total magnetization       =    -0.00 Bohr mag/cell
     absolute magnetization    =     7.41 Bohr mag/cell

     iteration #  7     ecut=    90.00 Ry     beta= 0.30
     Davidson diagonalization with overlap

---- Real-time Memory Report at c_bands before calling an iterative solver
          2013 MiB given to the printing process from OS
          1849 MiB allocation reported by mallinfo(arena+hblkhd)
        577324 MiB available memory on the node where the printing process lives
------------------
     ethr =  1.23E-08,  avg # of iterations =  2.2

     total cpu time spent up to now is      457.8 secs

     total energy              =    -547.01333030 Ry
     estimated scf accuracy    <       0.00000151 Ry

     total magnetization       =    -0.00 Bohr mag/cell
     absolute magnetization    =     7.41 Bohr mag/cell

     iteration #  8     ecut=    90.00 Ry     beta= 0.30
     Davidson diagonalization with overlap

---- Real-time Memory Report at c_bands before calling an iterative solver
          2013 MiB given to the printing process from OS
          1851 MiB allocation reported by mallinfo(arena+hblkhd)
        577310 MiB available memory on the node where the printing process lives
------------------
     ethr =  1.84E-09,  avg # of iterations =  3.3

     total cpu time spent up to now is      461.1 secs

     total energy              =    -547.01333063 Ry
     estimated scf accuracy    <       0.00000020 Ry

     total magnetization       =     0.00 Bohr mag/cell
     absolute magnetization    =     7.41 Bohr mag/cell

     iteration #  9     ecut=    90.00 Ry     beta= 0.30
     Davidson diagonalization with overlap

---- Real-time Memory Report at c_bands before calling an iterative solver
          2013 MiB given to the printing process from OS
          1852 MiB allocation reported by mallinfo(arena+hblkhd)
        577296 MiB available memory on the node where the printing process lives
------------------
     ethr =  2.48E-10,  avg # of iterations =  2.8

     Magnetic moment per site  (integrated on atomic sphere of radius R)
     atom   1 (R=0.112)  charge= 10.8512  magn= -2.3761
     atom   2 (R=0.115)  charge= 11.0445  magn=  2.3271
     atom   3 (R=0.065)  charge=  0.9964  magn= -0.0409
     atom   4 (R=0.065)  charge=  0.9964  magn= -0.0409
     atom   5 (R=0.065)  charge=  0.9964  magn= -0.0409
     atom   6 (R=0.065)  charge=  0.9964  magn= -0.0409
     atom   7 (R=0.065)  charge=  0.9964  magn= -0.0409
     atom   8 (R=0.065)  charge=  0.9964  magn= -0.0409
     atom   9 (R=0.065)  charge=  1.8139  magn=  0.0558
     atom  10 (R=0.065)  charge=  1.8139  magn=  0.0558
     atom  11 (R=0.065)  charge=  1.8139  magn=  0.0558
     atom  12 (R=0.065)  charge=  1.8139  magn=  0.0558
     atom  13 (R=0.065)  charge=  1.8139  magn=  0.0558
     atom  14 (R=0.065)  charge=  1.8139  magn=  0.0558

     total cpu time spent up to now is      463.8 secs

     End of self-consistent calculation

 ------ SPIN UP ------------


          k = 0.0000 0.0000 0.0000 ( 27941 PWs)   bands (ev):

   -78.2317 -75.2369 -48.2393 -48.2393 -48.2393 -44.8494 -44.8494 -44.8494
   -20.1599 -19.8851 -19.8851 -19.8851 -19.8308 -19.8308 -10.1692  -8.1919
    -8.1919  -8.0149  -8.0149  -8.0149  -7.4944  -5.6307  -5.6307  -5.6307
    -5.5496  -5.5496  -4.7174  -4.7170  -4.7170  -4.1450  -4.1450  -4.1450
    -4.0718  -4.0718  -4.0718  -3.5790  -3.5790  -3.5790  -2.9201  -2.9201
    -2.9201   2.7607   2.7607   2.7607   3.7741   3.7741   5.3005   5.3005
     5.5257

     occupation numbers 
     1.0000   1.0000   1.0000   1.0000   1.0000   1.0000   1.0000   1.0000
     1.0000   1.0000   1.0000   1.0000   1.0000   1.0000   1.0000   1.0000
     1.0000   1.0000   1.0000   1.0000   1.0000   1.0000   1.0000   1.0000
     1.0000   1.0000   1.0000   1.0000   1.0000   1.0000   1.0000   1.0000
     1.0000   1.0000   1.0000   1.0000   1.0000   1.0000   1.0000   1.0000
     1.0000   0.0000   0.0000   0.0000   0.0000   0.0000   0.0000   0.0000
     0.0000

          k = 0.1768 0.1768-0.1768 ( 28028 PWs)   bands (ev):

   -78.2206 -75.2395 -48.2270 -48.2252 -48.2252 -44.8529 -44.8529 -44.8520
   -20.1377 -19.9112 -19.8790 -19.8790 -19.8385 -19.8385  -9.9918  -8.6540
    -8.2045  -8.2045  -7.9730  -7.9730  -6.9070  -5.6258  -5.5402  -5.5402
    -5.5149  -5.5149  -4.8649  -4.8649  -4.8535  -4.4376  -4.4376  -4.2223
    -4.0767  -4.0427  -4.0427  -3.6627  -3.5215  -3.5215  -2.7313  -2.7017
    -2.7017   2.7807   2.8200   2.8200   3.9086   3.9086   5.1569   5.1570
     5.3073

     occupation numbers 
     1.0000   1.0000   1.0000   1.0000   1.0000   1.0000   1.0000   1.0000
     1.0000   1.0000   1.0000   1.0000   1.0000   1.0000   1.0000   1.0000
     1.0000   1.0000   1.0000   1.0000   1.0000   1.0000   1.0000   1.0000
     1.0000   1.0000   1.0000   1.0000   1.0000   1.0000   1.0000   1.0000
     1.0000   1.0000   1.0000   1.0000   1.0000   1.0000   1.0000   1.0000
     1.0000   0.0000   0.0000   0.0000   0.0000   0.0000   0.0000   0.0000
     0.0000

          k =-0.3536-0.3536 0.3536 ( 28096 PWs)   bands (ev):

   -78.2127 -75.2406 -48.2181 -48.2152 -48.2152 -44.8545 -44.8545 -44.8529
   -20.1087 -19.9442 -19.8688 -19.8688 -19.8504 -19.8504  -9.6354  -9.2377
    -8.2122  -8.2122  -7.9348  -7.9348  -6.4983  -5.6663  -5.4955  -5.4955
    -5.3502  -5.3502  -5.0159  -5.0159  -4.9943  -4.7786  -4.7786  -4.3467
    -3.9620  -3.9620  -3.9542  -3.8005  -3.5035  -3.5035  -2.5788  -2.5360
    -2.5360   2.8092   2.8842   2.8842   4.0983   4.0983   4.9683   4.9683
     5.1301

     occupation numbers 
     1.0000   1.0000   1.0000   1.0000   1.0000   1.0000   1.0000   1.0000
     1.0000   1.0000   1.0000   1.0000   1.0000   1.0000   1.0000   1.0000
     1.0000   1.0000   1.0000   1.0000   1.0000   1.0000   1.0000   1.0000
     1.0000   1.0000   1.0000   1.0000   1.0000   1.0000   1.0000   1.0000
     1.0000   1.0000   1.0000   1.0000   1.0000   1.0000   1.0000   1.0000
     1.0000   0.0000   0.0000   0.0000   0.0000   0.0000   0.0000   0.0000
     0.0000

          k = 0.3536 0.0000 0.0000 ( 28050 PWs)   bands (ev):

   -78.2195 -75.2396 -48.2274 -48.2274 -48.2186 -44.8539 -44.8522 -44.8522
   -20.1320 -19.8984 -19.8866 -19.8866 -19.8514 -19.8312  -9.9647  -8.7544
    -8.1933  -8.0713  -7.9801  -7.9801  -6.9194  -5.6356  -5.5610  -5.5460
    -5.4694  -5.4694  -5.1802  -4.7695  -4.7695  -4.5297  -4.5297  -4.1693
    -4.1528  -4.1528  -3.7608  -3.5802  -3.5671  -3.5671  -2.9153  -2.5609
    -2.5609   2.7616   2.9038   2.9039   3.7832   4.0148   4.9806   5.3170
     5.4955

     occupation numbers 
     1.0000   1.0000   1.0000   1.0000   1.0000   1.0000   1.0000   1.0000
     1.0000   1.0000   1.0000   1.0000   1.0000   1.0000   1.0000   1.0000
     1.0000   1.0000   1.0000   1.0000   1.0000   1.0000   1.0000   1.0000
     1.0000   1.0000   1.0000   1.0000   1.0000   1.0000   1.0000   1.0000
     1.0000   1.0000   1.0000   1.0000   1.0000   1.0000   1.0000   1.0000
     1.0000   0.0000   0.0000   0.0000   0.0000   0.0000   0.0000   0.0000
     0.0000

          k =-0.1768-0.5303 0.5303 ( 28062 PWs)   bands (ev):

   -78.2128 -75.2410 -48.2188 -48.2176 -48.2126 -44.8553 -44.8545 -44.8538
   -20.1052 -19.9282 -19.8805 -19.8795 -19.8609 -19.8384  -9.6995  -9.1785
    -8.2034  -8.0821  -7.9386  -7.9142  -6.6302  -5.6376  -5.5841  -5.5112
    -5.5038  -5.3065  -5.1914  -4.9722  -4.8510  -4.7772  -4.7090  -4.4277
    -4.1033  -4.0306  -3.7843  -3.6993  -3.4778  -3.4678  -2.7090  -2.4453
    -2.4309   2.8057   2.9929   3.0239   3.9232   4.0354   4.9653   5.1623
     5.3251

     occupation numbers 
     1.0000   1.0000   1.0000   1.0000   1.0000   1.0000   1.0000   1.0000
     1.0000   1.0000   1.0000   1.0000   1.0000   1.0000   1.0000   1.0000
     1.0000   1.0000   1.0000   1.0000   1.0000   1.0000   1.0000   1.0000
     1.0000   1.0000   1.0000   1.0000   1.0000   1.0000   1.0000   1.0000
     1.0000   1.0000   1.0000   1.0000   1.0000   1.0000   1.0000   1.0000
     1.0000   0.0000   0.0000   0.0000   0.0000   0.0000   0.0000   0.0000
     0.0000

          k = 0.0000-0.3536 0.3536 ( 28037 PWs)   bands (ev):

   -78.2132 -75.2408 -48.2176 -48.2172 -48.2156 -44.8548 -44.8544 -44.8537
   -20.1127 -19.9278 -19.8881 -19.8687 -19.8502 -19.8435  -9.7583  -9.0890
    -8.2130  -8.1296  -7.9456  -7.9335  -6.6366  -5.5970  -5.5730  -5.5114
    -5.4900  -5.3434  -5.1506  -5.0125  -4.7939  -4.7031  -4.5733  -4.5213
    -4.0344  -3.9594  -3.8874  -3.7839  -3.5315  -3.4391  -2.5764  -2.5521
    -2.5422   2.8577   2.8756   2.9329   3.9158   4.0971   4.9491   5.1417
     5.2673

     occupation numbers 
     1.0000   1.0000   1.0000   1.0000   1.0000   1.0000   1.0000   1.0000
     1.0000   1.0000   1.0000   1.0000   1.0000   1.0000   1.0000   1.0000
     1.0000   1.0000   1.0000   1.0000   1.0000   1.0000   1.0000   1.0000
     1.0000   1.0000   1.0000   1.0000   1.0000   1.0000   1.0000   1.0000
     1.0000   1.0000   1.0000   1.0000   1.0000   1.0000   1.0000   1.0000
     1.0000   0.0000   0.0000   0.0000   0.0000   0.0000   0.0000   0.0000
     0.0000

          k =-0.7071 0.0000 0.0000 ( 28090 PWs)   bands (ev):

   -78.2169 -75.2398 -48.2248 -48.2248 -48.2143 -44.8543 -44.8523 -44.8523
   -20.1012 -19.8962 -19.8902 -19.8877 -19.8877 -19.8311  -9.7500  -9.1309
    -8.1941  -7.9424  -7.9424  -7.8712  -6.8051  -5.6946  -5.6407  -5.5424
    -5.5300  -5.2128  -5.2128  -4.8761  -4.8761  -4.8587  -4.8587  -4.2071
    -4.2071  -4.1918  -3.5813  -3.5807  -3.5807  -3.3634  -2.9136  -2.3497
    -2.3497   2.7631   3.1797   3.1797   3.7900   3.9726   4.9933   5.3337
     5.3597

     occupation numbers 
     1.0000   1.0000   1.0000   1.0000   1.0000   1.0000   1.0000   1.0000
     1.0000   1.0000   1.0000   1.0000   1.0000   1.0000   1.0000   1.0000
     1.0000   1.0000   1.0000   1.0000   1.0000   1.0000   1.0000   1.0000
     1.0000   1.0000   1.0000   1.0000   1.0000   1.0000   1.0000   1.0000
     1.0000   1.0000   1.0000   1.0000   1.0000   1.0000   1.0000   1.0000
     1.0000   0.0000   0.0000   0.0000   0.0000   0.0000   0.0000   0.0000
     0.0000

          k =-0.7071 0.3536 0.0000 ( 28076 PWs)   bands (ev):

   -78.2121 -75.2411 -48.2166 -48.2149 -48.2149 -44.8547 -44.8547 -44.8543
   -20.0972 -19.9240 -19.8892 -19.8892 -19.8517 -19.8436  -9.6142  -9.2922
    -8.2063  -8.0273  -7.9082  -7.9082  -6.6400  -5.6784  -5.5813  -5.5809
    -5.4890  -5.2608  -5.0900  -5.0897  -4.8756  -4.8589  -4.5780  -4.5778
    -4.1552  -3.9142  -3.9141  -3.7320  -3.4066  -3.4066  -2.5606  -2.5590
    -2.3484   2.8914   2.9038   3.1793   3.9210   3.9734   5.0908   5.0925
     5.5757

     occupation numbers 
     1.0000   1.0000   1.0000   1.0000   1.0000   1.0000   1.0000   1.0000
     1.0000   1.0000   1.0000   1.0000   1.0000   1.0000   1.0000   1.0000
     1.0000   1.0000   1.0000   1.0000   1.0000   1.0000   1.0000   1.0000
     1.0000   1.0000   1.0000   1.0000   1.0000   1.0000   1.0000   1.0000
     1.0000   1.0000   1.0000   1.0000   1.0000   1.0000   1.0000   1.0000
     1.0000   0.0000   0.0000   0.0000   0.0000   0.0000   0.0000   0.0000
     0.0000

 ------ SPIN DOWN ----------


          k = 0.0000 0.0000 0.0000 ( 27941 PWs)   bands (ev):

   -78.9341 -74.7047 -48.9304 -48.9304 -48.9304 -44.3348 -44.3348 -44.3348
   -20.0863 -19.8126 -19.8126 -19.8126 -19.7570 -19.7570 -10.1861  -8.2947
    -8.2947  -7.9667  -7.9667  -7.9667  -7.3859  -5.8295  -5.8295  -5.8295
    -5.2822  -5.2822  -4.6905  -4.6902  -4.6902  -4.0672  -4.0672  -4.0672
    -4.0312  -4.0310  -4.0310  -3.4930  -3.4930  -3.4930  -3.0287  -3.0287
    -3.0287   2.3836   2.3836   2.3836   3.2064   3.2064   5.4757   5.6562
     5.6562

     occupation numbers 
     1.0000   1.0000   1.0000   1.0000   1.0000   1.0000   1.0000   1.0000
     1.0000   1.0000   1.0000   1.0000   1.0000   1.0000   1.0000   1.0000
     1.0000   1.0000   1.0000   1.0000   1.0000   1.0000   1.0000   1.0000
     1.0000   1.0000   1.0000   1.0000   1.0000   1.0000   1.0000   1.0000
     1.0000   1.0000   1.0000   1.0000   1.0000   1.0000   1.0000   1.0000
     1.0000   0.0000   0.0000   0.0000   0.0000   0.0000   0.0000   0.0000
     0.0000

          k = 0.1768 0.1768-0.1768 ( 28028 PWs)   bands (ev):

   -78.9192 -74.7081 -48.9140 -48.9114 -48.9114 -44.3393 -44.3393 -44.3386
   -20.0629 -19.8403 -19.8062 -19.8062 -19.7651 -19.7651 -10.0166  -8.5887
    -8.3241  -8.3241  -7.8971  -7.8971  -6.7948  -5.8327  -5.7510  -5.7510
    -5.3018  -5.3018  -4.8105  -4.8105  -4.7533  -4.3616  -4.3616  -4.3250
    -3.9947  -3.9588  -3.9588  -3.5819  -3.4728  -3.4728  -2.7748  -2.7748
    -2.7485   2.3304   2.3883   2.3883   3.2908   3.2908   5.4531   5.5549
     5.5558

     occupation numbers 
     1.0000   1.0000   1.0000   1.0000   1.0000   1.0000   1.0000   1.0000
     1.0000   1.0000   1.0000   1.0000   1.0000   1.0000   1.0000   1.0000
     1.0000   1.0000   1.0000   1.0000   1.0000   1.0000   1.0000   1.0000
     1.0000   1.0000   1.0000   1.0000   1.0000   1.0000   1.0000   1.0000
     1.0000   1.0000   1.0000   1.0000   1.0000   1.0000   1.0000   1.0000
     1.0000   0.0000   0.0000   0.0000   0.0000   0.0000   0.0000   0.0000
     0.0000

          k =-0.3536-0.3536 0.3536 ( 28096 PWs)   bands (ev):

   -78.9108 -74.7087 -48.9045 -48.9009 -48.9009 -44.3403 -44.3403 -44.3392
   -20.0317 -19.8760 -19.7954 -19.7954 -19.7780 -19.7780  -9.7159  -9.1177
    -8.3455  -8.3455  -7.8328  -7.8328  -6.3338  -5.9139  -5.6825  -5.6825
    -5.1563  -5.1563  -5.0902  -5.0902  -4.7952  -4.6061  -4.6061  -4.5910
    -3.8522  -3.8176  -3.8176  -3.7408  -3.5113  -3.5113  -2.5942  -2.5942
    -2.5450   2.2787   2.3971   2.3971   3.3869   3.3869   5.4335   5.4764
     5.4764

     occupation numbers 
     1.0000   1.0000   1.0000   1.0000   1.0000   1.0000   1.0000   1.0000
     1.0000   1.0000   1.0000   1.0000   1.0000   1.0000   1.0000   1.0000
     1.0000   1.0000   1.0000   1.0000   1.0000   1.0000   1.0000   1.0000
     1.0000   1.0000   1.0000   1.0000   1.0000   1.0000   1.0000   1.0000
     1.0000   1.0000   1.0000   1.0000   1.0000   1.0000   1.0000   1.0000
     1.0000   0.0000   0.0000   0.0000   0.0000   0.0000   0.0000   0.0000
     0.0000

          k = 0.3536 0.0000 0.0000 ( 28050 PWs)   bands (ev):

   -78.9180 -74.7081 -48.9147 -48.9147 -48.9030 -44.3405 -44.3383 -44.3383
   -20.0569 -19.8268 -19.8144 -19.8144 -19.7786 -19.7577  -9.9900  -8.7489
    -8.2954  -8.0911  -7.9302  -7.9302  -6.8242  -5.8326  -5.7043  -5.7043
    -5.4199  -5.2793  -5.0518  -4.7811  -4.7811  -4.4185  -4.4185  -4.0934
    -4.0721  -4.0721  -3.7172  -3.5045  -3.5045  -3.4944  -3.0254  -2.6247
    -2.6247   2.3879   2.4327   2.4327   3.2119   3.3465   5.3014   5.5844
     5.6854

     occupation numbers 
     1.0000   1.0000   1.0000   1.0000   1.0000   1.0000   1.0000   1.0000
     1.0000   1.0000   1.0000   1.0000   1.0000   1.0000   1.0000   1.0000
     1.0000   1.0000   1.0000   1.0000   1.0000   1.0000   1.0000   1.0000
     1.0000   1.0000   1.0000   1.0000   1.0000   1.0000   1.0000   1.0000
     1.0000   1.0000   1.0000   1.0000   1.0000   1.0000   1.0000   1.0000
     1.0000   0.0000   0.0000   0.0000   0.0000   0.0000   0.0000   0.0000
     0.0000

          k =-0.1768-0.5303 0.5303 ( 28062 PWs)   bands (ev):

   -78.9100 -74.7096 -48.9042 -48.9025 -48.8967 -44.3417 -44.3408 -44.3404
   -20.0281 -19.8592 -19.8079 -19.8068 -19.7887 -19.7652  -9.7544  -9.1248
    -8.3224  -8.1309  -7.8601  -7.8366  -6.5622  -5.8283  -5.7045  -5.5933
    -5.3203  -5.2350  -5.2291  -5.1115  -4.9984  -4.5025  -4.4539  -4.3523
    -3.9987  -3.9401  -3.7090  -3.6613  -3.4353  -3.4336  -2.7609  -2.5147
    -2.4993   2.3654   2.4838   2.5230   3.2968   3.3528   5.3764   5.5483
     5.5806

     occupation numbers 
     1.0000   1.0000   1.0000   1.0000   1.0000   1.0000   1.0000   1.0000
     1.0000   1.0000   1.0000   1.0000   1.0000   1.0000   1.0000   1.0000
     1.0000   1.0000   1.0000   1.0000   1.0000   1.0000   1.0000   1.0000
     1.0000   1.0000   1.0000   1.0000   1.0000   1.0000   1.0000   1.0000
     1.0000   1.0000   1.0000   1.0000   1.0000   1.0000   1.0000   1.0000
     1.0000   0.0000   0.0000   0.0000   0.0000   0.0000   0.0000   0.0000
     0.0000

          k = 0.0000-0.3536 0.3536 ( 28037 PWs)   bands (ev):

   -78.9102 -74.7094 -48.9028 -48.9014 -48.9001 -44.3411 -44.3410 -44.3401
   -20.0362 -19.8584 -19.8161 -19.7951 -19.7777 -19.7706  -9.8050  -9.0304
    -8.3456  -8.1891  -7.8939  -7.8322  -6.5247  -5.7886  -5.7818  -5.6300
    -5.3365  -5.2643  -5.0568  -5.0336  -4.8492  -4.6001  -4.4174  -4.4141
    -3.9548  -3.8764  -3.8254  -3.6914  -3.5239  -3.3951  -2.6359  -2.6056
    -2.5774   2.3549   2.3936   2.4759   3.2927   3.3865   5.4356   5.4936
     5.5744

     occupation numbers 
     1.0000   1.0000   1.0000   1.0000   1.0000   1.0000   1.0000   1.0000
     1.0000   1.0000   1.0000   1.0000   1.0000   1.0000   1.0000   1.0000
     1.0000   1.0000   1.0000   1.0000   1.0000   1.0000   1.0000   1.0000
     1.0000   1.0000   1.0000   1.0000   1.0000   1.0000   1.0000   1.0000
     1.0000   1.0000   1.0000   1.0000   1.0000   1.0000   1.0000   1.0000
     1.0000   0.0000   0.0000   0.0000   0.0000   0.0000   0.0000   0.0000
     0.0000

          k =-0.7071 0.0000 0.0000 ( 28090 PWs)   bands (ev):

   -78.9172 -74.7074 -48.9139 -48.9139 -48.9018 -44.3393 -44.3375 -44.3375
   -20.0241 -19.8270 -19.8183 -19.8155 -19.8155 -19.7576  -9.7905  -9.1188
    -8.2960  -7.8900  -7.8900  -7.8144  -6.8515  -5.8367  -5.5253  -5.4644
    -5.4644  -5.3622  -5.2759  -5.2034  -5.2034  -4.3753  -4.3753  -4.1175
    -4.1175  -4.1167  -3.5399  -3.5399  -3.4955  -3.3081  -3.0264  -2.4598
    -2.4598   2.3931   2.6647   2.6647   3.2117   3.3165   5.3218   5.4186
     5.7145

     occupation numbers 
     1.0000   1.0000   1.0000   1.0000   1.0000   1.0000   1.0000   1.0000
     1.0000   1.0000   1.0000   1.0000   1.0000   1.0000   1.0000   1.0000
     1.0000   1.0000   1.0000   1.0000   1.0000   1.0000   1.0000   1.0000
     1.0000   1.0000   1.0000   1.0000   1.0000   1.0000   1.0000   1.0000
     1.0000   1.0000   1.0000   1.0000   1.0000   1.0000   1.0000   1.0000
     1.0000   0.0000   0.0000   0.0000   0.0000   0.0000   0.0000   0.0000
     0.0000

          k =-0.7071 0.3536 0.0000 ( 28076 PWs)   bands (ev):

   -78.9096 -74.7094 -48.9008 -48.9005 -48.9005 -44.3410 -44.3405 -44.3405
   -20.0195 -19.8554 -19.8172 -19.8172 -19.7785 -19.7708  -9.6884  -9.2283
    -8.3291  -8.0035  -7.8540  -7.8540  -6.6179  -5.7531  -5.7530  -5.4636
    -5.4007  -5.2951  -5.1932  -5.1930  -5.1725  -4.4225  -4.4225  -4.3755
    -4.0271  -3.8403  -3.8402  -3.7239  -3.3633  -3.3632  -2.6183  -2.6179
    -2.4578   2.4313   2.4355   2.6640   3.2925   3.3234   5.4970   5.5203
     5.6377

     occupation numbers 
     1.0000   1.0000   1.0000   1.0000   1.0000   1.0000   1.0000   1.0000
     1.0000   1.0000   1.0000   1.0000   1.0000   1.0000   1.0000   1.0000
     1.0000   1.0000   1.0000   1.0000   1.0000   1.0000   1.0000   1.0000
     1.0000   1.0000   1.0000   1.0000   1.0000   1.0000   1.0000   1.0000
     1.0000   1.0000   1.0000   1.0000   1.0000   1.0000   1.0000   1.0000
     1.0000   0.0000   0.0000   0.0000   0.0000   0.0000   0.0000   0.0000
     0.0000

     the Fermi energy is     1.0192 ev

!    total energy              =    -547.01333055 Ry
     estimated scf accuracy    <       0.00000013 Ry
     smearing contrib. (-TS)   =      -0.00000000 Ry
     internal energy E=F+TS    =    -547.01333055 Ry

     total magnetization       =     0.00 Bohr mag/cell
     absolute magnetization    =     7.41 Bohr mag/cell

     convergence has been achieved in   9 iterations

     Using ACE for calculation of exact exchange
     ACE projected onto    49 (nbndproj) and applied to    49 (nbnd) bands

     total energy              =    -547.02132626 Ry
     Harris-Foulkes estimate   =    -547.02132636 Ry
     est. exchange err (dexx)  =       0.00799570 Ry
     - averaged Fock potential =      36.23316659 Ry
     + Fock energy (ACE)       =     -18.15566086 Ry

     EXX: now go back to refine exchange calculation

     total cpu time spent up to now is      787.9 secs

     per-process dynamical memory:  1860.3 Mb

     Self-consistent Calculation

     iteration #  1     ecut=    90.00 Ry     beta= 0.30
     Davidson diagonalization with overlap

---- Real-time Memory Report at c_bands before calling an iterative solver
          2013 MiB given to the printing process from OS
          1816 MiB allocation reported by mallinfo(arena+hblkhd)
        578430 MiB available memory on the node where the printing process lives
------------------
     ethr =  2.48E-10,  avg # of iterations = 11.4

     total cpu time spent up to now is      794.8 secs

     total energy              =    -547.02309842 Ry
     estimated scf accuracy    <       0.00026218 Ry

     total magnetization       =    -0.00 Bohr mag/cell
     absolute magnetization    =     7.49 Bohr mag/cell

     iteration #  2     ecut=    90.00 Ry     beta= 0.30
     Davidson diagonalization with overlap

---- Real-time Memory Report at c_bands before calling an iterative solver
          2013 MiB given to the printing process from OS
          1840 MiB allocation reported by mallinfo(arena+hblkhd)
        577392 MiB available memory on the node where the printing process lives
------------------
     ethr =  3.20E-07,  avg # of iterations =  1.0

     total cpu time spent up to now is      797.4 secs

     total energy              =    -547.02308640 Ry
     estimated scf accuracy    <       0.00013371 Ry

     total magnetization       =    -0.00 Bohr mag/cell
     absolute magnetization    =     7.49 Bohr mag/cell

     iteration #  3     ecut=    90.00 Ry     beta= 0.30
     Davidson diagonalization with overlap

---- Real-time Memory Report at c_bands before calling an iterative solver
          2013 MiB given to the printing process from OS
          1842 MiB allocation reported by mallinfo(arena+hblkhd)
        577378 MiB available memory on the node where the printing process lives
------------------
     ethr =  1.63E-07,  avg # of iterations =  1.8

     total cpu time spent up to now is      800.1 secs

     total energy              =    -547.02309731 Ry
     estimated scf accuracy    <       0.00000687 Ry

     total magnetization       =    -0.00 Bohr mag/cell
     absolute magnetization    =     7.50 Bohr mag/cell

     iteration #  4     ecut=    90.00 Ry     beta= 0.30
     Davidson diagonalization with overlap

---- Real-time Memory Report at c_bands before calling an iterative solver
          2013 MiB given to the printing process from OS
          1844 MiB allocation reported by mallinfo(arena+hblkhd)
        577364 MiB available memory on the node where the printing process lives
------------------
     ethr =  8.38E-09,  avg # of iterations =  1.8

     total cpu time spent up to now is      802.9 secs

     total energy              =    -547.02309721 Ry
     estimated scf accuracy    <       0.00000248 Ry

     total magnetization       =    -0.00 Bohr mag/cell
     absolute magnetization    =     7.50 Bohr mag/cell

     iteration #  5     ecut=    90.00 Ry     beta= 0.30
     Davidson diagonalization with overlap

---- Real-time Memory Report at c_bands before calling an iterative solver
          2013 MiB given to the printing process from OS
          1846 MiB allocation reported by mallinfo(arena+hblkhd)
        577350 MiB available memory on the node where the printing process lives
------------------
     ethr =  3.03E-09,  avg # of iterations =  2.0

     total cpu time spent up to now is      805.8 secs

     total energy              =    -547.02309751 Ry
     estimated scf accuracy    <       0.00000037 Ry

     total magnetization       =     0.00 Bohr mag/cell
     absolute magnetization    =     7.50 Bohr mag/cell

     iteration #  6     ecut=    90.00 Ry     beta= 0.30
     Davidson diagonalization with overlap

---- Real-time Memory Report at c_bands before calling an iterative solver
          2013 MiB given to the printing process from OS
          1847 MiB allocation reported by mallinfo(arena+hblkhd)
        577337 MiB available memory on the node where the printing process lives
------------------
     ethr =  4.49E-10,  avg # of iterations =  1.2

     Magnetic moment per site  (integrated on atomic sphere of radius R)
     atom   1 (R=0.112)  charge= 10.8513  magn= -2.4013
     atom   2 (R=0.115)  charge= 11.0472  magn=  2.3625
     atom   3 (R=0.065)  charge=  0.9958  magn= -0.0420
     atom   4 (R=0.065)  charge=  0.9958  magn= -0.0420
     atom   5 (R=0.065)  charge=  0.9958  magn= -0.0420
     atom   6 (R=0.065)  charge=  0.9958  magn= -0.0420
     atom   7 (R=0.065)  charge=  0.9958  magn= -0.0420
     atom   8 (R=0.065)  charge=  0.9958  magn= -0.0420
     atom   9 (R=0.065)  charge=  1.8133  magn=  0.0568
     atom  10 (R=0.065)  charge=  1.8133  magn=  0.0568
     atom  11 (R=0.065)  charge=  1.8133  magn=  0.0568
     atom  12 (R=0.065)  charge=  1.8133  magn=  0.0568
     atom  13 (R=0.065)  charge=  1.8133  magn=  0.0568
     atom  14 (R=0.065)  charge=  1.8133  magn=  0.0568

     total cpu time spent up to now is      808.1 secs

     End of self-consistent calculation

 ------ SPIN UP ------------


          k = 0.0000 0.0000 0.0000 ( 27941 PWs)   bands (ev):

   -78.2357 -75.1609 -48.2571 -48.2571 -48.2571 -44.7648 -44.7648 -44.7648
   -20.1653 -19.8913 -19.8913 -19.8913 -19.8369 -19.8369 -10.1730  -8.1855
    -8.1855  -8.0255  -8.0255  -8.0255  -7.5108  -5.6302  -5.6302  -5.6302
    -5.5294  -5.5294  -4.7333  -4.7333  -4.7332  -4.1467  -4.1467  -4.1467
    -4.0801  -4.0801  -4.0801  -3.5805  -3.5805  -3.5805  -3.0270  -3.0270
    -3.0270   2.7931   2.7931   2.7931   3.8659   3.8659   5.3837   5.3837
     5.5452

     occupation numbers 
     1.0000   1.0000   1.0000   1.0000   1.0000   1.0000   1.0000   1.0000
     1.0000   1.0000   1.0000   1.0000   1.0000   1.0000   1.0000   1.0000
     1.0000   1.0000   1.0000   1.0000   1.0000   1.0000   1.0000   1.0000
     1.0000   1.0000   1.0000   1.0000   1.0000   1.0000   1.0000   1.0000
     1.0000   1.0000   1.0000   1.0000   1.0000   1.0000   1.0000   1.0000
     1.0000   0.0000   0.0000   0.0000   0.0000   0.0000   0.0000   0.0000
     0.0000

          k = 0.1768 0.1768-0.1768 ( 28028 PWs)   bands (ev):

   -78.2320 -75.1611 -48.2537 -48.2522 -48.2522 -44.7651 -44.7651 -44.7647
   -20.1431 -19.9171 -19.8851 -19.8851 -19.8444 -19.8444  -9.9957  -8.6622
    -8.1988  -8.1988  -7.9815  -7.9815  -6.9241  -5.6255  -5.5290  -5.5290
    -5.5109  -5.5109  -4.8766  -4.8766  -4.8705  -4.4406  -4.4406  -4.2299
    -4.0784  -4.0467  -4.0467  -3.6636  -3.5267  -3.5267  -2.8545  -2.8254
    -2.8254   2.8343   2.8748   2.8748   3.9922   3.9922   5.2424   5.2424
     5.3126

     occupation numbers 
     1.0000   1.0000   1.0000   1.0000   1.0000   1.0000   1.0000   1.0000
     1.0000   1.0000   1.0000   1.0000   1.0000   1.0000   1.0000   1.0000
     1.0000   1.0000   1.0000   1.0000   1.0000   1.0000   1.0000   1.0000
     1.0000   1.0000   1.0000   1.0000   1.0000   1.0000   1.0000   1.0000
     1.0000   1.0000   1.0000   1.0000   1.0000   1.0000   1.0000   1.0000
     1.0000   0.0000   0.0000   0.0000   0.0000   0.0000   0.0000   0.0000
     0.0000

          k =-0.3536-0.3536 0.3536 ( 28096 PWs)   bands (ev):

   -78.2284 -75.1608 -48.2487 -48.2481 -48.2480 -44.7649 -44.7649 -44.7640
   -20.1143 -19.9498 -19.8750 -19.8750 -19.8562 -19.8562  -9.6419  -9.2414
    -8.2068  -8.2068  -7.9423  -7.9423  -6.5176  -5.6647  -5.4876  -5.4876
    -5.3457  -5.3457  -5.0316  -5.0316  -5.0138  -4.7745  -4.7745  -4.3518
    -3.9658  -3.9658  -3.9569  -3.8001  -3.5099  -3.5099  -2.7098  -2.6738
    -2.6737   2.8816   2.9639   2.9639   4.1697   4.1697   5.0631   5.0631
     5.1238

     occupation numbers 
     1.0000   1.0000   1.0000   1.0000   1.0000   1.0000   1.0000   1.0000
     1.0000   1.0000   1.0000   1.0000   1.0000   1.0000   1.0000   1.0000
     1.0000   1.0000   1.0000   1.0000   1.0000   1.0000   1.0000   1.0000
     1.0000   1.0000   1.0000   1.0000   1.0000   1.0000   1.0000   1.0000
     1.0000   1.0000   1.0000   1.0000   1.0000   1.0000   1.0000   1.0000
     1.0000   0.0000   0.0000   0.0000   0.0000   0.0000   0.0000   0.0000
     0.0000

          k = 0.3536 0.0000 0.0000 ( 28050 PWs)   bands (ev):

   -78.2315 -75.1611 -48.2545 -48.2535 -48.2483 -44.7650 -44.7650 -44.7648
   -20.1373 -19.9044 -19.8925 -19.8925 -19.8574 -19.8369  -9.9686  -8.7580
    -8.1863  -8.0712  -7.9906  -7.9906  -6.9325  -5.6352  -5.5496  -5.5262
    -5.4709  -5.4708  -5.1841  -4.7872  -4.7871  -4.5312  -4.5311  -4.1699
    -4.1558  -4.1558  -3.7707  -3.5813  -3.5768  -3.5767  -3.0308  -2.6901
    -2.6873   2.7941   2.9700   2.9701   3.8740   4.0909   5.0685   5.4005
     5.5222

     occupation numbers 
     1.0000   1.0000   1.0000   1.0000   1.0000   1.0000   1.0000   1.0000
     1.0000   1.0000   1.0000   1.0000   1.0000   1.0000   1.0000   1.0000
     1.0000   1.0000   1.0000   1.0000   1.0000   1.0000   1.0000   1.0000
     1.0000   1.0000   1.0000   1.0000   1.0000   1.0000   1.0000   1.0000
     1.0000   1.0000   1.0000   1.0000   1.0000   1.0000   1.0000   1.0000
     1.0000   0.0000   0.0000   0.0000   0.0000   0.0000   0.0000   0.0000
     0.0000

          k =-0.1768-0.5303 0.5303 ( 28062 PWs)   bands (ev):

   -78.2290 -75.1612 -48.2502 -48.2493 -48.2474 -44.7652 -44.7652 -44.7648
   -20.1107 -19.9337 -19.8865 -19.8854 -19.8666 -19.8443  -9.7049  -9.1806
    -8.1972  -8.0835  -7.9476  -7.9233  -6.6433  -5.6342  -5.5756  -5.5034
    -5.4968  -5.3071  -5.1969  -4.9843  -4.8709  -4.7783  -4.7059  -4.4309
    -4.1060  -4.0326  -3.7879  -3.7111  -3.4866  -3.4817  -2.8346  -2.5809
    -2.5679   2.8607   3.0740   3.1077   4.0062   4.1097   5.0571   5.2478
     5.3288

     occupation numbers 
     1.0000   1.0000   1.0000   1.0000   1.0000   1.0000   1.0000   1.0000
     1.0000   1.0000   1.0000   1.0000   1.0000   1.0000   1.0000   1.0000
     1.0000   1.0000   1.0000   1.0000   1.0000   1.0000   1.0000   1.0000
     1.0000   1.0000   1.0000   1.0000   1.0000   1.0000   1.0000   1.0000
     1.0000   1.0000   1.0000   1.0000   1.0000   1.0000   1.0000   1.0000
     1.0000   0.0000   0.0000   0.0000   0.0000   0.0000   0.0000   0.0000
     0.0000

          k = 0.0000-0.3536 0.3536 ( 28037 PWs)   bands (ev):

   -78.2288 -75.1610 -48.2500 -48.2486 -48.2477 -44.7651 -44.7650 -44.7645
   -20.1182 -19.9334 -19.8939 -19.8749 -19.8560 -19.8493  -9.7633  -9.0927
    -8.2075  -8.1264  -7.9564  -7.9408  -6.6518  -5.5977  -5.5604  -5.5087
    -5.4808  -5.3457  -5.1513  -5.0291  -4.8122  -4.7012  -4.5786  -4.5209
    -4.0362  -3.9626  -3.8951  -3.7865  -3.5382  -3.4523  -2.7049  -2.6903
    -2.6717   2.9351   2.9395   3.0026   3.9980   4.1689   5.0405   5.2284
     5.2646

     occupation numbers 
     1.0000   1.0000   1.0000   1.0000   1.0000   1.0000   1.0000   1.0000
     1.0000   1.0000   1.0000   1.0000   1.0000   1.0000   1.0000   1.0000
     1.0000   1.0000   1.0000   1.0000   1.0000   1.0000   1.0000   1.0000
     1.0000   1.0000   1.0000   1.0000   1.0000   1.0000   1.0000   1.0000
     1.0000   1.0000   1.0000   1.0000   1.0000   1.0000   1.0000   1.0000
     1.0000   0.0000   0.0000   0.0000   0.0000   0.0000   0.0000   0.0000
     0.0000

          k =-0.7071 0.0000 0.0000 ( 28090 PWs)   bands (ev):

   -78.2297 -75.1612 -48.2513 -48.2513 -48.2472 -44.7650 -44.7650 -44.7650
   -20.1067 -19.9015 -19.8961 -19.8937 -19.8937 -19.8370  -9.7549  -9.1315
    -8.1872  -7.9534  -7.9533  -7.8825  -6.8090  -5.6786  -5.6402  -5.5326
    -5.5231  -5.2192  -5.2191  -4.8828  -4.8828  -4.8639  -4.8639  -4.2099
    -4.2099  -4.1925  -3.5964  -3.5964  -3.5827  -3.3832  -3.0237  -2.4818
    -2.4818   2.7967   3.2662   3.2662   3.8807   4.0500   5.0894   5.3838
     5.4171

     occupation numbers 
     1.0000   1.0000   1.0000   1.0000   1.0000   1.0000   1.0000   1.0000
     1.0000   1.0000   1.0000   1.0000   1.0000   1.0000   1.0000   1.0000
     1.0000   1.0000   1.0000   1.0000   1.0000   1.0000   1.0000   1.0000
     1.0000   1.0000   1.0000   1.0000   1.0000   1.0000   1.0000   1.0000
     1.0000   1.0000   1.0000   1.0000   1.0000   1.0000   1.0000   1.0000
     1.0000   0.0000   0.0000   0.0000   0.0000   0.0000   0.0000   0.0000
     0.0000

          k =-0.7071 0.3536 0.0000 ( 28076 PWs)   bands (ev):

   -78.2282 -75.1612 -48.2489 -48.2485 -48.2469 -44.7651 -44.7651 -44.7649
   -20.1028 -19.9295 -19.8949 -19.8949 -19.8576 -19.8494  -9.6208  -9.2923
    -8.2004  -8.0294  -7.9191  -7.9191  -6.6490  -5.6631  -5.5820  -5.5820
    -5.4769  -5.2621  -5.0971  -5.0971  -4.8830  -4.8640  -4.5820  -4.5819
    -4.1583  -3.9173  -3.9173  -3.7411  -3.4228  -3.4228  -2.6885  -2.6867
    -2.4869   2.9670   2.9705   3.2662   4.0019   4.0538   5.1770   5.1836
     5.5841

     occupation numbers 
     1.0000   1.0000   1.0000   1.0000   1.0000   1.0000   1.0000   1.0000
     1.0000   1.0000   1.0000   1.0000   1.0000   1.0000   1.0000   1.0000
     1.0000   1.0000   1.0000   1.0000   1.0000   1.0000   1.0000   1.0000
     1.0000   1.0000   1.0000   1.0000   1.0000   1.0000   1.0000   1.0000
     1.0000   1.0000   1.0000   1.0000   1.0000   1.0000   1.0000   1.0000
     1.0000   0.0000   0.0000   0.0000   0.0000   0.0000   0.0000   0.0000
     0.0000

 ------ SPIN DOWN ----------


          k = 0.0000 0.0000 0.0000 ( 27941 PWs)   bands (ev):

   -78.9538 -74.5978 -48.9595 -48.9595 -48.9595 -44.2208 -44.2208 -44.2208
   -20.0900 -19.8175 -19.8175 -19.8175 -19.7619 -19.7619 -10.1922  -8.2849
    -8.2849  -7.9783  -7.9783  -7.9783  -7.4076  -5.8438  -5.8438  -5.8438
    -5.2666  -5.2666  -4.7173  -4.7173  -4.7173  -4.0670  -4.0670  -4.0670
    -4.0389  -4.0389  -4.0389  -3.4931  -3.4931  -3.4931  -3.1299  -3.1299
    -3.1299   2.4188   2.4188   2.4188   3.3049   3.3049   5.4886   5.7627
     5.7627

     occupation numbers 
     1.0000   1.0000   1.0000   1.0000   1.0000   1.0000   1.0000   1.0000
     1.0000   1.0000   1.0000   1.0000   1.0000   1.0000   1.0000   1.0000
     1.0000   1.0000   1.0000   1.0000   1.0000   1.0000   1.0000   1.0000
     1.0000   1.0000   1.0000   1.0000   1.0000   1.0000   1.0000   1.0000
     1.0000   1.0000   1.0000   1.0000   1.0000   1.0000   1.0000   1.0000
     1.0000   0.0000   0.0000   0.0000   0.0000   0.0000   0.0000   0.0000
     0.0000

          k = 0.1768 0.1768-0.1768 ( 28028 PWs)   bands (ev):

   -78.9485 -74.5981 -48.9542 -48.9525 -48.9525 -44.2212 -44.2211 -44.2208
   -20.0665 -19.8449 -19.8110 -19.8110 -19.7698 -19.7698 -10.0225  -8.5995
    -8.3159  -8.3159  -7.9060  -7.9060  -6.8141  -5.8507  -5.7710  -5.7710
    -5.2927  -5.2927  -4.8301  -4.8301  -4.7831  -4.3599  -4.3599  -4.3332
    -3.9942  -3.9608  -3.9608  -3.5816  -3.4783  -3.4783  -2.8973  -2.8973
    -2.8686   2.3851   2.4445   2.4445   3.3803   3.3803   5.4554   5.6570
     5.6581

     occupation numbers 
     1.0000   1.0000   1.0000   1.0000   1.0000   1.0000   1.0000   1.0000
     1.0000   1.0000   1.0000   1.0000   1.0000   1.0000   1.0000   1.0000
     1.0000   1.0000   1.0000   1.0000   1.0000   1.0000   1.0000   1.0000
     1.0000   1.0000   1.0000   1.0000   1.0000   1.0000   1.0000   1.0000
     1.0000   1.0000   1.0000   1.0000   1.0000   1.0000   1.0000   1.0000
     1.0000   0.0000   0.0000   0.0000   0.0000   0.0000   0.0000   0.0000
     0.0000

          k =-0.3536-0.3536 0.3536 ( 28096 PWs)   bands (ev):

   -78.9457 -74.5976 -48.9503 -48.9493 -48.9493 -44.2207 -44.2207 -44.2201
   -20.0352 -19.8804 -19.8000 -19.8000 -19.7826 -19.7826  -9.7227  -9.1259
    -8.3382  -8.3381  -7.8401  -7.8400  -6.3526  -5.9325  -5.7063  -5.7062
    -5.1491  -5.1491  -5.1108  -5.1107  -4.8411  -4.5964  -4.5963  -4.5850
    -3.8511  -3.8188  -3.8188  -3.7407  -3.5199  -3.5198  -2.7325  -2.7325
    -2.6758   2.3495   2.4709   2.4709   3.4670   3.4671   5.4298   5.5897
     5.5897

     occupation numbers 
     1.0000   1.0000   1.0000   1.0000   1.0000   1.0000   1.0000   1.0000
     1.0000   1.0000   1.0000   1.0000   1.0000   1.0000   1.0000   1.0000
     1.0000   1.0000   1.0000   1.0000   1.0000   1.0000   1.0000   1.0000
     1.0000   1.0000   1.0000   1.0000   1.0000   1.0000   1.0000   1.0000
     1.0000   1.0000   1.0000   1.0000   1.0000   1.0000   1.0000   1.0000
     1.0000   0.0000   0.0000   0.0000   0.0000   0.0000   0.0000   0.0000
     0.0000

          k = 0.3536 0.0000 0.0000 ( 28050 PWs)   bands (ev):

   -78.9479 -74.5980 -48.9541 -48.9539 -48.9491 -44.2211 -44.2210 -44.2209
   -20.0605 -19.8316 -19.8189 -19.8188 -19.7833 -19.7621  -9.9960  -8.7518
    -8.2857  -8.0911  -7.9416  -7.9416  -6.8395  -5.8476  -5.7275  -5.7274
    -5.4214  -5.2635  -5.0560  -4.8097  -4.8097  -4.4141  -4.4140  -4.0916
    -4.0731  -4.0730  -3.7272  -3.5131  -3.5131  -3.4942  -3.1310  -2.7586
    -2.7579   2.4239   2.4987   2.4987   3.3071   3.4315   5.3468   5.6682
     5.7933

     occupation numbers 
     1.0000   1.0000   1.0000   1.0000   1.0000   1.0000   1.0000   1.0000
     1.0000   1.0000   1.0000   1.0000   1.0000   1.0000   1.0000   1.0000
     1.0000   1.0000   1.0000   1.0000   1.0000   1.0000   1.0000   1.0000
     1.0000   1.0000   1.0000   1.0000   1.0000   1.0000   1.0000   1.0000
     1.0000   1.0000   1.0000   1.0000   1.0000   1.0000   1.0000   1.0000
     1.0000   0.0000   0.0000   0.0000   0.0000   0.0000   0.0000   0.0000
     0.0000

          k =-0.1768-0.5303 0.5303 ( 28062 PWs)   bands (ev):

   -78.9453 -74.5980 -48.9505 -48.9495 -48.9477 -44.2211 -44.2211 -44.2208
   -20.0316 -19.8636 -19.8125 -19.8113 -19.7932 -19.7698  -9.7609  -9.1286
    -8.3141  -8.1317  -7.8693  -7.8459  -6.5747  -5.8466  -5.7258  -5.6211
    -5.3280  -5.2340  -5.2298  -5.1242  -5.0227  -4.4934  -4.4463  -4.3520
    -3.9993  -3.9391  -3.7116  -3.6749  -3.4501  -3.4446  -2.8841  -2.6583
    -2.6413   2.4225   2.5599   2.6000   3.3842   3.4361   5.4323   5.6116
     5.6875

     occupation numbers 
     1.0000   1.0000   1.0000   1.0000   1.0000   1.0000   1.0000   1.0000
     1.0000   1.0000   1.0000   1.0000   1.0000   1.0000   1.0000   1.0000
     1.0000   1.0000   1.0000   1.0000   1.0000   1.0000   1.0000   1.0000
     1.0000   1.0000   1.0000   1.0000   1.0000   1.0000   1.0000   1.0000
     1.0000   1.0000   1.0000   1.0000   1.0000   1.0000   1.0000   1.0000
     1.0000   0.0000   0.0000   0.0000   0.0000   0.0000   0.0000   0.0000
     0.0000

          k = 0.0000-0.3536 0.3536 ( 28037 PWs)   bands (ev):

   -78.9451 -74.5979 -48.9497 -48.9488 -48.9486 -44.2210 -44.2210 -44.2206
   -20.0397 -19.8629 -19.8203 -19.7999 -19.7824 -19.7749  -9.8113  -9.0359
    -8.3383  -8.1846  -7.9052  -7.8395  -6.5400  -5.8086  -5.8025  -5.6571
    -5.3412  -5.2539  -5.0630  -5.0554  -4.8792  -4.5921  -4.4125  -4.4097
    -3.9553  -3.8853  -3.8261  -3.6908  -3.5314  -3.4095  -2.7728  -2.7374
    -2.7136   2.4285   2.4588   2.5439   3.3807   3.4665   5.5081   5.5392
     5.6717

     occupation numbers 
     1.0000   1.0000   1.0000   1.0000   1.0000   1.0000   1.0000   1.0000
     1.0000   1.0000   1.0000   1.0000   1.0000   1.0000   1.0000   1.0000
     1.0000   1.0000   1.0000   1.0000   1.0000   1.0000   1.0000   1.0000
     1.0000   1.0000   1.0000   1.0000   1.0000   1.0000   1.0000   1.0000
     1.0000   1.0000   1.0000   1.0000   1.0000   1.0000   1.0000   1.0000
     1.0000   0.0000   0.0000   0.0000   0.0000   0.0000   0.0000   0.0000
     0.0000

          k =-0.7071 0.0000 0.0000 ( 28090 PWs)   bands (ev):

   -78.9477 -74.5978 -48.9535 -48.9535 -48.9491 -44.2207 -44.2207 -44.2205
   -20.0276 -19.8313 -19.8227 -19.8201 -19.8201 -19.7622  -9.7968  -9.1203
    -8.2863  -7.9017  -7.9017  -7.8260  -6.8540  -5.8515  -5.5343  -5.5004
    -5.5003  -5.3532  -5.2600  -5.2169  -5.2168  -4.3623  -4.3623  -4.1181
    -4.1181  -4.1154  -3.5589  -3.5588  -3.4954  -3.3319  -3.1312  -2.5975
    -2.5974   2.4294   2.7385   2.7386   3.3069   3.4044   5.3417   5.5313
     5.8234

     occupation numbers 
     1.0000   1.0000   1.0000   1.0000   1.0000   1.0000   1.0000   1.0000
     1.0000   1.0000   1.0000   1.0000   1.0000   1.0000   1.0000   1.0000
     1.0000   1.0000   1.0000   1.0000   1.0000   1.0000   1.0000   1.0000
     1.0000   1.0000   1.0000   1.0000   1.0000   1.0000   1.0000   1.0000
     1.0000   1.0000   1.0000   1.0000   1.0000   1.0000   1.0000   1.0000
     1.0000   0.0000   0.0000   0.0000   0.0000   0.0000   0.0000   0.0000
     0.0000

          k =-0.7071 0.3536 0.0000 ( 28076 PWs)   bands (ev):

   -78.9447 -74.5980 -48.9488 -48.9487 -48.9481 -44.2209 -44.2209 -44.2209
   -20.0229 -19.8598 -19.8215 -19.8215 -19.7831 -19.7754  -9.6951  -9.2310
    -8.3208  -8.0045  -7.8654  -7.8654  -6.6257  -5.7732  -5.7731  -5.5002
    -5.4065  -5.2895  -5.2125  -5.2124  -5.1642  -4.4180  -4.4180  -4.3622
    -4.0282  -3.8432  -3.8431  -3.7333  -3.3822  -3.3821  -2.7515  -2.7511
    -2.5980   2.5011   2.5022   2.7384   3.3806   3.4088   5.6091   5.6219
     5.6509

     occupation numbers 
     1.0000   1.0000   1.0000   1.0000   1.0000   1.0000   1.0000   1.0000
     1.0000   1.0000   1.0000   1.0000   1.0000   1.0000   1.0000   1.0000
     1.0000   1.0000   1.0000   1.0000   1.0000   1.0000   1.0000   1.0000
     1.0000   1.0000   1.0000   1.0000   1.0000   1.0000   1.0000   1.0000
     1.0000   1.0000   1.0000   1.0000   1.0000   1.0000   1.0000   1.0000
     1.0000   0.0000   0.0000   0.0000   0.0000   0.0000   0.0000   0.0000
     0.0000

     the Fermi energy is     1.1201 ev

!    total energy              =    -547.02309743 Ry
     estimated scf accuracy    <       0.00000014 Ry
     smearing contrib. (-TS)   =      -0.00000000 Ry
     internal energy E=F+TS    =    -547.02309743 Ry

     total magnetization       =     0.00 Bohr mag/cell
     absolute magnetization    =     7.50 Bohr mag/cell

     convergence has been achieved in   6 iterations

     Using ACE for calculation of exact exchange
     ACE projected onto    49 (nbndproj) and applied to    49 (nbnd) bands

     total energy              =    -547.02356637 Ry
     Harris-Foulkes estimate   =    -547.02356647 Ry
     est. exchange err (dexx)  =       0.00046894 Ry
     - averaged Fock potential =      36.33166019 Ry
     + Fock energy (ACE)       =     -18.17646827 Ry

     EXX: now go back to refine exchange calculation

     total cpu time spent up to now is     1148.2 secs

     per-process dynamical memory:  1860.3 Mb

     Self-consistent Calculation

     iteration #  1     ecut=    90.00 Ry     beta= 0.30
     Davidson diagonalization with overlap

---- Real-time Memory Report at c_bands before calling an iterative solver
          2013 MiB given to the printing process from OS
          1816 MiB allocation reported by mallinfo(arena+hblkhd)
        578403 MiB available memory on the node where the printing process lives
------------------
     ethr =  4.49E-10,  avg # of iterations =  8.6

     total cpu time spent up to now is     1154.0 secs

     total energy              =    -547.02370081 Ry
     estimated scf accuracy    <       0.00002858 Ry

     total magnetization       =     0.00 Bohr mag/cell
     absolute magnetization    =     7.53 Bohr mag/cell

     iteration #  2     ecut=    90.00 Ry     beta= 0.30
     Davidson diagonalization with overlap

---- Real-time Memory Report at c_bands before calling an iterative solver
          2013 MiB given to the printing process from OS
          1840 MiB allocation reported by mallinfo(arena+hblkhd)
        577391 MiB available memory on the node where the printing process lives
------------------
     ethr =  3.49E-08,  avg # of iterations =  1.0

     total cpu time spent up to now is     1156.7 secs

     total energy              =    -547.02369818 Ry
     estimated scf accuracy    <       0.00001431 Ry

     total magnetization       =     0.00 Bohr mag/cell
     absolute magnetization    =     7.53 Bohr mag/cell

     iteration #  3     ecut=    90.00 Ry     beta= 0.30
     Davidson diagonalization with overlap

---- Real-time Memory Report at c_bands before calling an iterative solver
          2013 MiB given to the printing process from OS
          1842 MiB allocation reported by mallinfo(arena+hblkhd)
        577377 MiB available memory on the node where the printing process lives
------------------
     ethr =  1.74E-08,  avg # of iterations =  2.0

     total cpu time spent up to now is     1159.6 secs

     total energy              =    -547.02369959 Ry
     estimated scf accuracy    <       0.00000035 Ry

     total magnetization       =    -0.00 Bohr mag/cell
     absolute magnetization    =     7.53 Bohr mag/cell

     iteration #  4     ecut=    90.00 Ry     beta= 0.30
     Davidson diagonalization with overlap

---- Real-time Memory Report at c_bands before calling an iterative solver
          2013 MiB given to the printing process from OS
          1844 MiB allocation reported by mallinfo(arena+hblkhd)
        577363 MiB available memory on the node where the printing process lives
------------------
     ethr =  4.25E-10,  avg # of iterations =  3.1

     Magnetic moment per site  (integrated on atomic sphere of radius R)
     atom   1 (R=0.112)  charge= 10.8521  magn= -2.4072
     atom   2 (R=0.115)  charge= 11.0487  magn=  2.3728
     atom   3 (R=0.065)  charge=  0.9959  magn= -0.0425
     atom   4 (R=0.065)  charge=  0.9959  magn= -0.0425
     atom   5 (R=0.065)  charge=  0.9959  magn= -0.0425
     atom   6 (R=0.065)  charge=  0.9959  magn= -0.0425
     atom   7 (R=0.065)  charge=  0.9959  magn= -0.0425
     atom   8 (R=0.065)  charge=  0.9959  magn= -0.0425
     atom   9 (R=0.065)  charge=  1.8134  magn=  0.0573
     atom  10 (R=0.065)  charge=  1.8134  magn=  0.0573
     atom  11 (R=0.065)  charge=  1.8134  magn=  0.0573
     atom  12 (R=0.065)  charge=  1.8134  magn=  0.0573
     atom  13 (R=0.065)  charge=  1.8134  magn=  0.0573
     atom  14 (R=0.065)  charge=  1.8134  magn=  0.0573

     total cpu time spent up to now is     1162.5 secs

     End of self-consistent calculation

 ------ SPIN UP ------------


          k = 0.0000 0.0000 0.0000 ( 27941 PWs)   bands (ev):

   -78.2328 -75.1384 -48.2583 -48.2583 -48.2583 -44.7415 -44.7415 -44.7415
   -20.1639 -19.8899 -19.8899 -19.8899 -19.8355 -19.8355 -10.1718  -8.1822
    -8.1822  -8.0261  -8.0261  -8.0261  -7.5117  -5.6289  -5.6289  -5.6289
    -5.5214  -5.5214  -4.7342  -4.7342  -4.7342  -4.1454  -4.1454  -4.1454
    -4.0805  -4.0805  -4.0805  -3.5792  -3.5792  -3.5792  -3.0542  -3.0542
    -3.0542   2.7979   2.7979   2.7980   3.8907   3.8907   5.4040   5.4040
     5.5513

     occupation numbers 
     1.0000   1.0000   1.0000   1.0000   1.0000   1.0000   1.0000   1.0000
     1.0000   1.0000   1.0000   1.0000   1.0000   1.0000   1.0000   1.0000
     1.0000   1.0000   1.0000   1.0000   1.0000   1.0000   1.0000   1.0000
     1.0000   1.0000   1.0000   1.0000   1.0000   1.0000   1.0000   1.0000
     1.0000   1.0000   1.0000   1.0000   1.0000   1.0000   1.0000   1.0000
     1.0000   0.0000   0.0000   0.0000   0.0000   0.0000   0.0000   0.0000
     0.0000

          k = 0.1768 0.1768-0.1768 ( 28028 PWs)   bands (ev):

   -78.2295 -75.1384 -48.2553 -48.2540 -48.2540 -44.7416 -44.7416 -44.7412
   -20.1417 -19.9157 -19.8838 -19.8838 -19.8430 -19.8430  -9.9947  -8.6619
    -8.1960  -8.1960  -7.9816  -7.9816  -6.9257  -5.6241  -5.5250  -5.5250
    -5.5068  -5.5068  -4.8767  -4.8767  -4.8720  -4.4402  -4.4402  -4.2306
    -4.0772  -4.0461  -4.0461  -3.6622  -3.5263  -3.5263  -2.8820  -2.8535
    -2.8535   2.8441   2.8841   2.8841   4.0157   4.0157   5.2621   5.2621
     5.3142

     occupation numbers 
     1.0000   1.0000   1.0000   1.0000   1.0000   1.0000   1.0000   1.0000
     1.0000   1.0000   1.0000   1.0000   1.0000   1.0000   1.0000   1.0000
     1.0000   1.0000   1.0000   1.0000   1.0000   1.0000   1.0000   1.0000
     1.0000   1.0000   1.0000   1.0000   1.0000   1.0000   1.0000   1.0000
     1.0000   1.0000   1.0000   1.0000   1.0000   1.0000   1.0000   1.0000
     1.0000   0.0000   0.0000   0.0000   0.0000   0.0000   0.0000   0.0000
     0.0000

          k =-0.3536-0.3536 0.3536 ( 28096 PWs)   bands (ev):

   -78.2259 -75.1382 -48.2509 -48.2497 -48.2497 -44.7415 -44.7415 -44.7407
   -20.1130 -19.9483 -19.8736 -19.8736 -19.8547 -19.8547  -9.6418  -9.2398
    -8.2041  -8.2041  -7.9421  -7.9421  -6.5199  -5.6627  -5.4824  -5.4824
    -5.3433  -5.3433  -5.0325  -5.0325  -5.0161  -4.7727  -4.7727  -4.3522
    -3.9650  -3.9650  -3.9560  -3.7984  -3.5097  -3.5097  -2.7394  -2.7025
    -2.7025   2.8953   2.9792   2.9792   4.1916   4.1916   5.0847   5.0847
     5.1219

     occupation numbers 
     1.0000   1.0000   1.0000   1.0000   1.0000   1.0000   1.0000   1.0000
     1.0000   1.0000   1.0000   1.0000   1.0000   1.0000   1.0000   1.0000
     1.0000   1.0000   1.0000   1.0000   1.0000   1.0000   1.0000   1.0000
     1.0000   1.0000   1.0000   1.0000   1.0000   1.0000   1.0000   1.0000
     1.0000   1.0000   1.0000   1.0000   1.0000   1.0000   1.0000   1.0000
     1.0000   0.0000   0.0000   0.0000   0.0000   0.0000   0.0000   0.0000
     0.0000

          k = 0.3536 0.0000 0.0000 ( 28050 PWs)   bands (ev):

   -78.2290 -75.1384 -48.2555 -48.2550 -48.2510 -44.7416 -44.7416 -44.7414
   -20.1360 -19.9030 -19.8912 -19.8911 -19.8560 -19.8356  -9.9676  -8.7567
    -8.1831  -8.0694  -7.9913  -7.9913  -6.9332  -5.6339  -5.5437  -5.5183
    -5.4698  -5.4698  -5.1823  -4.7888  -4.7888  -4.5306  -4.5306  -4.1686
    -4.1551  -4.1551  -3.7714  -3.5801  -3.5774  -3.5773  -3.0555  -2.7188
    -2.7173   2.7993   2.9817   2.9818   3.8987   4.1134   5.0891   5.4209
     5.5300

     occupation numbers 
     1.0000   1.0000   1.0000   1.0000   1.0000   1.0000   1.0000   1.0000
     1.0000   1.0000   1.0000   1.0000   1.0000   1.0000   1.0000   1.0000
     1.0000   1.0000   1.0000   1.0000   1.0000   1.0000   1.0000   1.0000
     1.0000   1.0000   1.0000   1.0000   1.0000   1.0000   1.0000   1.0000
     1.0000   1.0000   1.0000   1.0000   1.0000   1.0000   1.0000   1.0000
     1.0000   0.0000   0.0000   0.0000   0.0000   0.0000   0.0000   0.0000
     0.0000

          k =-0.1768-0.5303 0.5303 ( 28062 PWs)   bands (ev):

   -78.2267 -75.1385 -48.2520 -48.2512 -48.2496 -44.7417 -44.7417 -44.7413
   -20.1094 -19.9323 -19.8852 -19.8841 -19.8652 -19.8429  -9.7044  -9.1788
    -8.1943  -8.0823  -7.9478  -7.9236  -6.6442  -5.6316  -5.5704  -5.5016
    -5.4900  -5.3055  -5.1962  -4.9852  -4.8730  -4.7773  -4.7045  -4.4306
    -4.1050  -4.0316  -3.7872  -3.7122  -3.4870  -3.4834  -2.8625  -2.6094
    -2.5968   2.8701   3.0895   3.1238   4.0298   4.1320   5.0774   5.2676
     5.3282

     occupation numbers 
     1.0000   1.0000   1.0000   1.0000   1.0000   1.0000   1.0000   1.0000
     1.0000   1.0000   1.0000   1.0000   1.0000   1.0000   1.0000   1.0000
     1.0000   1.0000   1.0000   1.0000   1.0000   1.0000   1.0000   1.0000
     1.0000   1.0000   1.0000   1.0000   1.0000   1.0000   1.0000   1.0000
     1.0000   1.0000   1.0000   1.0000   1.0000   1.0000   1.0000   1.0000
     1.0000   0.0000   0.0000   0.0000   0.0000   0.0000   0.0000   0.0000
     0.0000

          k = 0.0000-0.3536 0.3536 ( 28037 PWs)   bands (ev):

   -78.2267 -75.1383 -48.2518 -48.2506 -48.2505 -44.7417 -44.7415 -44.7411
   -20.1169 -19.9320 -19.8925 -19.8735 -19.8546 -19.8479  -9.7626  -9.0913
    -8.2048  -8.1240  -7.9570  -7.9407  -6.6530  -5.5963  -5.5541  -5.5064
    -5.4754  -5.3450  -5.1491  -5.0302  -4.8140  -4.6999  -4.5787  -4.5200
    -4.0351  -3.9618  -3.8955  -3.7855  -3.5382  -3.4535  -2.7342  -2.7175
    -2.7013   2.9498   2.9505   3.0150   4.0215   4.1907   5.0603   5.2457
     5.2668

     occupation numbers 
     1.0000   1.0000   1.0000   1.0000   1.0000   1.0000   1.0000   1.0000
     1.0000   1.0000   1.0000   1.0000   1.0000   1.0000   1.0000   1.0000
     1.0000   1.0000   1.0000   1.0000   1.0000   1.0000   1.0000   1.0000
     1.0000   1.0000   1.0000   1.0000   1.0000   1.0000   1.0000   1.0000
     1.0000   1.0000   1.0000   1.0000   1.0000   1.0000   1.0000   1.0000
     1.0000   0.0000   0.0000   0.0000   0.0000   0.0000   0.0000   0.0000
     0.0000

          k =-0.7071 0.0000 0.0000 ( 28090 PWs)   bands (ev):

   -78.2271 -75.1385 -48.2528 -48.2528 -48.2490 -44.7416 -44.7416 -44.7416
   -20.1055 -19.9001 -19.8947 -19.8924 -19.8924 -19.8356  -9.7541  -9.1295
    -8.1839  -7.9541  -7.9541  -7.8834  -6.8077  -5.6711  -5.6389  -5.5314
    -5.5151  -5.2185  -5.2185  -4.8853  -4.8853  -4.8615  -4.8615  -4.2089
    -4.2089  -4.1912  -3.5982  -3.5982  -3.5814  -3.3860  -3.0510  -2.5100
    -2.5100   2.8017   3.2833   3.2833   3.9056   4.0727   5.1117   5.3905
     5.4376

     occupation numbers 
     1.0000   1.0000   1.0000   1.0000   1.0000   1.0000   1.0000   1.0000
     1.0000   1.0000   1.0000   1.0000   1.0000   1.0000   1.0000   1.0000
     1.0000   1.0000   1.0000   1.0000   1.0000   1.0000   1.0000   1.0000
     1.0000   1.0000   1.0000   1.0000   1.0000   1.0000   1.0000   1.0000
     1.0000   1.0000   1.0000   1.0000   1.0000   1.0000   1.0000   1.0000
     1.0000   0.0000   0.0000   0.0000   0.0000   0.0000   0.0000   0.0000
     0.0000

          k =-0.7071 0.3536 0.0000 ( 28076 PWs)   bands (ev):

   -78.2261 -75.1385 -48.2507 -48.2503 -48.2500 -44.7416 -44.7416 -44.7414
   -20.1015 -19.9280 -19.8936 -19.8936 -19.8562 -19.8480  -9.6207  -9.2899
    -8.1974  -8.0280  -7.9199  -7.9199  -6.6490  -5.6561  -5.5806  -5.5806
    -5.4705  -5.2599  -5.0971  -5.0971  -4.8853  -4.8617  -4.5819  -4.5819
    -4.1573  -3.9165  -3.9165  -3.7416  -3.4248  -3.4248  -2.7179  -2.7169
    -2.5128   2.9813   2.9821   3.2834   4.0249   4.0771   5.1962   5.2052
     5.5839

     occupation numbers 
     1.0000   1.0000   1.0000   1.0000   1.0000   1.0000   1.0000   1.0000
     1.0000   1.0000   1.0000   1.0000   1.0000   1.0000   1.0000   1.0000
     1.0000   1.0000   1.0000   1.0000   1.0000   1.0000   1.0000   1.0000
     1.0000   1.0000   1.0000   1.0000   1.0000   1.0000   1.0000   1.0000
     1.0000   1.0000   1.0000   1.0000   1.0000   1.0000   1.0000   1.0000
     1.0000   0.0000   0.0000   0.0000   0.0000   0.0000   0.0000   0.0000
     0.0000

 ------ SPIN DOWN ----------


          k = 0.0000 0.0000 0.0000 ( 27941 PWs)   bands (ev):

   -78.9533 -74.5628 -48.9614 -48.9614 -48.9614 -44.1849 -44.1849 -44.1849
   -20.0877 -19.8153 -19.8153 -19.8153 -19.7597 -19.7597 -10.1924  -8.2810
    -8.2809  -7.9800  -7.9800  -7.9800  -7.4114  -5.8444  -5.8444  -5.8444
    -5.2608  -5.2608  -4.7228  -4.7227  -4.7227  -4.0647  -4.0647  -4.0647
    -4.0388  -4.0388  -4.0388  -3.4907  -3.4907  -3.4907  -3.1497  -3.1497
    -3.1497   2.4266   2.4266   2.4266   3.3290   3.3290   5.4913   5.7941
     5.7942

     occupation numbers 
     1.0000   1.0000   1.0000   1.0000   1.0000   1.0000   1.0000   1.0000
     1.0000   1.0000   1.0000   1.0000   1.0000   1.0000   1.0000   1.0000
     1.0000   1.0000   1.0000   1.0000   1.0000   1.0000   1.0000   1.0000
     1.0000   1.0000   1.0000   1.0000   1.0000   1.0000   1.0000   1.0000
     1.0000   1.0000   1.0000   1.0000   1.0000   1.0000   1.0000   1.0000
     1.0000   0.0000   0.0000   0.0000   0.0000   0.0000   0.0000   0.0000
     0.0000

          k = 0.1768 0.1768-0.1768 ( 28028 PWs)   bands (ev):

   -78.9489 -74.5629 -48.9571 -48.9557 -48.9557 -44.1851 -44.1851 -44.1848
   -20.0642 -19.8427 -19.8088 -19.8088 -19.7676 -19.7676 -10.0226  -8.6014
    -8.3126  -8.3126  -7.9068  -7.9068  -6.8172  -5.8518  -5.7723  -5.7723
    -5.2890  -5.2890  -4.8336  -4.8336  -4.7892  -4.3580  -4.3580  -4.3336
    -3.9919  -3.9592  -3.9592  -3.5792  -3.4774  -3.4774  -2.9192  -2.9192
    -2.8897   2.3960   2.4556   2.4556   3.4026   3.4026   5.4551   5.6825
     5.6836

     occupation numbers 
     1.0000   1.0000   1.0000   1.0000   1.0000   1.0000   1.0000   1.0000
     1.0000   1.0000   1.0000   1.0000   1.0000   1.0000   1.0000   1.0000
     1.0000   1.0000   1.0000   1.0000   1.0000   1.0000   1.0000   1.0000
     1.0000   1.0000   1.0000   1.0000   1.0000   1.0000   1.0000   1.0000
     1.0000   1.0000   1.0000   1.0000   1.0000   1.0000   1.0000   1.0000
     1.0000   0.0000   0.0000   0.0000   0.0000   0.0000   0.0000   0.0000
     0.0000

          k =-0.3536-0.3536 0.3536 ( 28096 PWs)   bands (ev):

   -78.9457 -74.5625 -48.9532 -48.9518 -48.9518 -44.1848 -44.1848 -44.1842
   -20.0328 -19.8782 -19.7978 -19.7978 -19.7804 -19.7804  -9.7225  -9.1280
    -8.3351  -8.3351  -7.8405  -7.8405  -6.3552  -5.9343  -5.7079  -5.7079
    -5.1455  -5.1455  -5.1143  -5.1142  -4.8497  -4.5933  -4.5933  -4.5830
    -3.8485  -3.8167  -3.8166  -3.7386  -3.5199  -3.5199  -2.7544  -2.7544
    -2.6980   2.3629   2.4851   2.4851   3.4877   3.4877   5.4284   5.6226
     5.6226

     occupation numbers 
     1.0000   1.0000   1.0000   1.0000   1.0000   1.0000   1.0000   1.0000
     1.0000   1.0000   1.0000   1.0000   1.0000   1.0000   1.0000   1.0000
     1.0000   1.0000   1.0000   1.0000   1.0000   1.0000   1.0000   1.0000
     1.0000   1.0000   1.0000   1.0000   1.0000   1.0000   1.0000   1.0000
     1.0000   1.0000   1.0000   1.0000   1.0000   1.0000   1.0000   1.0000
     1.0000   0.0000   0.0000   0.0000   0.0000   0.0000   0.0000   0.0000
     0.0000

          k = 0.3536 0.0000 0.0000 ( 28050 PWs)   bands (ev):

   -78.9485 -74.5628 -48.9570 -48.9569 -48.9532 -44.1850 -44.1850 -44.1848
   -20.0581 -19.8294 -19.8167 -19.8167 -19.7811 -19.7599  -9.9960  -8.7517
    -8.2818  -8.0897  -7.9432  -7.9432  -6.8415  -5.8482  -5.7293  -5.7293
    -5.4211  -5.2577  -5.0552  -4.8150  -4.8150  -4.4120  -4.4119  -4.0892
    -4.0713  -4.0713  -3.7280  -3.5130  -3.5129  -3.4919  -3.1506  -2.7820
    -2.7818   2.4318   2.5115   2.5115   3.3308   3.4525   5.3570   5.6948
     5.8251

     occupation numbers 
     1.0000   1.0000   1.0000   1.0000   1.0000   1.0000   1.0000   1.0000
     1.0000   1.0000   1.0000   1.0000   1.0000   1.0000   1.0000   1.0000
     1.0000   1.0000   1.0000   1.0000   1.0000   1.0000   1.0000   1.0000
     1.0000   1.0000   1.0000   1.0000   1.0000   1.0000   1.0000   1.0000
     1.0000   1.0000   1.0000   1.0000   1.0000   1.0000   1.0000   1.0000
     1.0000   0.0000   0.0000   0.0000   0.0000   0.0000   0.0000   0.0000
     0.0000

          k =-0.1768-0.5303 0.5303 ( 28062 PWs)   bands (ev):

   -78.9460 -74.5628 -48.9538 -48.9529 -48.9513 -44.1850 -44.1850 -44.1847
   -20.0292 -19.8614 -19.8104 -19.8091 -19.7910 -19.7676  -9.7607  -9.1292
    -8.3106  -8.1308  -7.8702  -7.8470  -6.5760  -5.8480  -5.7275  -5.6235
    -5.3287  -5.2329  -5.2272  -5.1252  -5.0263  -4.4907  -4.4440  -4.3505
    -3.9973  -3.9368  -3.7102  -3.6761  -3.4522  -3.4446  -2.9055  -2.6821
    -2.6646   2.4337   2.5747   2.6151   3.4065   3.4571   5.4414   5.6337
     5.7171

     occupation numbers 
     1.0000   1.0000   1.0000   1.0000   1.0000   1.0000   1.0000   1.0000
     1.0000   1.0000   1.0000   1.0000   1.0000   1.0000   1.0000   1.0000
     1.0000   1.0000   1.0000   1.0000   1.0000   1.0000   1.0000   1.0000
     1.0000   1.0000   1.0000   1.0000   1.0000   1.0000   1.0000   1.0000
     1.0000   1.0000   1.0000   1.0000   1.0000   1.0000   1.0000   1.0000
     1.0000   0.0000   0.0000   0.0000   0.0000   0.0000   0.0000   0.0000
     0.0000

          k = 0.0000-0.3536 0.3536 ( 28037 PWs)   bands (ev):

   -78.9460 -74.5627 -48.9531 -48.9527 -48.9521 -44.1850 -44.1849 -44.1846
   -20.0373 -19.8608 -19.8181 -19.7977 -19.7802 -19.7727  -9.8112  -9.0370
    -8.3352  -8.1820  -7.9067  -7.8398  -6.5419  -5.8101  -5.8041  -5.6593
    -5.3420  -5.2495  -5.0680  -5.0532  -4.8844  -4.5895  -4.4104  -4.4075
    -3.9535  -3.8855  -3.8240  -3.6884  -3.5314  -3.4106  -2.7965  -2.7608
    -2.7354   2.4426   2.4712   2.5570   3.4029   3.4868   5.5080   5.5651
     5.7016

     occupation numbers 
     1.0000   1.0000   1.0000   1.0000   1.0000   1.0000   1.0000   1.0000
     1.0000   1.0000   1.0000   1.0000   1.0000   1.0000   1.0000   1.0000
     1.0000   1.0000   1.0000   1.0000   1.0000   1.0000   1.0000   1.0000
     1.0000   1.0000   1.0000   1.0000   1.0000   1.0000   1.0000   1.0000
     1.0000   1.0000   1.0000   1.0000   1.0000   1.0000   1.0000   1.0000
     1.0000   0.0000   0.0000   0.0000   0.0000   0.0000   0.0000   0.0000
     0.0000

          k =-0.7071 0.0000 0.0000 ( 28090 PWs)   bands (ev):

   -78.9475 -74.5627 -48.9558 -48.9558 -48.9519 -44.1848 -44.1848 -44.1846
   -20.0252 -19.8291 -19.8205 -19.8179 -19.8179 -19.7600  -9.7967  -9.1200
    -8.2824  -7.9035  -7.9035  -7.8280  -6.8530  -5.8521  -5.5358  -5.5034
    -5.5034  -5.3490  -5.2543  -5.2193  -5.2193  -4.3589  -4.3589  -4.1162
    -4.1162  -4.1131  -3.5615  -3.5615  -3.4930  -3.3358  -3.1513  -2.6197
    -2.6197   2.4373   2.7539   2.7539   3.3310   3.4261   5.3455   5.5643
     5.8554

     occupation numbers 
     1.0000   1.0000   1.0000   1.0000   1.0000   1.0000   1.0000   1.0000
     1.0000   1.0000   1.0000   1.0000   1.0000   1.0000   1.0000   1.0000
     1.0000   1.0000   1.0000   1.0000   1.0000   1.0000   1.0000   1.0000
     1.0000   1.0000   1.0000   1.0000   1.0000   1.0000   1.0000   1.0000
     1.0000   1.0000   1.0000   1.0000   1.0000   1.0000   1.0000   1.0000
     1.0000   0.0000   0.0000   0.0000   0.0000   0.0000   0.0000   0.0000
     0.0000

          k =-0.7071 0.3536 0.0000 ( 28076 PWs)   bands (ev):

   -78.9456 -74.5628 -48.9523 -48.9522 -48.9521 -44.1848 -44.1848 -44.1848
   -20.0205 -19.8577 -19.8193 -19.8193 -19.7808 -19.7731  -9.6947  -9.2314
    -8.3173  -8.0033  -7.8672  -7.8672  -6.6259  -5.7748  -5.7748  -5.5033
    -5.4073  -5.2865  -5.2155  -5.2154  -5.1600  -4.4158  -4.4158  -4.3589
    -4.0264  -3.8418  -3.8418  -3.7340  -3.3846  -3.3846  -2.7749  -2.7748
    -2.6199   2.5147   2.5149   2.7538   3.4025   3.4305   5.6420   5.6476
     5.6517

     occupation numbers 
     1.0000   1.0000   1.0000   1.0000   1.0000   1.0000   1.0000   1.0000
     1.0000   1.0000   1.0000   1.0000   1.0000   1.0000   1.0000   1.0000
     1.0000   1.0000   1.0000   1.0000   1.0000   1.0000   1.0000   1.0000
     1.0000   1.0000   1.0000   1.0000   1.0000   1.0000   1.0000   1.0000
     1.0000   1.0000   1.0000   1.0000   1.0000   1.0000   1.0000   1.0000
     1.0000   0.0000   0.0000   0.0000   0.0000   0.0000   0.0000   0.0000
     0.0000

     the Fermi energy is     1.1501 ev

!    total energy              =    -547.02369969 Ry
     estimated scf accuracy    <       0.00000004 Ry
     smearing contrib. (-TS)   =      -0.00000000 Ry
     internal energy E=F+TS    =    -547.02369969 Ry

     total magnetization       =    -0.00 Bohr mag/cell
     absolute magnetization    =     7.54 Bohr mag/cell

     convergence has been achieved in   4 iterations

     Using ACE for calculation of exact exchange
     ACE projected onto    49 (nbndproj) and applied to    49 (nbnd) bands

     total energy              =    -547.02373867 Ry
     Harris-Foulkes estimate   =    -547.02373869 Ry
     est. exchange err (dexx)  =       0.00003899 Ry
     - averaged Fock potential =      36.35893914 Ry
     + Fock energy (ACE)       =     -18.18250986 Ry

     EXX: now go back to refine exchange calculation

     total cpu time spent up to now is     1504.9 secs

     per-process dynamical memory:  1860.3 Mb

     Self-consistent Calculation

     iteration #  1     ecut=    90.00 Ry     beta= 0.30
     Davidson diagonalization with overlap

---- Real-time Memory Report at c_bands before calling an iterative solver
          2013 MiB given to the printing process from OS
          1816 MiB allocation reported by mallinfo(arena+hblkhd)
        578392 MiB available memory on the node where the printing process lives
------------------
     ethr =  4.25E-10,  avg # of iterations =  6.4

     total cpu time spent up to now is     1509.6 secs

     total energy              =    -547.02375048 Ry
     estimated scf accuracy    <       0.00000220 Ry

     total magnetization       =    -0.00 Bohr mag/cell
     absolute magnetization    =     7.55 Bohr mag/cell

     iteration #  2     ecut=    90.00 Ry     beta= 0.30
     Davidson diagonalization with overlap

---- Real-time Memory Report at c_bands before calling an iterative solver
          2013 MiB given to the printing process from OS
          1840 MiB allocation reported by mallinfo(arena+hblkhd)
        577390 MiB available memory on the node where the printing process lives
------------------
     ethr =  2.68E-09,  avg # of iterations =  1.0

     total cpu time spent up to now is     1512.3 secs

     total energy              =    -547.02375034 Ry
     estimated scf accuracy    <       0.00000114 Ry

     total magnetization       =    -0.00 Bohr mag/cell
     absolute magnetization    =     7.55 Bohr mag/cell

     iteration #  3     ecut=    90.00 Ry     beta= 0.30
     Davidson diagonalization with overlap

---- Real-time Memory Report at c_bands before calling an iterative solver
          2013 MiB given to the printing process from OS
          1842 MiB allocation reported by mallinfo(arena+hblkhd)
        577377 MiB available memory on the node where the printing process lives
------------------
     ethr =  1.39E-09,  avg # of iterations =  2.0

     Magnetic moment per site  (integrated on atomic sphere of radius R)
     atom   1 (R=0.112)  charge= 10.8523  magn= -2.4086
     atom   2 (R=0.115)  charge= 11.0490  magn=  2.3758
     atom   3 (R=0.065)  charge=  0.9960  magn= -0.0427
     atom   4 (R=0.065)  charge=  0.9960  magn= -0.0427
     atom   5 (R=0.065)  charge=  0.9960  magn= -0.0427
     atom   6 (R=0.065)  charge=  0.9960  magn= -0.0427
     atom   7 (R=0.065)  charge=  0.9960  magn= -0.0427
     atom   8 (R=0.065)  charge=  0.9960  magn= -0.0427
     atom   9 (R=0.065)  charge=  1.8134  magn=  0.0576
     atom  10 (R=0.065)  charge=  1.8134  magn=  0.0576
     atom  11 (R=0.065)  charge=  1.8134  magn=  0.0576
     atom  12 (R=0.065)  charge=  1.8134  magn=  0.0576
     atom  13 (R=0.065)  charge=  1.8134  magn=  0.0576
     atom  14 (R=0.065)  charge=  1.8134  magn=  0.0576

     total cpu time spent up to now is     1515.0 secs

     End of self-consistent calculation

 ------ SPIN UP ------------


          k = 0.0000 0.0000 0.0000 ( 27941 PWs)   bands (ev):

   -78.2303 -75.1316 -48.2573 -48.2573 -48.2572 -44.7347 -44.7347 -44.7347
   -20.1635 -19.8895 -19.8895 -19.8895 -19.8350 -19.8350 -10.1711  -8.1812
    -8.1812  -8.0261  -8.0261  -8.0261  -7.5113  -5.6284  -5.6284  -5.6284
    -5.5183  -5.5183  -4.7338  -4.7338  -4.7338  -4.1449  -4.1449  -4.1449
    -4.0805  -4.0805  -4.0805  -3.5787  -3.5787  -3.5787  -3.0616  -3.0615
    -3.0615   2.7995   2.7995   2.7995   3.8986   3.8986   5.4096   5.4096
     5.5533

     occupation numbers 
     1.0000   1.0000   1.0000   1.0000   1.0000   1.0000   1.0000   1.0000
     1.0000   1.0000   1.0000   1.0000   1.0000   1.0000   1.0000   1.0000
     1.0000   1.0000   1.0000   1.0000   1.0000   1.0000   1.0000   1.0000
     1.0000   1.0000   1.0000   1.0000   1.0000   1.0000   1.0000   1.0000
     1.0000   1.0000   1.0000   1.0000   1.0000   1.0000   1.0000   1.0000
     1.0000   0.0000   0.0000   0.0000   0.0000   0.0000   0.0000   0.0000
     0.0000

          k = 0.1768 0.1768-0.1768 ( 28028 PWs)   bands (ev):

   -78.2270 -75.1316 -48.2540 -48.2529 -48.2529 -44.7349 -44.7349 -44.7344
   -20.1413 -19.9153 -19.8833 -19.8833 -19.8426 -19.8426  -9.9941  -8.6614
    -8.1951  -8.1951  -7.9814  -7.9814  -6.9257  -5.6235  -5.5236  -5.5236
    -5.5049  -5.5049  -4.8761  -4.8761  -4.8718  -4.4400  -4.4400  -4.2307
    -4.0768  -4.0459  -4.0459  -3.6618  -3.5261  -3.5261  -2.8889  -2.8610
    -2.8610   2.8470   2.8867   2.8867   4.0234   4.0234   5.2668   5.2669
     5.3148

     occupation numbers 
     1.0000   1.0000   1.0000   1.0000   1.0000   1.0000   1.0000   1.0000
     1.0000   1.0000   1.0000   1.0000   1.0000   1.0000   1.0000   1.0000
     1.0000   1.0000   1.0000   1.0000   1.0000   1.0000   1.0000   1.0000
     1.0000   1.0000   1.0000   1.0000   1.0000   1.0000   1.0000   1.0000
     1.0000   1.0000   1.0000   1.0000   1.0000   1.0000   1.0000   1.0000
     1.0000   0.0000   0.0000   0.0000   0.0000   0.0000   0.0000   0.0000
     0.0000

          k =-0.3536-0.3536 0.3536 ( 28096 PWs)   bands (ev):

   -78.2236 -75.1314 -48.2500 -48.2486 -48.2486 -44.7348 -44.7348 -44.7340
   -20.1126 -19.9478 -19.8732 -19.8732 -19.8543 -19.8543  -9.6417  -9.2387
    -8.2033  -8.2033  -7.9418  -7.9418  -6.5202  -5.6618  -5.4802  -5.4802
    -5.3424  -5.3424  -5.0321  -5.0321  -5.0162  -4.7721  -4.7721  -4.3522
    -3.9647  -3.9647  -3.9557  -3.7978  -3.5095  -3.5095  -2.7475  -2.7101
    -2.7101   2.8992   2.9835   2.9835   4.1991   4.1991   5.0902   5.0902
     5.1213

     occupation numbers 
     1.0000   1.0000   1.0000   1.0000   1.0000   1.0000   1.0000   1.0000
     1.0000   1.0000   1.0000   1.0000   1.0000   1.0000   1.0000   1.0000
     1.0000   1.0000   1.0000   1.0000   1.0000   1.0000   1.0000   1.0000
     1.0000   1.0000   1.0000   1.0000   1.0000   1.0000   1.0000   1.0000
     1.0000   1.0000   1.0000   1.0000   1.0000   1.0000   1.0000   1.0000
     1.0000   0.0000   0.0000   0.0000   0.0000   0.0000   0.0000   0.0000
     0.0000

          k = 0.3536 0.0000 0.0000 ( 28050 PWs)   bands (ev):

   -78.2266 -75.1316 -48.2540 -48.2537 -48.2505 -44.7348 -44.7348 -44.7346
   -20.1356 -19.9026 -19.8907 -19.8907 -19.8556 -19.8351  -9.9671  -8.7559
    -8.1821  -8.0687  -7.9913  -7.9913  -6.9329  -5.6333  -5.5413  -5.5153
    -5.4692  -5.4692  -5.1811  -4.7887  -4.7886  -4.5305  -4.5305  -4.1681
    -4.1549  -4.1549  -3.7714  -3.5797  -3.5773  -3.5773  -3.0610  -2.7265
    -2.7259   2.8011   2.9850   2.9850   3.9065   4.1209   5.0945   5.4265
     5.5324

     occupation numbers 
     1.0000   1.0000   1.0000   1.0000   1.0000   1.0000   1.0000   1.0000
     1.0000   1.0000   1.0000   1.0000   1.0000   1.0000   1.0000   1.0000
     1.0000   1.0000   1.0000   1.0000   1.0000   1.0000   1.0000   1.0000
     1.0000   1.0000   1.0000   1.0000   1.0000   1.0000   1.0000   1.0000
     1.0000   1.0000   1.0000   1.0000   1.0000   1.0000   1.0000   1.0000
     1.0000   0.0000   0.0000   0.0000   0.0000   0.0000   0.0000   0.0000
     0.0000

          k =-0.1768-0.5303 0.5303 ( 28062 PWs)   bands (ev):

   -78.2242 -75.1317 -48.2508 -48.2501 -48.2485 -44.7349 -44.7349 -44.7345
   -20.1090 -19.9318 -19.8848 -19.8837 -19.8647 -19.8424  -9.7041  -9.1778
    -8.1934  -8.0818  -7.9477  -7.9235  -6.6441  -5.6305  -5.5682  -5.5008
    -5.4873  -5.3047  -5.1955  -4.9850  -4.8730  -4.7770  -4.7042  -4.4305
    -4.1047  -4.0312  -3.7870  -3.7123  -3.4869  -3.4836  -2.8697  -2.6166
    -2.6044   2.8728   3.0938   3.1283   4.0375   4.1395   5.0822   5.2725
     5.3273

     occupation numbers 
     1.0000   1.0000   1.0000   1.0000   1.0000   1.0000   1.0000   1.0000
     1.0000   1.0000   1.0000   1.0000   1.0000   1.0000   1.0000   1.0000
     1.0000   1.0000   1.0000   1.0000   1.0000   1.0000   1.0000   1.0000
     1.0000   1.0000   1.0000   1.0000   1.0000   1.0000   1.0000   1.0000
     1.0000   1.0000   1.0000   1.0000   1.0000   1.0000   1.0000   1.0000
     1.0000   0.0000   0.0000   0.0000   0.0000   0.0000   0.0000   0.0000
     0.0000

          k = 0.0000-0.3536 0.3536 ( 28037 PWs)   bands (ev):

   -78.2243 -75.1316 -48.2505 -48.2500 -48.2494 -44.7349 -44.7347 -44.7343
   -20.1165 -19.9316 -19.8920 -19.8731 -19.8542 -19.8474  -9.7622  -9.0905
    -8.2040  -8.1232  -7.9569  -7.9404  -6.6530  -5.5957  -5.5516  -5.5055
    -5.4732  -5.3446  -5.1480  -5.0299  -4.8139  -4.6995  -4.5787  -4.5198
    -4.0347  -3.9616  -3.8955  -3.7851  -3.5381  -3.4536  -2.7423  -2.7238
    -2.7095   2.9536   2.9539   3.0185   4.0292   4.1982   5.0649   5.2487
     5.2688

     occupation numbers 
     1.0000   1.0000   1.0000   1.0000   1.0000   1.0000   1.0000   1.0000
     1.0000   1.0000   1.0000   1.0000   1.0000   1.0000   1.0000   1.0000
     1.0000   1.0000   1.0000   1.0000   1.0000   1.0000   1.0000   1.0000
     1.0000   1.0000   1.0000   1.0000   1.0000   1.0000   1.0000   1.0000
     1.0000   1.0000   1.0000   1.0000   1.0000   1.0000   1.0000   1.0000
     1.0000   0.0000   0.0000   0.0000   0.0000   0.0000   0.0000   0.0000
     0.0000

          k =-0.7071 0.0000 0.0000 ( 28090 PWs)   bands (ev):

   -78.2247 -75.1318 -48.2518 -48.2518 -48.2479 -44.7349 -44.7349 -44.7348
   -20.1051 -19.8996 -19.8943 -19.8919 -19.8919 -19.8352  -9.7537  -9.1285
    -8.1829  -7.9541  -7.9541  -7.8835  -6.8071  -5.6681  -5.6383  -5.5306
    -5.5120  -5.2178  -5.2178  -4.8854  -4.8854  -4.8611  -4.8611  -4.2085
    -4.2085  -4.1908  -3.5985  -3.5985  -3.5809  -3.3865  -3.0584  -2.5175
    -2.5175   2.8032   3.2880   3.2880   3.9135   4.0803   5.1174   5.3926
     5.4432

     occupation numbers 
     1.0000   1.0000   1.0000   1.0000   1.0000   1.0000   1.0000   1.0000
     1.0000   1.0000   1.0000   1.0000   1.0000   1.0000   1.0000   1.0000
     1.0000   1.0000   1.0000   1.0000   1.0000   1.0000   1.0000   1.0000
     1.0000   1.0000   1.0000   1.0000   1.0000   1.0000   1.0000   1.0000
     1.0000   1.0000   1.0000   1.0000   1.0000   1.0000   1.0000   1.0000
     1.0000   0.0000   0.0000   0.0000   0.0000   0.0000   0.0000   0.0000
     0.0000

          k =-0.7071 0.3536 0.0000 ( 28076 PWs)   bands (ev):

   -78.2238 -75.1317 -48.2496 -48.2493 -48.2491 -44.7348 -44.7348 -44.7347
   -20.1011 -19.9275 -19.8932 -19.8931 -19.8558 -19.8476  -9.6205  -9.2886
    -8.1966  -8.0273  -7.9200  -7.9200  -6.6487  -5.6532  -5.5800  -5.5800
    -5.4679  -5.2587  -5.0968  -5.0968  -4.8851  -4.8614  -4.5818  -4.5818
    -4.1568  -3.9162  -3.9162  -3.7416  -3.4252  -3.4252  -2.7259  -2.7254
    -2.5185   2.9851   2.9853   3.2880   4.0325   4.0848   5.2007   5.2109
     5.5828

     occupation numbers 
     1.0000   1.0000   1.0000   1.0000   1.0000   1.0000   1.0000   1.0000
     1.0000   1.0000   1.0000   1.0000   1.0000   1.0000   1.0000   1.0000
     1.0000   1.0000   1.0000   1.0000   1.0000   1.0000   1.0000   1.0000
     1.0000   1.0000   1.0000   1.0000   1.0000   1.0000   1.0000   1.0000
     1.0000   1.0000   1.0000   1.0000   1.0000   1.0000   1.0000   1.0000
     1.0000   0.0000   0.0000   0.0000   0.0000   0.0000   0.0000   0.0000
     0.0000

 ------ SPIN DOWN ----------


          k = 0.0000 0.0000 0.0000 ( 27941 PWs)   bands (ev):

   -78.9522 -74.5498 -48.9610 -48.9610 -48.9610 -44.1719 -44.1719 -44.1719
   -20.0868 -19.8144 -19.8144 -19.8144 -19.7587 -19.7587 -10.1924  -8.2798
    -8.2798  -7.9804  -7.9804  -7.9804  -7.4122  -5.8440  -5.8440  -5.8440
    -5.2587  -5.2587  -4.7241  -4.7241  -4.7241  -4.0636  -4.0636  -4.0636
    -4.0384  -4.0384  -4.0384  -3.4896  -3.4896  -3.4896  -3.1542  -3.1542
    -3.1542   2.4299   2.4299   2.4299   3.3356   3.3356   5.4918   5.8046
     5.8046

     occupation numbers 
     1.0000   1.0000   1.0000   1.0000   1.0000   1.0000   1.0000   1.0000
     1.0000   1.0000   1.0000   1.0000   1.0000   1.0000   1.0000   1.0000
     1.0000   1.0000   1.0000   1.0000   1.0000   1.0000   1.0000   1.0000
     1.0000   1.0000   1.0000   1.0000   1.0000   1.0000   1.0000   1.0000
     1.0000   1.0000   1.0000   1.0000   1.0000   1.0000   1.0000   1.0000
     1.0000   0.0000   0.0000   0.0000   0.0000   0.0000   0.0000   0.0000
     0.0000

          k = 0.1768 0.1768-0.1768 ( 28028 PWs)   bands (ev):

   -78.9482 -74.5498 -48.9569 -48.9557 -48.9557 -44.1720 -44.1720 -44.1717
   -20.0632 -19.8418 -19.8079 -19.8079 -19.7667 -19.7667 -10.0225  -8.6018
    -8.3116  -8.3116  -7.9069  -7.9069  -6.8178  -5.8516  -5.7721  -5.7721
    -5.2876  -5.2876  -4.8342  -4.8342  -4.7906  -4.3573  -4.3573  -4.3334
    -3.9908  -3.9584  -3.9584  -3.5781  -3.4767  -3.4767  -2.9242  -2.9242
    -2.8942   2.3999   2.4596   2.4596   3.4086   3.4086   5.4548   5.6871
     5.6882

     occupation numbers 
     1.0000   1.0000   1.0000   1.0000   1.0000   1.0000   1.0000   1.0000
     1.0000   1.0000   1.0000   1.0000   1.0000   1.0000   1.0000   1.0000
     1.0000   1.0000   1.0000   1.0000   1.0000   1.0000   1.0000   1.0000
     1.0000   1.0000   1.0000   1.0000   1.0000   1.0000   1.0000   1.0000
     1.0000   1.0000   1.0000   1.0000   1.0000   1.0000   1.0000   1.0000
     1.0000   0.0000   0.0000   0.0000   0.0000   0.0000   0.0000   0.0000
     0.0000

          k =-0.3536-0.3536 0.3536 ( 28096 PWs)   bands (ev):

   -78.9448 -74.5496 -48.9530 -48.9516 -48.9516 -44.1718 -44.1718 -44.1712
   -20.0318 -19.8773 -19.7969 -19.7969 -19.7794 -19.7794  -9.7223  -9.1285
    -8.3343  -8.3343  -7.8404  -7.8404  -6.3556  -5.9344  -5.7078  -5.7078
    -5.1439  -5.1439  -5.1150  -5.1150  -4.8515  -4.5923  -4.5923  -4.5824
    -3.8473  -3.8156  -3.8156  -3.7376  -3.5195  -3.5195  -2.7590  -2.7590
    -2.7030   2.3674   2.4900   2.4900   3.4931   3.4931   5.4279   5.6336
     5.6336

     occupation numbers 
     1.0000   1.0000   1.0000   1.0000   1.0000   1.0000   1.0000   1.0000
     1.0000   1.0000   1.0000   1.0000   1.0000   1.0000   1.0000   1.0000
     1.0000   1.0000   1.0000   1.0000   1.0000   1.0000   1.0000   1.0000
     1.0000   1.0000   1.0000   1.0000   1.0000   1.0000   1.0000   1.0000
     1.0000   1.0000   1.0000   1.0000   1.0000   1.0000   1.0000   1.0000
     1.0000   0.0000   0.0000   0.0000   0.0000   0.0000   0.0000   0.0000
     0.0000

          k = 0.3536 0.0000 0.0000 ( 28050 PWs)   bands (ev):

   -78.9478 -74.5498 -48.9568 -48.9568 -48.9535 -44.1719 -44.1719 -44.1717
   -20.0571 -19.8285 -19.8157 -19.8157 -19.7802 -19.7590  -9.9959  -8.7516
    -8.2806  -8.0892  -7.9436  -7.9436  -6.8417  -5.8478  -5.7292  -5.7292
    -5.4209  -5.2555  -5.0544  -4.8162  -4.8162  -4.4112  -4.4112  -4.0881
    -4.0704  -4.0704  -3.7278  -3.5125  -3.5125  -3.4908  -3.1548  -2.7874
    -2.7873   2.4352   2.5159   2.5159   3.3372   3.4581   5.3599   5.7039
     5.8358

     occupation numbers 
     1.0000   1.0000   1.0000   1.0000   1.0000   1.0000   1.0000   1.0000
     1.0000   1.0000   1.0000   1.0000   1.0000   1.0000   1.0000   1.0000
     1.0000   1.0000   1.0000   1.0000   1.0000   1.0000   1.0000   1.0000
     1.0000   1.0000   1.0000   1.0000   1.0000   1.0000   1.0000   1.0000
     1.0000   1.0000   1.0000   1.0000   1.0000   1.0000   1.0000   1.0000
     1.0000   0.0000   0.0000   0.0000   0.0000   0.0000   0.0000   0.0000
     0.0000

          k =-0.1768-0.5303 0.5303 ( 28062 PWs)   bands (ev):

   -78.9453 -74.5498 -48.9537 -48.9530 -48.9513 -44.1720 -44.1719 -44.1716
   -20.0282 -19.8605 -19.8094 -19.8082 -19.7901 -19.7666  -9.7604  -9.1293
    -8.3096  -8.1305  -7.8704  -7.8471  -6.5761  -5.8479  -5.7275  -5.6235
    -5.3286  -5.2320  -5.2260  -5.1250  -5.0268  -4.4898  -4.4433  -4.3499
    -3.9963  -3.9358  -3.7094  -3.6760  -3.4524  -3.4443  -2.9102  -2.6874
    -2.6696   2.4377   2.5797   2.6202   3.4124   3.4626   5.4436   5.6404
     5.7259

     occupation numbers 
     1.0000   1.0000   1.0000   1.0000   1.0000   1.0000   1.0000   1.0000
     1.0000   1.0000   1.0000   1.0000   1.0000   1.0000   1.0000   1.0000
     1.0000   1.0000   1.0000   1.0000   1.0000   1.0000   1.0000   1.0000
     1.0000   1.0000   1.0000   1.0000   1.0000   1.0000   1.0000   1.0000
     1.0000   1.0000   1.0000   1.0000   1.0000   1.0000   1.0000   1.0000
     1.0000   0.0000   0.0000   0.0000   0.0000   0.0000   0.0000   0.0000
     0.0000

          k = 0.0000-0.3536 0.3536 ( 28037 PWs)   bands (ev):

   -78.9453 -74.5497 -48.9531 -48.9530 -48.9521 -44.1720 -44.1718 -44.1715
   -20.0363 -19.8598 -19.8171 -19.7967 -19.7793 -19.7717  -9.8110  -9.0372
    -8.3344  -8.1812  -7.9071  -7.8398  -6.5421  -5.8100  -5.8041  -5.6592
    -5.3421  -5.2477  -5.0690  -5.0520  -4.8854  -4.5886  -4.4097  -4.4066
    -3.9526  -3.8851  -3.8229  -3.6874  -3.5310  -3.4105  -2.8019  -2.7663
    -2.7399   2.4473   2.4756   2.5616   3.4088   3.4921   5.5073   5.5711
     5.7112

     occupation numbers 
     1.0000   1.0000   1.0000   1.0000   1.0000   1.0000   1.0000   1.0000
     1.0000   1.0000   1.0000   1.0000   1.0000   1.0000   1.0000   1.0000
     1.0000   1.0000   1.0000   1.0000   1.0000   1.0000   1.0000   1.0000
     1.0000   1.0000   1.0000   1.0000   1.0000   1.0000   1.0000   1.0000
     1.0000   1.0000   1.0000   1.0000   1.0000   1.0000   1.0000   1.0000
     1.0000   0.0000   0.0000   0.0000   0.0000   0.0000   0.0000   0.0000
     0.0000

          k =-0.7071 0.0000 0.0000 ( 28090 PWs)   bands (ev):

   -78.9466 -74.5497 -48.9555 -48.9555 -48.9516 -44.1718 -44.1718 -44.1716
   -20.0242 -19.8282 -19.8196 -19.8170 -19.8170 -19.7590  -9.7965  -9.1199
    -8.2812  -7.9039  -7.9039  -7.8284  -6.8525  -5.8517  -5.5361  -5.5034
    -5.5034  -5.3472  -5.2521  -5.2198  -5.2198  -4.3580  -4.3580  -4.1152
    -4.1152  -4.1120  -3.5619  -3.5619  -3.4919  -3.3365  -3.1558  -2.6245
    -2.6245   2.4406   2.7592   2.7592   3.3375   3.4318   5.3464   5.5753
     5.8660

     occupation numbers 
     1.0000   1.0000   1.0000   1.0000   1.0000   1.0000   1.0000   1.0000
     1.0000   1.0000   1.0000   1.0000   1.0000   1.0000   1.0000   1.0000
     1.0000   1.0000   1.0000   1.0000   1.0000   1.0000   1.0000   1.0000
     1.0000   1.0000   1.0000   1.0000   1.0000   1.0000   1.0000   1.0000
     1.0000   1.0000   1.0000   1.0000   1.0000   1.0000   1.0000   1.0000
     1.0000   0.0000   0.0000   0.0000   0.0000   0.0000   0.0000   0.0000
     0.0000

          k =-0.7071 0.3536 0.0000 ( 28076 PWs)   bands (ev):

   -78.9450 -74.5498 -48.9527 -48.9521 -48.9521 -44.1718 -44.1718 -44.1718
   -20.0195 -19.8567 -19.8183 -19.8183 -19.7799 -19.7722  -9.6944  -9.2315
    -8.3164  -8.0028  -7.8676  -7.8676  -6.6257  -5.7747  -5.7747  -5.5032
    -5.4072  -5.2852  -5.2160  -5.2160  -5.1582  -4.4151  -4.4151  -4.3580
    -4.0256  -3.8411  -3.8411  -3.7338  -3.3848  -3.3848  -2.7803  -2.7803
    -2.6243   2.5193   2.5194   2.7591   3.4083   3.4363   5.6513   5.6530
     5.6541

     occupation numbers 
     1.0000   1.0000   1.0000   1.0000   1.0000   1.0000   1.0000   1.0000
     1.0000   1.0000   1.0000   1.0000   1.0000   1.0000   1.0000   1.0000
     1.0000   1.0000   1.0000   1.0000   1.0000   1.0000   1.0000   1.0000
     1.0000   1.0000   1.0000   1.0000   1.0000   1.0000   1.0000   1.0000
     1.0000   1.0000   1.0000   1.0000   1.0000   1.0000   1.0000   1.0000
     1.0000   0.0000   0.0000   0.0000   0.0000   0.0000   0.0000   0.0000
     0.0000

     the Fermi energy is     1.1601 ev

!    total energy              =    -547.02375046 Ry
     estimated scf accuracy    <       0.00000002 Ry
     smearing contrib. (-TS)   =      -0.00000000 Ry
     internal energy E=F+TS    =    -547.02375046 Ry

     total magnetization       =     0.00 Bohr mag/cell
     absolute magnetization    =     7.55 Bohr mag/cell

     convergence has been achieved in   3 iterations

     Using ACE for calculation of exact exchange
     ACE projected onto    49 (nbndproj) and applied to    49 (nbnd) bands

     total energy              =    -547.02375408 Ry
     Harris-Foulkes estimate   =    -547.02375409 Ry
     est. exchange err (dexx)  =       0.00000362 Ry
     - averaged Fock potential =      36.36671005 Ry
     + Fock energy (ACE)       =     -18.18420382 Ry

     EXX: now go back to refine exchange calculation

     total cpu time spent up to now is     1864.9 secs

     per-process dynamical memory:  1860.3 Mb

     Self-consistent Calculation

     iteration #  1     ecut=    90.00 Ry     beta= 0.30
     Davidson diagonalization with overlap

---- Real-time Memory Report at c_bands before calling an iterative solver
          2013 MiB given to the printing process from OS
          1816 MiB allocation reported by mallinfo(arena+hblkhd)
        578420 MiB available memory on the node where the printing process lives
------------------
     ethr =  1.39E-09,  avg # of iterations =  4.6

     total cpu time spent up to now is     1868.6 secs

     total energy              =    -547.02375527 Ry
     estimated scf accuracy    <       0.00000037 Ry

     total magnetization       =     0.00 Bohr mag/cell
     absolute magnetization    =     7.55 Bohr mag/cell

     iteration #  2     ecut=    90.00 Ry     beta= 0.30
     Davidson diagonalization with overlap

---- Real-time Memory Report at c_bands before calling an iterative solver
          2013 MiB given to the printing process from OS
          1840 MiB allocation reported by mallinfo(arena+hblkhd)
        577390 MiB available memory on the node where the printing process lives
------------------
     ethr =  4.50E-10,  avg # of iterations =  2.0

     total cpu time spent up to now is     1871.4 secs

     total energy              =    -547.02375526 Ry
     estimated scf accuracy    <       0.00000018 Ry

     total magnetization       =    -0.00 Bohr mag/cell
     absolute magnetization    =     7.55 Bohr mag/cell

     iteration #  3     ecut=    90.00 Ry     beta= 0.30
     Davidson diagonalization with overlap

---- Real-time Memory Report at c_bands before calling an iterative solver
          2013 MiB given to the printing process from OS
          1842 MiB allocation reported by mallinfo(arena+hblkhd)
        577376 MiB available memory on the node where the printing process lives
------------------
     ethr =  2.25E-10,  avg # of iterations =  2.7

     Magnetic moment per site  (integrated on atomic sphere of radius R)
     atom   1 (R=0.112)  charge= 10.8524  magn= -2.4090
     atom   2 (R=0.115)  charge= 11.0491  magn=  2.3768
     atom   3 (R=0.065)  charge=  0.9960  magn= -0.0429
     atom   4 (R=0.065)  charge=  0.9960  magn= -0.0429
     atom   5 (R=0.065)  charge=  0.9960  magn= -0.0429
     atom   6 (R=0.065)  charge=  0.9960  magn= -0.0429
     atom   7 (R=0.065)  charge=  0.9960  magn= -0.0429
     atom   8 (R=0.065)  charge=  0.9960  magn= -0.0429
     atom   9 (R=0.065)  charge=  1.8135  magn=  0.0578
     atom  10 (R=0.065)  charge=  1.8135  magn=  0.0578
     atom  11 (R=0.065)  charge=  1.8135  magn=  0.0578
     atom  12 (R=0.065)  charge=  1.8135  magn=  0.0578
     atom  13 (R=0.065)  charge=  1.8135  magn=  0.0578
     atom  14 (R=0.065)  charge=  1.8135  magn=  0.0578

     total cpu time spent up to now is     1874.1 secs

     End of self-consistent calculation

 ------ SPIN UP ------------


          k = 0.0000 0.0000 0.0000 ( 27941 PWs)   bands (ev):

   -78.2300 -75.1301 -48.2573 -48.2573 -48.2573 -44.7333 -44.7333 -44.7333
   -20.1633 -19.8893 -19.8893 -19.8893 -19.8348 -19.8348 -10.1708  -8.1809
    -8.1809  -8.0259  -8.0259  -8.0259  -7.5110  -5.6282  -5.6282  -5.6282
    -5.5174  -5.5174  -4.7336  -4.7336  -4.7336  -4.1448  -4.1448  -4.1448
    -4.0805  -4.0805  -4.0805  -3.5785  -3.5785  -3.5785  -3.0641  -3.0641
    -3.0641   2.7999   2.7999   2.7999   3.9007   3.9007   5.4109   5.4109
     5.5540

     occupation numbers 
     1.0000   1.0000   1.0000   1.0000   1.0000   1.0000   1.0000   1.0000
     1.0000   1.0000   1.0000   1.0000   1.0000   1.0000   1.0000   1.0000
     1.0000   1.0000   1.0000   1.0000   1.0000   1.0000   1.0000   1.0000
     1.0000   1.0000   1.0000   1.0000   1.0000   1.0000   1.0000   1.0000
     1.0000   1.0000   1.0000   1.0000   1.0000   1.0000   1.0000   1.0000
     1.0000   0.0000   0.0000   0.0000   0.0000   0.0000   0.0000   0.0000
     0.0000

          k = 0.1768 0.1768-0.1768 ( 28028 PWs)   bands (ev):

   -78.2266 -75.1301 -48.2538 -48.2529 -48.2529 -44.7334 -44.7334 -44.7330
   -20.1412 -19.9151 -19.8832 -19.8832 -19.8424 -19.8424  -9.9938  -8.6611
    -8.1948  -8.1948  -7.9812  -7.9812  -6.9256  -5.6233  -5.5232  -5.5232
    -5.5043  -5.5043  -4.8758  -4.8758  -4.8716  -4.4400  -4.4400  -4.2307
    -4.0766  -4.0458  -4.0458  -3.6616  -3.5260  -3.5260  -2.8911  -2.8635
    -2.8635   2.8477   2.8874   2.8874   4.0255   4.0255   5.2675   5.2675
     5.3151

     occupation numbers 
     1.0000   1.0000   1.0000   1.0000   1.0000   1.0000   1.0000   1.0000
     1.0000   1.0000   1.0000   1.0000   1.0000   1.0000   1.0000   1.0000
     1.0000   1.0000   1.0000   1.0000   1.0000   1.0000   1.0000   1.0000
     1.0000   1.0000   1.0000   1.0000   1.0000   1.0000   1.0000   1.0000
     1.0000   1.0000   1.0000   1.0000   1.0000   1.0000   1.0000   1.0000
     1.0000   0.0000   0.0000   0.0000   0.0000   0.0000   0.0000   0.0000
     0.0000

          k =-0.3536-0.3536 0.3536 ( 28096 PWs)   bands (ev):

   -78.2233 -75.1300 -48.2502 -48.2487 -48.2487 -44.7333 -44.7333 -44.7325
   -20.1124 -19.9476 -19.8730 -19.8730 -19.8541 -19.8541  -9.6416  -9.2382
    -8.2030  -8.2030  -7.9416  -7.9416  -6.5202  -5.6615  -5.4795  -5.4795
    -5.3421  -5.3421  -5.0320  -5.0320  -5.0162  -4.7719  -4.7719  -4.3522
    -3.9646  -3.9646  -3.9556  -3.7976  -3.5094  -3.5094  -2.7502  -2.7126
    -2.7126   2.9003   2.9846   2.9846   4.2012   4.2012   5.0914   5.0914
     5.1211

     occupation numbers 
     1.0000   1.0000   1.0000   1.0000   1.0000   1.0000   1.0000   1.0000
     1.0000   1.0000   1.0000   1.0000   1.0000   1.0000   1.0000   1.0000
     1.0000   1.0000   1.0000   1.0000   1.0000   1.0000   1.0000   1.0000
     1.0000   1.0000   1.0000   1.0000   1.0000   1.0000   1.0000   1.0000
     1.0000   1.0000   1.0000   1.0000   1.0000   1.0000   1.0000   1.0000
     1.0000   0.0000   0.0000   0.0000   0.0000   0.0000   0.0000   0.0000
     0.0000

          k = 0.3536 0.0000 0.0000 ( 28050 PWs)   bands (ev):

   -78.2262 -75.1301 -48.2538 -48.2537 -48.2508 -44.7333 -44.7333 -44.7331
   -20.1354 -19.9024 -19.8906 -19.8906 -19.8554 -19.8349  -9.9668  -8.7556
    -8.1818  -8.0684  -7.9912  -7.9912  -6.9328  -5.6332  -5.5406  -5.5144
    -5.4691  -5.4691  -5.1807  -4.7885  -4.7885  -4.5304  -4.5304  -4.1679
    -4.1549  -4.1549  -3.7714  -3.5796  -3.5773  -3.5773  -3.0627  -2.7291
    -2.7288   2.8016   2.9858   2.9859   3.9087   4.1231   5.0958   5.4278
     5.5332

     occupation numbers 
     1.0000   1.0000   1.0000   1.0000   1.0000   1.0000   1.0000   1.0000
     1.0000   1.0000   1.0000   1.0000   1.0000   1.0000   1.0000   1.0000
     1.0000   1.0000   1.0000   1.0000   1.0000   1.0000   1.0000   1.0000
     1.0000   1.0000   1.0000   1.0000   1.0000   1.0000   1.0000   1.0000
     1.0000   1.0000   1.0000   1.0000   1.0000   1.0000   1.0000   1.0000
     1.0000   0.0000   0.0000   0.0000   0.0000   0.0000   0.0000   0.0000
     0.0000

          k =-0.1768-0.5303 0.5303 ( 28062 PWs)   bands (ev):

   -78.2238 -75.1302 -48.2508 -48.2502 -48.2485 -44.7334 -44.7334 -44.7330
   -20.1089 -19.9316 -19.8846 -19.8835 -19.8646 -19.8423  -9.7039  -9.1774
    -8.1931  -8.0816  -7.9475  -7.9234  -6.6440  -5.6302  -5.5675  -5.5006
    -5.4865  -5.3044  -5.1952  -4.9850  -4.8729  -4.7769  -4.7042  -4.4304
    -4.1045  -4.0311  -3.7868  -3.7123  -3.4868  -3.4837  -2.8721  -2.6189
    -2.6069   2.8736   3.0949   3.1294   4.0397   4.1417   5.0831   5.2733
     5.3267

     occupation numbers 
     1.0000   1.0000   1.0000   1.0000   1.0000   1.0000   1.0000   1.0000
     1.0000   1.0000   1.0000   1.0000   1.0000   1.0000   1.0000   1.0000
     1.0000   1.0000   1.0000   1.0000   1.0000   1.0000   1.0000   1.0000
     1.0000   1.0000   1.0000   1.0000   1.0000   1.0000   1.0000   1.0000
     1.0000   1.0000   1.0000   1.0000   1.0000   1.0000   1.0000   1.0000
     1.0000   0.0000   0.0000   0.0000   0.0000   0.0000   0.0000   0.0000
     0.0000

          k = 0.0000-0.3536 0.3536 ( 28037 PWs)   bands (ev):

   -78.2240 -75.1301 -48.2505 -48.2503 -48.2494 -44.7334 -44.7332 -44.7329
   -20.1163 -19.9314 -19.8918 -19.8730 -19.8540 -19.8472  -9.7620  -9.0901
    -8.2038  -8.1229  -7.9568  -7.9402  -6.6529  -5.5955  -5.5508  -5.5052
    -5.4725  -5.3445  -5.1475  -5.0297  -4.8138  -4.6994  -4.5787  -4.5197
    -4.0345  -3.9616  -3.8954  -3.7849  -3.5380  -3.4536  -2.7450  -2.7257
    -2.7123   2.9544   2.9550   3.0193   4.0314   4.2003   5.0657   5.2491
     5.2694

     occupation numbers 
     1.0000   1.0000   1.0000   1.0000   1.0000   1.0000   1.0000   1.0000
     1.0000   1.0000   1.0000   1.0000   1.0000   1.0000   1.0000   1.0000
     1.0000   1.0000   1.0000   1.0000   1.0000   1.0000   1.0000   1.0000
     1.0000   1.0000   1.0000   1.0000   1.0000   1.0000   1.0000   1.0000
     1.0000   1.0000   1.0000   1.0000   1.0000   1.0000   1.0000   1.0000
     1.0000   0.0000   0.0000   0.0000   0.0000   0.0000   0.0000   0.0000
     0.0000

          k =-0.7071 0.0000 0.0000 ( 28090 PWs)   bands (ev):

   -78.2244 -75.1303 -48.2519 -48.2519 -48.2480 -44.7334 -44.7334 -44.7334
   -20.1049 -19.8994 -19.8941 -19.8917 -19.8917 -19.8350  -9.7534  -9.1281
    -8.1826  -7.9540  -7.9540  -7.8834  -6.8068  -5.6671  -5.6382  -5.5302
    -5.5110  -5.2175  -5.2175  -4.8854  -4.8854  -4.8611  -4.8611  -4.2084
    -4.2084  -4.1906  -3.5985  -3.5985  -3.5807  -3.3866  -3.0609  -2.5200
    -2.5200   2.8036   3.2892   3.2892   3.9157   4.0824   5.1188   5.3933
     5.4445

     occupation numbers 
     1.0000   1.0000   1.0000   1.0000   1.0000   1.0000   1.0000   1.0000
     1.0000   1.0000   1.0000   1.0000   1.0000   1.0000   1.0000   1.0000
     1.0000   1.0000   1.0000   1.0000   1.0000   1.0000   1.0000   1.0000
     1.0000   1.0000   1.0000   1.0000   1.0000   1.0000   1.0000   1.0000
     1.0000   1.0000   1.0000   1.0000   1.0000   1.0000   1.0000   1.0000
     1.0000   0.0000   0.0000   0.0000   0.0000   0.0000   0.0000   0.0000
     0.0000

          k =-0.7071 0.3536 0.0000 ( 28076 PWs)   bands (ev):

   -78.2234 -75.1302 -48.2500 -48.2491 -48.2491 -44.7334 -44.7334 -44.7332
   -20.1010 -19.9273 -19.8930 -19.8930 -19.8556 -19.8474  -9.6204  -9.2881
    -8.1963  -8.0271  -7.9199  -7.9199  -6.6486  -5.6522  -5.5797  -5.5797
    -5.4671  -5.2583  -5.0967  -5.0967  -4.8850  -4.8614  -4.5818  -4.5818
    -4.1566  -3.9161  -3.9161  -3.7415  -3.4253  -3.4253  -2.7286  -2.7284
    -2.5202   2.9861   2.9862   3.2892   4.0346   4.0869   5.2014   5.2122
     5.5817

     occupation numbers 
     1.0000   1.0000   1.0000   1.0000   1.0000   1.0000   1.0000   1.0000
     1.0000   1.0000   1.0000   1.0000   1.0000   1.0000   1.0000   1.0000
     1.0000   1.0000   1.0000   1.0000   1.0000   1.0000   1.0000   1.0000
     1.0000   1.0000   1.0000   1.0000   1.0000   1.0000   1.0000   1.0000
     1.0000   1.0000   1.0000   1.0000   1.0000   1.0000   1.0000   1.0000
     1.0000   0.0000   0.0000   0.0000   0.0000   0.0000   0.0000   0.0000
     0.0000

 ------ SPIN DOWN ----------


          k = 0.0000 0.0000 0.0000 ( 27941 PWs)   bands (ev):

   -78.9520 -74.5465 -48.9609 -48.9609 -48.9609 -44.1685 -44.1685 -44.1685
   -20.0863 -19.8139 -19.8139 -19.8139 -19.7582 -19.7582 -10.1923  -8.2794
    -8.2794  -7.9804  -7.9804  -7.9804  -7.4123  -5.8437  -5.8437  -5.8437
    -5.2581  -5.2581  -4.7245  -4.7245  -4.7245  -4.0631  -4.0631  -4.0631
    -4.0381  -4.0381  -4.0381  -3.4890  -3.4890  -3.4890  -3.1554  -3.1554
    -3.1554   2.4308   2.4308   2.4308   3.3373   3.3373   5.4919   5.8075
     5.8075

     occupation numbers 
     1.0000   1.0000   1.0000   1.0000   1.0000   1.0000   1.0000   1.0000
     1.0000   1.0000   1.0000   1.0000   1.0000   1.0000   1.0000   1.0000
     1.0000   1.0000   1.0000   1.0000   1.0000   1.0000   1.0000   1.0000
     1.0000   1.0000   1.0000   1.0000   1.0000   1.0000   1.0000   1.0000
     1.0000   1.0000   1.0000   1.0000   1.0000   1.0000   1.0000   1.0000
     1.0000   0.0000   0.0000   0.0000   0.0000   0.0000   0.0000   0.0000
     0.0000

          k = 0.1768 0.1768-0.1768 ( 28028 PWs)   bands (ev):

   -78.9480 -74.5465 -48.9568 -48.9558 -48.9558 -44.1687 -44.1687 -44.1684
   -20.0627 -19.8413 -19.8074 -19.8074 -19.7662 -19.7662 -10.0224  -8.6019
    -8.3113  -8.3113  -7.9068  -7.9068  -6.8179  -5.8513  -5.7719  -5.7719
    -5.2872  -5.2872  -4.8343  -4.8343  -4.7910  -4.3569  -4.3569  -4.3331
    -3.9903  -3.9579  -3.9579  -3.5776  -3.4763  -3.4763  -2.9254  -2.9254
    -2.8953   2.4010   2.4607   2.4607   3.4101   3.4101   5.4546   5.6844
     5.6855

     occupation numbers 
     1.0000   1.0000   1.0000   1.0000   1.0000   1.0000   1.0000   1.0000
     1.0000   1.0000   1.0000   1.0000   1.0000   1.0000   1.0000   1.0000
     1.0000   1.0000   1.0000   1.0000   1.0000   1.0000   1.0000   1.0000
     1.0000   1.0000   1.0000   1.0000   1.0000   1.0000   1.0000   1.0000
     1.0000   1.0000   1.0000   1.0000   1.0000   1.0000   1.0000   1.0000
     1.0000   0.0000   0.0000   0.0000   0.0000   0.0000   0.0000   0.0000
     0.0000

          k =-0.3536-0.3536 0.3536 ( 28096 PWs)   bands (ev):

   -78.9446 -74.5462 -48.9530 -48.9515 -48.9515 -44.1685 -44.1685 -44.1678
   -20.0313 -19.8768 -19.7964 -19.7964 -19.7789 -19.7789  -9.7221  -9.1287
    -8.3340  -8.3340  -7.8403  -7.8403  -6.3556  -5.9343  -5.7076  -5.7076
    -5.1433  -5.1433  -5.1152  -5.1152  -4.8520  -4.5919  -4.5919  -4.5821
    -3.8467  -3.8150  -3.8150  -3.7371  -3.5192  -3.5192  -2.7601  -2.7601
    -2.7041   2.3687   2.4913   2.4913   3.4946   3.4946   5.4278   5.6366
     5.6366

     occupation numbers 
     1.0000   1.0000   1.0000   1.0000   1.0000   1.0000   1.0000   1.0000
     1.0000   1.0000   1.0000   1.0000   1.0000   1.0000   1.0000   1.0000
     1.0000   1.0000   1.0000   1.0000   1.0000   1.0000   1.0000   1.0000
     1.0000   1.0000   1.0000   1.0000   1.0000   1.0000   1.0000   1.0000
     1.0000   1.0000   1.0000   1.0000   1.0000   1.0000   1.0000   1.0000
     1.0000   0.0000   0.0000   0.0000   0.0000   0.0000   0.0000   0.0000
     0.0000

          k = 0.3536 0.0000 0.0000 ( 28050 PWs)   bands (ev):

   -78.9477 -74.5465 -48.9568 -48.9568 -48.9537 -44.1686 -44.1686 -44.1684
   -20.0566 -19.8280 -19.8153 -19.8153 -19.7797 -19.7585  -9.9958  -8.7515
    -8.2802  -8.0890  -7.9436  -7.9436  -6.8417  -5.8475  -5.7290  -5.7290
    -5.4208  -5.2549  -5.0542  -4.8165  -4.8164  -4.4109  -4.4109  -4.0876
    -4.0700  -4.0700  -3.7276  -3.5122  -3.5122  -3.4902  -3.1558  -2.7888
    -2.7887   2.4361   2.5172   2.5172   3.3389   3.4595   5.3606   5.7064
     5.8387

     occupation numbers 
     1.0000   1.0000   1.0000   1.0000   1.0000   1.0000   1.0000   1.0000
     1.0000   1.0000   1.0000   1.0000   1.0000   1.0000   1.0000   1.0000
     1.0000   1.0000   1.0000   1.0000   1.0000   1.0000   1.0000   1.0000
     1.0000   1.0000   1.0000   1.0000   1.0000   1.0000   1.0000   1.0000
     1.0000   1.0000   1.0000   1.0000   1.0000   1.0000   1.0000   1.0000
     1.0000   0.0000   0.0000   0.0000   0.0000   0.0000   0.0000   0.0000
     0.0000

          k =-0.1768-0.5303 0.5303 ( 28062 PWs)   bands (ev):

   -78.9451 -74.5464 -48.9537 -48.9530 -48.9513 -44.1686 -44.1686 -44.1682
   -20.0277 -19.8601 -19.8089 -19.8077 -19.7896 -19.7661  -9.7603  -9.1293
    -8.3093  -8.1303  -7.8703  -7.8470  -6.5760  -5.8477  -5.7273  -5.6233
    -5.3286  -5.2317  -5.2257  -5.1249  -5.0269  -4.4895  -4.4431  -4.3496
    -3.9958  -3.9353  -3.7090  -3.6758  -3.4523  -3.4440  -2.9113  -2.6886
    -2.6708   2.4388   2.5811   2.6216   3.4140   3.4641   5.4440   5.6415
     5.7276

     occupation numbers 
     1.0000   1.0000   1.0000   1.0000   1.0000   1.0000   1.0000   1.0000
     1.0000   1.0000   1.0000   1.0000   1.0000   1.0000   1.0000   1.0000
     1.0000   1.0000   1.0000   1.0000   1.0000   1.0000   1.0000   1.0000
     1.0000   1.0000   1.0000   1.0000   1.0000   1.0000   1.0000   1.0000
     1.0000   1.0000   1.0000   1.0000   1.0000   1.0000   1.0000   1.0000
     1.0000   0.0000   0.0000   0.0000   0.0000   0.0000   0.0000   0.0000
     0.0000

          k = 0.0000-0.3536 0.3536 ( 28037 PWs)   bands (ev):

   -78.9452 -74.5464 -48.9532 -48.9531 -48.9521 -44.1686 -44.1685 -44.1682
   -20.0358 -19.8594 -19.8166 -19.7962 -19.7788 -19.7712  -9.8108  -9.0372
    -8.3341  -8.1809  -7.9071  -7.8396  -6.5421  -5.8098  -5.8039  -5.6590
    -5.3421  -5.2471  -5.0692  -5.0516  -4.8857  -4.5883  -4.4094  -4.4063
    -3.9521  -3.8848  -3.8223  -3.6868  -3.5307  -3.4102  -2.8033  -2.7676
    -2.7410   2.4486   2.4768   2.5629   3.4103   3.4935   5.5068   5.5707
     5.7135

     occupation numbers 
     1.0000   1.0000   1.0000   1.0000   1.0000   1.0000   1.0000   1.0000
     1.0000   1.0000   1.0000   1.0000   1.0000   1.0000   1.0000   1.0000
     1.0000   1.0000   1.0000   1.0000   1.0000   1.0000   1.0000   1.0000
     1.0000   1.0000   1.0000   1.0000   1.0000   1.0000   1.0000   1.0000
     1.0000   1.0000   1.0000   1.0000   1.0000   1.0000   1.0000   1.0000
     1.0000   0.0000   0.0000   0.0000   0.0000   0.0000   0.0000   0.0000
     0.0000

          k =-0.7071 0.0000 0.0000 ( 28090 PWs)   bands (ev):

   -78.9464 -74.5464 -48.9555 -48.9555 -48.9516 -44.1684 -44.1684 -44.1682
   -20.0237 -19.8277 -19.8191 -19.8165 -19.8165 -19.7585  -9.7964  -9.1198
    -8.2808  -7.9039  -7.9039  -7.8284  -6.8523  -5.8514  -5.5362  -5.5031
    -5.5031  -5.3467  -5.2515  -5.2199  -5.2199  -4.3577  -4.3577  -4.1148
    -4.1148  -4.1115  -3.5618  -3.5618  -3.4914  -3.3366  -3.1570  -2.6256
    -2.6256   2.4416   2.7607   2.7607   3.3393   3.4333   5.3466   5.5783
     5.8690

     occupation numbers 
     1.0000   1.0000   1.0000   1.0000   1.0000   1.0000   1.0000   1.0000
     1.0000   1.0000   1.0000   1.0000   1.0000   1.0000   1.0000   1.0000
     1.0000   1.0000   1.0000   1.0000   1.0000   1.0000   1.0000   1.0000
     1.0000   1.0000   1.0000   1.0000   1.0000   1.0000   1.0000   1.0000
     1.0000   1.0000   1.0000   1.0000   1.0000   1.0000   1.0000   1.0000
     1.0000   0.0000   0.0000   0.0000   0.0000   0.0000   0.0000   0.0000
     0.0000

          k =-0.7071 0.3536 0.0000 ( 28076 PWs)   bands (ev):

   -78.9449 -74.5464 -48.9529 -48.9522 -48.9522 -44.1684 -44.1684 -44.1684
   -20.0190 -19.8562 -19.8179 -19.8179 -19.7794 -19.7717  -9.6942  -9.2316
    -8.3160  -8.0025  -7.8676  -7.8676  -6.6255  -5.7745  -5.7745  -5.5029
    -5.4072  -5.2848  -5.2160  -5.2160  -5.1576  -4.4147  -4.4147  -4.3577
    -4.0251  -3.8407  -3.8407  -3.7336  -3.3847  -3.3847  -2.7817  -2.7816
    -2.6253   2.5206   2.5206   2.7606   3.4098   3.4378   5.6511   5.6542
     5.6561

     occupation numbers 
     1.0000   1.0000   1.0000   1.0000   1.0000   1.0000   1.0000   1.0000
     1.0000   1.0000   1.0000   1.0000   1.0000   1.0000   1.0000   1.0000
     1.0000   1.0000   1.0000   1.0000   1.0000   1.0000   1.0000   1.0000
     1.0000   1.0000   1.0000   1.0000   1.0000   1.0000   1.0000   1.0000
     1.0000   1.0000   1.0000   1.0000   1.0000   1.0000   1.0000   1.0000
     1.0000   0.0000   0.0000   0.0000   0.0000   0.0000   0.0000   0.0000
     0.0000

     the Fermi energy is     1.1629 ev

!    total energy              =    -547.02375530 Ry
     estimated scf accuracy    <          7.0E-09 Ry
     smearing contrib. (-TS)   =      -0.00000000 Ry
     internal energy E=F+TS    =    -547.02375530 Ry

     total magnetization       =     0.00 Bohr mag/cell
     absolute magnetization    =     7.55 Bohr mag/cell

     convergence has been achieved in   3 iterations

     Using ACE for calculation of exact exchange
     ACE projected onto    49 (nbndproj) and applied to    49 (nbnd) bands

     total energy              =    -547.02375570 Ry
     Harris-Foulkes estimate   =    -547.02375570 Ry
     est. exchange err (dexx)  =       0.00000040 Ry
     - averaged Fock potential =      36.36888959 Ry
     + Fock energy (ACE)       =     -18.18468617 Ry

     EXX: now go back to refine exchange calculation

     total cpu time spent up to now is     2227.3 secs

     per-process dynamical memory:  1860.3 Mb

     Self-consistent Calculation

     iteration #  1     ecut=    90.00 Ry     beta= 0.30
     Davidson diagonalization with overlap

---- Real-time Memory Report at c_bands before calling an iterative solver
          2013 MiB given to the printing process from OS
          1816 MiB allocation reported by mallinfo(arena+hblkhd)
        578406 MiB available memory on the node where the printing process lives
------------------
     ethr =  2.25E-10,  avg # of iterations =  4.4

     Magnetic moment per site  (integrated on atomic sphere of radius R)
     atom   1 (R=0.112)  charge= 10.8525  magn= -2.4091
     atom   2 (R=0.115)  charge= 11.0493  magn=  2.3772
     atom   3 (R=0.065)  charge=  0.9960  magn= -0.0429
     atom   4 (R=0.065)  charge=  0.9960  magn= -0.0429
     atom   5 (R=0.065)  charge=  0.9960  magn= -0.0429
     atom   6 (R=0.065)  charge=  0.9960  magn= -0.0429
     atom   7 (R=0.065)  charge=  0.9960  magn= -0.0429
     atom   8 (R=0.065)  charge=  0.9960  magn= -0.0429
     atom   9 (R=0.065)  charge=  1.8134  magn=  0.0578
     atom  10 (R=0.065)  charge=  1.8134  magn=  0.0578
     atom  11 (R=0.065)  charge=  1.8134  magn=  0.0578
     atom  12 (R=0.065)  charge=  1.8134  magn=  0.0578
     atom  13 (R=0.065)  charge=  1.8134  magn=  0.0578
     atom  14 (R=0.065)  charge=  1.8134  magn=  0.0578

     total cpu time spent up to now is     2230.9 secs

     End of self-consistent calculation

 ------ SPIN UP ------------


          k = 0.0000 0.0000 0.0000 ( 27941 PWs)   bands (ev):

   -78.2307 -75.1302 -48.2581 -48.2581 -48.2581 -44.7333 -44.7333 -44.7333
   -20.1632 -19.8892 -19.8892 -19.8892 -19.8347 -19.8347 -10.1706  -8.1808
    -8.1808  -8.0259  -8.0259  -8.0259  -7.5109  -5.6282  -5.6282  -5.6282
    -5.5172  -5.5172  -4.7335  -4.7335  -4.7335  -4.1447  -4.1447  -4.1447
    -4.0804  -4.0804  -4.0804  -3.5784  -3.5784  -3.5784  -3.0652  -3.0652
    -3.0652   2.7998   2.7998   2.7998   3.9010   3.9010   5.4110   5.4110
     5.5542

     occupation numbers 
     1.0000   1.0000   1.0000   1.0000   1.0000   1.0000   1.0000   1.0000
     1.0000   1.0000   1.0000   1.0000   1.0000   1.0000   1.0000   1.0000
     1.0000   1.0000   1.0000   1.0000   1.0000   1.0000   1.0000   1.0000
     1.0000   1.0000   1.0000   1.0000   1.0000   1.0000   1.0000   1.0000
     1.0000   1.0000   1.0000   1.0000   1.0000   1.0000   1.0000   1.0000
     1.0000   0.0000   0.0000   0.0000   0.0000   0.0000   0.0000   0.0000
     0.0000

          k = 0.1768 0.1768-0.1768 ( 28028 PWs)   bands (ev):

   -78.2273 -75.1302 -48.2545 -48.2536 -48.2536 -44.7335 -44.7335 -44.7331
   -20.1411 -19.9150 -19.8830 -19.8830 -19.8423 -19.8423  -9.9937  -8.6610
    -8.1947  -8.1947  -7.9811  -7.9811  -6.9256  -5.6233  -5.5232  -5.5232
    -5.5042  -5.5042  -4.8757  -4.8757  -4.8716  -4.4400  -4.4400  -4.2307
    -4.0765  -4.0458  -4.0458  -3.6615  -3.5259  -3.5259  -2.8920  -2.8646
    -2.8646   2.8477   2.8874   2.8874   4.0258   4.0258   5.2672   5.2672
     5.3151

     occupation numbers 
     1.0000   1.0000   1.0000   1.0000   1.0000   1.0000   1.0000   1.0000
     1.0000   1.0000   1.0000   1.0000   1.0000   1.0000   1.0000   1.0000
     1.0000   1.0000   1.0000   1.0000   1.0000   1.0000   1.0000   1.0000
     1.0000   1.0000   1.0000   1.0000   1.0000   1.0000   1.0000   1.0000
     1.0000   1.0000   1.0000   1.0000   1.0000   1.0000   1.0000   1.0000
     1.0000   0.0000   0.0000   0.0000   0.0000   0.0000   0.0000   0.0000
     0.0000

          k =-0.3536-0.3536 0.3536 ( 28096 PWs)   bands (ev):

   -78.2240 -75.1301 -48.2509 -48.2494 -48.2494 -44.7334 -44.7334 -44.7326
   -20.1123 -19.9475 -19.8729 -19.8729 -19.8540 -19.8540  -9.6415  -9.2380
    -8.2029  -8.2029  -7.9415  -7.9415  -6.5201  -5.6614  -5.4793  -5.4793
    -5.3420  -5.3420  -5.0320  -5.0320  -5.0162  -4.7718  -4.7718  -4.3521
    -3.9645  -3.9645  -3.9555  -3.7974  -3.5093  -3.5093  -2.7513  -2.7137
    -2.7137   2.9004   2.9847   2.9847   4.2014   4.2014   5.0915   5.0915
     5.1210

     occupation numbers 
     1.0000   1.0000   1.0000   1.0000   1.0000   1.0000   1.0000   1.0000
     1.0000   1.0000   1.0000   1.0000   1.0000   1.0000   1.0000   1.0000
     1.0000   1.0000   1.0000   1.0000   1.0000   1.0000   1.0000   1.0000
     1.0000   1.0000   1.0000   1.0000   1.0000   1.0000   1.0000   1.0000
     1.0000   1.0000   1.0000   1.0000   1.0000   1.0000   1.0000   1.0000
     1.0000   0.0000   0.0000   0.0000   0.0000   0.0000   0.0000   0.0000
     0.0000

          k = 0.3536 0.0000 0.0000 ( 28050 PWs)   bands (ev):

   -78.2269 -75.1302 -48.2544 -48.2544 -48.2516 -44.7334 -44.7334 -44.7332
   -20.1353 -19.9023 -19.8904 -19.8904 -19.8553 -19.8348  -9.9667  -8.7555
    -8.1817  -8.0683  -7.9911  -7.9911  -6.9327  -5.6332  -5.5404  -5.5142
    -5.4690  -5.4690  -5.1805  -4.7885  -4.7885  -4.5304  -4.5304  -4.1678
    -4.1548  -4.1548  -3.7713  -3.5795  -3.5772  -3.5772  -3.0635  -2.7302
    -2.7301   2.8016   2.9859   2.9859   3.9089   4.1233   5.0959   5.4279
     5.5334

     occupation numbers 
     1.0000   1.0000   1.0000   1.0000   1.0000   1.0000   1.0000   1.0000
     1.0000   1.0000   1.0000   1.0000   1.0000   1.0000   1.0000   1.0000
     1.0000   1.0000   1.0000   1.0000   1.0000   1.0000   1.0000   1.0000
     1.0000   1.0000   1.0000   1.0000   1.0000   1.0000   1.0000   1.0000
     1.0000   1.0000   1.0000   1.0000   1.0000   1.0000   1.0000   1.0000
     1.0000   0.0000   0.0000   0.0000   0.0000   0.0000   0.0000   0.0000
     0.0000

          k =-0.1768-0.5303 0.5303 ( 28062 PWs)   bands (ev):

   -78.2245 -75.1303 -48.2515 -48.2509 -48.2492 -44.7335 -44.7335 -44.7331
   -20.1088 -19.9315 -19.8845 -19.8834 -19.8644 -19.8422  -9.7038  -9.1773
    -8.1930  -8.0815  -7.9475  -7.9233  -6.6440  -5.6301  -5.5673  -5.5004
    -5.4863  -5.3043  -5.1952  -4.9850  -4.8730  -4.7768  -4.7041  -4.4304
    -4.1045  -4.0310  -3.7868  -3.7123  -3.4868  -3.4836  -2.8732  -2.6199
    -2.6080   2.8735   3.0950   3.1295   4.0399   4.1420   5.0829   5.2730
     5.3263

     occupation numbers 
     1.0000   1.0000   1.0000   1.0000   1.0000   1.0000   1.0000   1.0000
     1.0000   1.0000   1.0000   1.0000   1.0000   1.0000   1.0000   1.0000
     1.0000   1.0000   1.0000   1.0000   1.0000   1.0000   1.0000   1.0000
     1.0000   1.0000   1.0000   1.0000   1.0000   1.0000   1.0000   1.0000
     1.0000   1.0000   1.0000   1.0000   1.0000   1.0000   1.0000   1.0000
     1.0000   0.0000   0.0000   0.0000   0.0000   0.0000   0.0000   0.0000
     0.0000

          k = 0.0000-0.3536 0.3536 ( 28037 PWs)   bands (ev):

   -78.2247 -75.1302 -48.2511 -48.2511 -48.2501 -44.7335 -44.7333 -44.7330
   -20.1162 -19.9313 -19.8917 -19.8728 -19.8539 -19.8471  -9.7619  -9.0900
    -8.2036  -8.1228  -7.9567  -7.9401  -6.6529  -5.5954  -5.5506  -5.5051
    -5.4723  -5.3444  -5.1474  -5.0297  -4.8137  -4.6994  -4.5787  -4.5197
    -4.0344  -3.9615  -3.8954  -3.7848  -3.5380  -3.4536  -2.7462  -2.7265
    -2.7135   2.9545   2.9551   3.0194   4.0316   4.2005   5.0655   5.2489
     5.2694

     occupation numbers 
     1.0000   1.0000   1.0000   1.0000   1.0000   1.0000   1.0000   1.0000
     1.0000   1.0000   1.0000   1.0000   1.0000   1.0000   1.0000   1.0000
     1.0000   1.0000   1.0000   1.0000   1.0000   1.0000   1.0000   1.0000
     1.0000   1.0000   1.0000   1.0000   1.0000   1.0000   1.0000   1.0000
     1.0000   1.0000   1.0000   1.0000   1.0000   1.0000   1.0000   1.0000
     1.0000   0.0000   0.0000   0.0000   0.0000   0.0000   0.0000   0.0000
     0.0000

          k =-0.7071 0.0000 0.0000 ( 28090 PWs)   bands (ev):

   -78.2251 -75.1304 -48.2526 -48.2526 -48.2488 -44.7335 -44.7335 -44.7335
   -20.1048 -19.8993 -19.8940 -19.8916 -19.8916 -19.8348  -9.7533  -9.1279
    -8.1825  -7.9539  -7.9539  -7.8833  -6.8068  -5.6669  -5.6381  -5.5301
    -5.5109  -5.2174  -5.2174  -4.8854  -4.8854  -4.8611  -4.8611  -4.2083
    -4.2083  -4.1905  -3.5985  -3.5985  -3.5806  -3.3866  -3.0621  -2.5211
    -2.5211   2.8035   3.2892   3.2892   3.9159   4.0827   5.1188   5.3936
     5.4446

     occupation numbers 
     1.0000   1.0000   1.0000   1.0000   1.0000   1.0000   1.0000   1.0000
     1.0000   1.0000   1.0000   1.0000   1.0000   1.0000   1.0000   1.0000
     1.0000   1.0000   1.0000   1.0000   1.0000   1.0000   1.0000   1.0000
     1.0000   1.0000   1.0000   1.0000   1.0000   1.0000   1.0000   1.0000
     1.0000   1.0000   1.0000   1.0000   1.0000   1.0000   1.0000   1.0000
     1.0000   0.0000   0.0000   0.0000   0.0000   0.0000   0.0000   0.0000
     0.0000

          k =-0.7071 0.3536 0.0000 ( 28076 PWs)   bands (ev):

   -78.2241 -75.1303 -48.2508 -48.2498 -48.2497 -44.7335 -44.7335 -44.7333
   -20.1009 -19.9272 -19.8929 -19.8929 -19.8555 -19.8473  -9.6203  -9.2879
    -8.1961  -8.0270  -7.9198  -7.9198  -6.6485  -5.6520  -5.5797  -5.5796
    -5.4669  -5.2581  -5.0966  -5.0966  -4.8850  -4.8614  -4.5818  -4.5818
    -4.1565  -3.9160  -3.9160  -3.7415  -3.4252  -3.4252  -2.7297  -2.7297
    -2.5210   2.9861   2.9862   3.2892   4.0348   4.0872   5.2012   5.2123
     5.5809

     occupation numbers 
     1.0000   1.0000   1.0000   1.0000   1.0000   1.0000   1.0000   1.0000
     1.0000   1.0000   1.0000   1.0000   1.0000   1.0000   1.0000   1.0000
     1.0000   1.0000   1.0000   1.0000   1.0000   1.0000   1.0000   1.0000
     1.0000   1.0000   1.0000   1.0000   1.0000   1.0000   1.0000   1.0000
     1.0000   1.0000   1.0000   1.0000   1.0000   1.0000   1.0000   1.0000
     1.0000   0.0000   0.0000   0.0000   0.0000   0.0000   0.0000   0.0000
     0.0000

 ------ SPIN DOWN ----------


          k = 0.0000 0.0000 0.0000 ( 27941 PWs)   bands (ev):

   -78.9524 -74.5465 -48.9613 -48.9613 -48.9613 -44.1685 -44.1685 -44.1685
   -20.0860 -19.8136 -19.8136 -19.8136 -19.7580 -19.7580 -10.1923  -8.2792
    -8.2792  -7.9803  -7.9803  -7.9803  -7.4123  -5.8436  -5.8436  -5.8436
    -5.2580  -5.2580  -4.7245  -4.7245  -4.7245  -4.0629  -4.0629  -4.0629
    -4.0379  -4.0379  -4.0379  -3.4887  -3.4887  -3.4887  -3.1559  -3.1559
    -3.1559   2.4309   2.4309   2.4309   3.3375   3.3375   5.4920   5.8079
     5.8079

     occupation numbers 
     1.0000   1.0000   1.0000   1.0000   1.0000   1.0000   1.0000   1.0000
     1.0000   1.0000   1.0000   1.0000   1.0000   1.0000   1.0000   1.0000
     1.0000   1.0000   1.0000   1.0000   1.0000   1.0000   1.0000   1.0000
     1.0000   1.0000   1.0000   1.0000   1.0000   1.0000   1.0000   1.0000
     1.0000   1.0000   1.0000   1.0000   1.0000   1.0000   1.0000   1.0000
     1.0000   0.0000   0.0000   0.0000   0.0000   0.0000   0.0000   0.0000
     0.0000

          k = 0.1768 0.1768-0.1768 ( 28028 PWs)   bands (ev):

   -78.9484 -74.5465 -48.9572 -48.9562 -48.9562 -44.1686 -44.1686 -44.1683
   -20.0624 -19.8411 -19.8071 -19.8071 -19.7659 -19.7659 -10.0223  -8.6018
    -8.3111  -8.3111  -7.9067  -7.9067  -6.8178  -5.8512  -5.7718  -5.7718
    -5.2871  -5.2871  -4.8344  -4.8344  -4.7911  -4.3567  -4.3567  -4.3330
    -3.9900  -3.9576  -3.9576  -3.5773  -3.4761  -3.4761  -2.9259  -2.9259
    -2.8957   2.4012   2.4608   2.4608   3.4103   3.4103   5.4546   5.6788
     5.6798

     occupation numbers 
     1.0000   1.0000   1.0000   1.0000   1.0000   1.0000   1.0000   1.0000
     1.0000   1.0000   1.0000   1.0000   1.0000   1.0000   1.0000   1.0000
     1.0000   1.0000   1.0000   1.0000   1.0000   1.0000   1.0000   1.0000
     1.0000   1.0000   1.0000   1.0000   1.0000   1.0000   1.0000   1.0000
     1.0000   1.0000   1.0000   1.0000   1.0000   1.0000   1.0000   1.0000
     1.0000   0.0000   0.0000   0.0000   0.0000   0.0000   0.0000   0.0000
     0.0000

          k =-0.3536-0.3536 0.3536 ( 28096 PWs)   bands (ev):

   -78.9449 -74.5463 -48.9534 -48.9519 -48.9519 -44.1684 -44.1684 -44.1678
   -20.0310 -19.8766 -19.7961 -19.7961 -19.7787 -19.7787  -9.7220  -9.1287
    -8.3338  -8.3338  -7.8402  -7.8402  -6.3554  -5.9342  -5.7075  -5.7075
    -5.1432  -5.1432  -5.1153  -5.1153  -4.8522  -4.5918  -4.5918  -4.5819
    -3.8464  -3.8148  -3.8148  -3.7369  -3.5191  -3.5191  -2.7606  -2.7606
    -2.7046   2.3688   2.4915   2.4915   3.4947   3.4947   5.4278   5.6369
     5.6369

     occupation numbers 
     1.0000   1.0000   1.0000   1.0000   1.0000   1.0000   1.0000   1.0000
     1.0000   1.0000   1.0000   1.0000   1.0000   1.0000   1.0000   1.0000
     1.0000   1.0000   1.0000   1.0000   1.0000   1.0000   1.0000   1.0000
     1.0000   1.0000   1.0000   1.0000   1.0000   1.0000   1.0000   1.0000
     1.0000   1.0000   1.0000   1.0000   1.0000   1.0000   1.0000   1.0000
     1.0000   0.0000   0.0000   0.0000   0.0000   0.0000   0.0000   0.0000
     0.0000

          k = 0.3536 0.0000 0.0000 ( 28050 PWs)   bands (ev):

   -78.9481 -74.5465 -48.9572 -48.9572 -48.9541 -44.1685 -44.1685 -44.1683
   -20.0564 -19.8277 -19.8150 -19.8150 -19.7794 -19.7582  -9.9957  -8.7514
    -8.2800  -8.0889  -7.9435  -7.9435  -6.8416  -5.8473  -5.7290  -5.7290
    -5.4208  -5.2548  -5.0541  -4.8165  -4.8165  -4.4107  -4.4107  -4.0874
    -4.0697  -4.0697  -3.7275  -3.5120  -3.5120  -3.4899  -3.1563  -2.7893
    -2.7893   2.4362   2.5173   2.5173   3.3390   3.4597   5.3608   5.7068
     5.8391

     occupation numbers 
     1.0000   1.0000   1.0000   1.0000   1.0000   1.0000   1.0000   1.0000
     1.0000   1.0000   1.0000   1.0000   1.0000   1.0000   1.0000   1.0000
     1.0000   1.0000   1.0000   1.0000   1.0000   1.0000   1.0000   1.0000
     1.0000   1.0000   1.0000   1.0000   1.0000   1.0000   1.0000   1.0000
     1.0000   1.0000   1.0000   1.0000   1.0000   1.0000   1.0000   1.0000
     1.0000   0.0000   0.0000   0.0000   0.0000   0.0000   0.0000   0.0000
     0.0000

          k =-0.1768-0.5303 0.5303 ( 28062 PWs)   bands (ev):

   -78.9455 -74.5465 -48.9541 -48.9534 -48.9517 -44.1685 -44.1685 -44.1682
   -20.0274 -19.8598 -19.8087 -19.8074 -19.7893 -19.7659  -9.7602  -9.1293
    -8.3092  -8.1302  -7.8702  -7.8469  -6.5759  -5.8476  -5.7272  -5.6232
    -5.3285  -5.2316  -5.2256  -5.1249  -5.0269  -4.4894  -4.4429  -4.3494
    -3.9956  -3.9350  -3.7087  -3.6756  -3.4521  -3.4438  -2.9118  -2.6891
    -2.6712   2.4389   2.5813   2.6218   3.4142   3.4642   5.4440   5.6409
     5.7272

     occupation numbers 
     1.0000   1.0000   1.0000   1.0000   1.0000   1.0000   1.0000   1.0000
     1.0000   1.0000   1.0000   1.0000   1.0000   1.0000   1.0000   1.0000
     1.0000   1.0000   1.0000   1.0000   1.0000   1.0000   1.0000   1.0000
     1.0000   1.0000   1.0000   1.0000   1.0000   1.0000   1.0000   1.0000
     1.0000   1.0000   1.0000   1.0000   1.0000   1.0000   1.0000   1.0000
     1.0000   0.0000   0.0000   0.0000   0.0000   0.0000   0.0000   0.0000
     0.0000

          k = 0.0000-0.3536 0.3536 ( 28037 PWs)   bands (ev):

   -78.9456 -74.5464 -48.9536 -48.9535 -48.9525 -44.1685 -44.1684 -44.1681
   -20.0355 -19.8591 -19.8164 -19.7960 -19.7785 -19.7710  -9.8107  -9.0372
    -8.3340  -8.1807  -7.9070  -7.8395  -6.5420  -5.8097  -5.8039  -5.6589
    -5.3422  -5.2470  -5.0693  -5.0515  -4.8857  -4.5882  -4.4092  -4.4061
    -3.9519  -3.8846  -3.8220  -3.6866  -3.5305  -3.4101  -2.8038  -2.7682
    -2.7414   2.4488   2.4769   2.5631   3.4105   3.4936   5.5065   5.5691
     5.7135

     occupation numbers 
     1.0000   1.0000   1.0000   1.0000   1.0000   1.0000   1.0000   1.0000
     1.0000   1.0000   1.0000   1.0000   1.0000   1.0000   1.0000   1.0000
     1.0000   1.0000   1.0000   1.0000   1.0000   1.0000   1.0000   1.0000
     1.0000   1.0000   1.0000   1.0000   1.0000   1.0000   1.0000   1.0000
     1.0000   1.0000   1.0000   1.0000   1.0000   1.0000   1.0000   1.0000
     1.0000   0.0000   0.0000   0.0000   0.0000   0.0000   0.0000   0.0000
     0.0000

          k =-0.7071 0.0000 0.0000 ( 28090 PWs)   bands (ev):

   -78.9467 -74.5464 -48.9558 -48.9558 -48.9519 -44.1684 -44.1684 -44.1682
   -20.0234 -19.8274 -19.8188 -19.8162 -19.8162 -19.7583  -9.7963  -9.1197
    -8.2806  -7.9038  -7.9038  -7.8283  -6.8522  -5.8513  -5.5361  -5.5030
    -5.5030  -5.3466  -5.2514  -5.2199  -5.2199  -4.3576  -4.3576  -4.1145
    -4.1145  -4.1113  -3.5617  -3.5617  -3.4911  -3.3365  -3.1575  -2.6260
    -2.6260   2.4416   2.7609   2.7609   3.3394   3.4335   5.3467   5.5787
     5.8693

     occupation numbers 
     1.0000   1.0000   1.0000   1.0000   1.0000   1.0000   1.0000   1.0000
     1.0000   1.0000   1.0000   1.0000   1.0000   1.0000   1.0000   1.0000
     1.0000   1.0000   1.0000   1.0000   1.0000   1.0000   1.0000   1.0000
     1.0000   1.0000   1.0000   1.0000   1.0000   1.0000   1.0000   1.0000
     1.0000   1.0000   1.0000   1.0000   1.0000   1.0000   1.0000   1.0000
     1.0000   0.0000   0.0000   0.0000   0.0000   0.0000   0.0000   0.0000
     0.0000

          k =-0.7071 0.3536 0.0000 ( 28076 PWs)   bands (ev):

   -78.9453 -74.5464 -48.9534 -48.9525 -48.9525 -44.1683 -44.1683 -44.1683
   -20.0187 -19.8560 -19.8176 -19.8176 -19.7791 -19.7714  -9.6941  -9.2315
    -8.3159  -8.0024  -7.8675  -7.8675  -6.6254  -5.7745  -5.7745  -5.5028
    -5.4073  -5.2848  -5.2160  -5.2160  -5.1575  -4.4145  -4.4145  -4.3576
    -4.0249  -3.8404  -3.8404  -3.7334  -3.3846  -3.3846  -2.7822  -2.7822
    -2.6257   2.5207   2.5207   2.7608   3.4099   3.4379   5.6510   5.6529
     5.6565

     occupation numbers 
     1.0000   1.0000   1.0000   1.0000   1.0000   1.0000   1.0000   1.0000
     1.0000   1.0000   1.0000   1.0000   1.0000   1.0000   1.0000   1.0000
     1.0000   1.0000   1.0000   1.0000   1.0000   1.0000   1.0000   1.0000
     1.0000   1.0000   1.0000   1.0000   1.0000   1.0000   1.0000   1.0000
     1.0000   1.0000   1.0000   1.0000   1.0000   1.0000   1.0000   1.0000
     1.0000   0.0000   0.0000   0.0000   0.0000   0.0000   0.0000   0.0000
     0.0000

     the Fermi energy is     1.1632 ev

!    total energy              =    -547.02375585 Ry
     estimated scf accuracy    <       0.00000005 Ry
     smearing contrib. (-TS)   =      -0.00000000 Ry
     internal energy E=F+TS    =    -547.02375585 Ry

     total magnetization       =    -0.00 Bohr mag/cell
     absolute magnetization    =     7.56 Bohr mag/cell

     convergence has been achieved in   1 iterations

     Using ACE for calculation of exact exchange
     ACE projected onto    49 (nbndproj) and applied to    49 (nbnd) bands

!!   total energy              =    -547.02375590 Ry
     Harris-Foulkes estimate   =    -547.02375592 Ry
     est. exchange err (dexx)  =       0.00000005 Ry
     - averaged Fock potential =      36.36952274 Ry
     + Fock energy (ACE)       =     -18.18483662 Ry

     EXX self-consistency reached

     Writing all to output data dir /tmp/scratch/hse_lcm/hse_lcm.save/ :
     XML data file, charge density, pseudopotentials, collected wavefunctions

     init_run     :      2.63s CPU      3.08s WALL (       1 calls)
     electrons    :    129.79s CPU    163.04s WALL (       7 calls)

     Called by init_run:
     aceinit0     :      0.00s CPU      0.00s WALL (       1 calls)
     wfcinit      :      1.08s CPU      1.31s WALL (       1 calls)
     wfcinit:atom :      0.00s CPU      0.00s WALL (       2 calls)
     wfcinit:wfcr :      1.04s CPU      1.28s WALL (       2 calls)
     potinit      :      0.90s CPU      1.04s WALL (       1 calls)
     hinit0       :      0.36s CPU      0.39s WALL (       1 calls)

     Called by electrons:
     c_bands      :     87.64s CPU    109.46s WALL (      44 calls)
     sum_band     :     17.04s CPU     23.42s WALL (      44 calls)
     v_of_rho     :      8.55s CPU     11.42s WALL (      46 calls)
     v_h          :      0.26s CPU      0.33s WALL (      46 calls)
     v_xc         :      8.27s CPU     11.07s WALL (      46 calls)
     mix_rho      :      8.46s CPU     10.44s WALL (      44 calls)

     Called by c_bands:
     init_us_2    :      0.45s CPU      0.58s WALL (     178 calls)
     cegterg      :     76.35s CPU     97.91s WALL (      88 calls)

     Called by sum_band:
     sum_band:wei :      0.07s CPU      0.09s WALL (      44 calls)
     sum_band:loo :     12.58s CPU     16.27s WALL (      44 calls)
     sum_band:buf :      0.10s CPU      0.08s WALL (      88 calls)
     sum_band:ini :      0.26s CPU      0.30s WALL (      88 calls)

     Called by *egterg:
     cdiaghg      :      0.84s CPU      0.93s WALL (     399 calls)
     cegterg:over :      2.35s CPU      2.33s WALL (     323 calls)
     cegterg:upda :      0.75s CPU      0.82s WALL (     323 calls)
     cegterg:last :      1.21s CPU      1.23s WALL (     219 calls)
     h_psi        :     70.51s CPU     92.11s WALL (     413 calls)
     g_psi        :      0.18s CPU      0.19s WALL (     323 calls)

     Called by h_psi:
     h_psi:calbec :      2.22s CPU      2.43s WALL (     413 calls)
     vloc_psi     :     65.29s CPU     86.53s WALL (     413 calls)
                                        0.00s GPU  (     413 calls)
     add_vuspsi   :      1.12s CPU      1.17s WALL (     413 calls)

     General routines
     calbec       :      3.03s CPU      3.41s WALL (     715 calls)
     fft          :      3.41s CPU      7.00s WALL (     856 calls)
     ffts         :      5.29s CPU      7.63s WALL (    2427 calls)
     fftw         :     68.62s CPU     93.45s WALL (   29466 calls)
     fftc         :   1266.25s CPU   2056.38s WALL (  537824 calls)
     fftcw        :      6.90s CPU      8.22s WALL (    2058 calls)

     Parallel routines

     EXX routines
     exx_grid     :      0.00s CPU      0.00s WALL (       1 calls)
     exxinit      :    104.16s CPU    209.95s WALL (       7 calls)
     vexx         :   1407.12s CPU   2206.50s WALL (      14 calls)
     matcalc      :      0.90s CPU      1.07s WALL (     302 calls)
     aceupdate    :      0.03s CPU      0.02s WALL (      14 calls)
     vexxace      :      1.56s CPU      1.65s WALL (     262 calls)
     aceinit      :   1407.24s CPU   2206.61s WALL (      14 calls)

     PWSCF        :  27m35.93s CPU  43m15.28s WALL


   This run was terminated on:  11:58: 5   3Oct2026            

=------------------------------------------------------------------------------=
   JOB DONE.
=------------------------------------------------------------------------------=
Note: The following floating-point exceptions are signalling: IEEE_UNDERFLOW_FLAG IEEE_DENORMAL
Note: The following floating-point exceptions are signalling: IEEE_UNDERFLOW_FLAG IEEE_DENORMAL
Note: The following floating-point exceptions are signalling: IEEE_UNDERFLOW_FLAG IEEE_DENORMAL
Note: The following floating-point exceptions are signalling: IEEE_UNDERFLOW_FLAG IEEE_DENORMAL
Note: The following floating-point exceptions are signalling: IEEE_UNDERFLOW_FLAG IEEE_DENORMAL
Note: The following floating-point exceptions are signalling: IEEE_UNDERFLOW_FLAG IEEE_DENORMAL
Note: The following floating-point exceptions are signalling: IEEE_UNDERFLOW_FLAG IEEE_DENORMAL
Note: The following floating-point exceptions are signalling: IEEE_UNDERFLOW_FLAG IEEE_DENORMAL
Note: The following floating-point exceptions are signalling: IEEE_UNDERFLOW_FLAG IEEE_DENORMAL
Note: The following floating-point exceptions are signalling: IEEE_UNDERFLOW_FLAG IEEE_DENORMAL
Note: The following floating-point exceptions are signalling: IEEE_UNDERFLOW_FLAG IEEE_DENORMAL
Note: The following floating-point exceptions are signalling: IEEE_UNDERFLOW_FLAG IEEE_DENORMAL
Note: The following floating-point exceptions are signalling: IEEE_UNDERFLOW_FLAG IEEE_DENORMAL
Note: The following floating-point exceptions are signalling: IEEE_UNDERFLOW_FLAG IEEE_DENORMAL
Note: The following floating-point exceptions are signalling: IEEE_UNDERFLOW_FLAG IEEE_DENORMAL
Note: The following floating-point exceptions are signalling: IEEE_UNDERFLOW_FLAG IEEE_DENORMAL
Note: The following floating-point exceptions are signalling: IEEE_UNDERFLOW_FLAG IEEE_DENORMAL
Note: The following floating-point exceptions are signalling: IEEE_UNDERFLOW_FLAG IEEE_DENORMAL
Note: The following floating-point exceptions are signalling: IEEE_UNDERFLOW_FLAG IEEE_DENORMAL
Note: The following floating-point exceptions are signalling: IEEE_UNDERFLOW_FLAG IEEE_DENORMAL
Note: The following floating-point exceptions are signalling: IEEE_UNDERFLOW_FLAG IEEE_DENORMAL
Note: The following floating-point exceptions are signalling: IEEE_UNDERFLOW_FLAG IEEE_DENORMAL
Note: The following floating-point exceptions are signalling: IEEE_UNDERFLOW_FLAG IEEE_DENORMAL
Note: The following floating-point exceptions are signalling: IEEE_UNDERFLOW_FLAG IEEE_DENORMAL
Note: The following floating-point exceptions are signalling: IEEE_UNDERFLOW_FLAG IEEE_DENORMAL
Note: The following floating-point exceptions are signalling: IEEE_UNDERFLOW_FLAG IEEE_DENORMAL
Note: The following floating-point exceptions are signalling: IEEE_UNDERFLOW_FLAG IEEE_DENORMAL
Note: The following floating-point exceptions are signalling: IEEE_UNDERFLOW_FLAG IEEE_DENORMAL
Note: The following floating-point exceptions are signalling: IEEE_UNDERFLOW_FLAG IEEE_DENORMAL
Note: The following floating-point exceptions are signalling: IEEE_UNDERFLOW_FLAG IEEE_DENORMAL
Note: The following floating-point exceptions are signalling: IEEE_UNDERFLOW_FLAG IEEE_DENORMAL
Note: The following floating-point exceptions are signalling: IEEE_UNDERFLOW_FLAG IEEE_DENORMAL
Note: The following floating-point exceptions are signalling: IEEE_UNDERFLOW_FLAG IEEE_DENORMAL
Note: The following floating-point exceptions are signalling: IEEE_UNDERFLOW_FLAG IEEE_DENORMAL
Note: The following floating-point exceptions are signalling: IEEE_UNDERFLOW_FLAG IEEE_DENORMAL
Note: The following floating-point exceptions are signalling: IEEE_UNDERFLOW_FLAG IEEE_DENORMAL
Note: The following floating-point exceptions are signalling: IEEE_UNDERFLOW_FLAG IEEE_DENORMAL
Note: The following floating-point exceptions are signalling: IEEE_UNDERFLOW_FLAG IEEE_DENORMAL
Note: The following floating-point exceptions are signalling: IEEE_UNDERFLOW_FLAG IEEE_DENORMAL
Note: The following floating-point exceptions are signalling: IEEE_UNDERFLOW_FLAG IEEE_DENORMAL
Note: The following floating-point exceptions are signalling: IEEE_UNDERFLOW_FLAG IEEE_DENORMAL
Note: The following floating-point exceptions are signalling: IEEE_UNDERFLOW_FLAG IEEE_DENORMAL
Note: The following floating-point exceptions are signalling: IEEE_UNDERFLOW_FLAG IEEE_DENORMAL
Note: The following floating-point exceptions are signalling: IEEE_UNDERFLOW_FLAG IEEE_DENORMAL
Note: The following floating-point exceptions are signalling: IEEE_UNDERFLOW_FLAG IEEE_DENORMAL
Note: The following floating-point exceptions are signalling: IEEE_UNDERFLOW_FLAG IEEE_DENORMAL
Note: The following floating-point exceptions are signalling: IEEE_UNDERFLOW_FLAG IEEE_DENORMAL
Note: The following floating-point exceptions are signalling: IEEE_UNDERFLOW_FLAG IEEE_DENORMAL
Note: The following floating-point exceptions are signalling: IEEE_UNDERFLOW_FLAG IEEE_DENORMAL
Note: The following floating-point exceptions are signalling: IEEE_UNDERFLOW_FLAG IEEE_DENORMAL
Note: The following floating-point exceptions are signalling: IEEE_UNDERFLOW_FLAG IEEE_DENORMAL
Note: The following floating-point exceptions are signalling: IEEE_UNDERFLOW_FLAG IEEE_DENORMAL
Note: The following floating-point exceptions are signalling: IEEE_UNDERFLOW_FLAG IEEE_DENORMAL
Note: The following floating-point exceptions are signalling: IEEE_UNDERFLOW_FLAG IEEE_DENORMAL
Note: The following floating-point exceptions are signalling: IEEE_UNDERFLOW_FLAG IEEE_DENORMAL
Note: The following floating-point exceptions are signalling: IEEE_UNDERFLOW_FLAG IEEE_DENORMAL
Note: The following floating-point exceptions are signalling: IEEE_UNDERFLOW_FLAG IEEE_DENORMAL
Note: The following floating-point exceptions are signalling: IEEE_UNDERFLOW_FLAG IEEE_DENORMAL
Note: The following floating-point exceptions are signalling: IEEE_UNDERFLOW_FLAG IEEE_DENORMAL
Note: The following floating-point exceptions are signalling: IEEE_UNDERFLOW_FLAG IEEE_DENORMAL
Note: The following floating-point exceptions are signalling: IEEE_UNDERFLOW_FLAG IEEE_DENORMAL
Note: The following floating-point exceptions are signalling: IEEE_UNDERFLOW_FLAG IEEE_DENORMAL
Note: The following floating-point exceptions are signalling: IEEE_UNDERFLOW_FLAG IEEE_DENORMAL
Note: The following floating-point exceptions are signalling: IEEE_UNDERFLOW_FLAG IEEE_DENORMAL
