
     Program PWSCF v.7.5 starts on  3Oct2026 at 13:34:51 

     This program is part of the open-source Quantum ESPRESSO suite
     for quantum simulation of materials; please cite
         "P. Giannozzi et al., J. Phys.:Condens. Matter 21 395502 (2009);
         "P. Giannozzi et al., J. Phys.:Condens. Matter 29 465901 (2017);
         "P. Giannozzi et al., J. Chem. Phys. 152 154105 (2020);
          URL http://www.quantum-espresso.org", 
     in publications or presentations arising from this work. More details at
     http://www.quantum-espresso.org/quote

     Parallel version (MPI & OpenMP), running on      32 processor cores
     Number of MPI processes:                32
     Threads/MPI process:                     1

     MPI processes distributed on     1 nodes
     695401 MiB available memory on the printing compute node when the environment starts

     Reading input from KVCr_2H2O_LCM_nscf.in

     Current dimensions of program PWSCF are:
     Max number of different atomic species (ntypx) = 10
     Max number of k-points (npk) =  40000
     Max angular momentum in pseudopotentials (lmaxx) =  4

     Atomic positions and unit cell read from directory:
     /tmp/scratch/KVCr_2H2O_LCM/KVCr_2H2O_LCM.save/


     K-points division:     npool     =      32
     Subspace diagonalization in iterative solution of the eigenvalue problem:
     a serial algorithm will be used


     G-vector sticks info
     --------------------
     sticks:   dense  smooth     PW     G-vecs:    dense   smooth      PW
     Sum        6187    6187   1687               328321   328321   46729

     Using Slab Decomposition



     bravais-lattice index     =            0
     lattice parameter (alat)  =      14.4173  a.u.
     unit-cell volume          =    2107.5790 (a.u.)^3
     number of atoms/cell      =           21
     number of atomic types    =            7
     number of electrons       =       106.00
     number of Kohn-Sham states=           64
     kinetic-energy cutoff     =     110.0000  Ry
     charge density cutoff     =     440.0000  Ry
     Exchange-correlation= PBE
                           (   1   4   3   4   0   0   0)
     Hubbard projectors: ortho-atomic
     Hubbard parameters of DFT+U (Dudarev formulation) in eV:
     U(V-3d) =  3.0000
     U(Cr-3d) =  3.0000

     Internal variables: lda_plus_u =T, lda_plus_u_kind = 0

     Internal variables: orbital_resolved =F, hub_pot_fix =F, apply_U = F

     celldm(1)=  14.417299  celldm(2)=   0.000000  celldm(3)=   0.000000
     celldm(4)=   0.000000  celldm(5)=   0.000000  celldm(6)=   0.000000

     crystal axes: (cart. coord. in units of alat)
               a(1) = (   0.999903   0.010773   0.008773 )  
               a(2) = (   0.509217   0.857312   0.006407 )  
               a(3) = (   0.510161   0.291342   0.830829 )  

     reciprocal axes: (cart. coord. in units 2 pi/alat)
               b(1) = (  1.010133 -0.596916 -0.410944 )  
               b(2) = ( -0.009092  1.174874 -0.406404 )  
               b(3) = ( -0.010596 -0.002757  1.211091 )  


     PseudoPot. # 1 for K  read from file:
     /data/pseudo/dojo_sr/K.upf
     MD5 check sum: 0aa97b2c023445f040759afc9fdb6c80
     Pseudo is Norm-conserving + core correction, Zval =  9.0
     Generated using ONCVPSP code by D. R. Hamann
     Using radial grid of 2222 points,  6 beta functions with: 
                l(1) =   0
                l(2) =   0
                l(3) =   1
                l(4) =   1
                l(5) =   2
                l(6) =   2

     PseudoPot. # 2 for V  read from file:
     /data/pseudo/dojo_sr/V.upf
     MD5 check sum: 40fb93c06b4f9d8c28c5ccd071294a04
     Pseudo is Norm-conserving + core correction, Zval = 13.0
     Generated using ONCVPSP code by D. R. Hamann
     Using radial grid of 1536 points,  6 beta functions with: 
                l(1) =   0
                l(2) =   0
                l(3) =   1
                l(4) =   1
                l(5) =   2
                l(6) =   2

     PseudoPot. # 3 for Cr read from file:
     /data/pseudo/dojo_sr/Cr.upf
     MD5 check sum: 41892f80c335c8b1e803fd21ab4016b0
     Pseudo is Norm-conserving + core correction, Zval = 14.0
     Generated using ONCVPSP code by D. R. Hamann
     Using radial grid of 1638 points,  6 beta functions with: 
                l(1) =   0
                l(2) =   0
                l(3) =   1
                l(4) =   1
                l(5) =   2
                l(6) =   2

     PseudoPot. # 4 for C  read from file:
     /data/pseudo/dojo_sr/C.upf
     MD5 check sum: 34a24e64c0a39f27c6c36b90a16ac686
     Pseudo is Norm-conserving + core correction, Zval =  4.0
     Generated using ONCVPSP code by D. R. Hamann
     Using radial grid of 1248 points,  4 beta functions with: 
                l(1) =   0
                l(2) =   0
                l(3) =   1
                l(4) =   1

     PseudoPot. # 5 for N  read from file:
     /data/pseudo/dojo_sr/N.upf
     MD5 check sum: d34365f73bb0e2ee98afc20ec3e87676
     Pseudo is Norm-conserving + core correction, Zval =  5.0
     Generated using ONCVPSP code by D. R. Hamann
     Using radial grid of 1058 points,  4 beta functions with: 
                l(1) =   0
                l(2) =   0
                l(3) =   1
                l(4) =   1

     PseudoPot. # 6 for O  read from file:
     /data/pseudo/dojo_sr/O.upf
     MD5 check sum: 3e3f909f7470e8921608ab6b1f57bbae
     Pseudo is Norm-conserving + core correction, Zval =  6.0
     Generated using ONCVPSP code by D. R. Hamann
     Using radial grid of  936 points,  5 beta functions with: 
                l(1) =   0
                l(2) =   0
                l(3) =   1
                l(4) =   1
                l(5) =   2

     PseudoPot. # 7 for H  read from file:
     /data/pseudo/dojo_sr/H.upf
     MD5 check sum: e96aa7e3e4a958db16958554ea960e2a
     Pseudo is Norm-conserving, Zval =  1.0
     Generated using ONCVPSP code by D. R. Hamann
     Using radial grid of 1166 points,  3 beta functions with: 
                l(1) =   0
                l(2) =   0
                l(3) =   1

     atomic species   valence    mass     pseudopotential
     K                 9.00    39.09830     K ( 1.00)
     V                13.00    50.94150     V ( 1.00)
     Cr               14.00    51.99610     Cr( 1.00)
     C                 4.00    12.01100     C ( 1.00)
     N                 5.00    14.00700     N ( 1.00)
     O                 6.00    15.99900     O ( 1.00)
     H                 1.00     1.00800     H ( 1.00)

     Starting magnetic structure 
     atomic species   magnetization
     K               0.000
     V              -0.231
     Cr              0.214
     C               0.000
     N               0.000
     O               0.000
     H               0.000

     No symmetry found


                                    s                        frac. trans.

      isym =  1     identity                                     

 cryst.   s( 1) = (     1          0          0      )
                  (     0          1          0      )
                  (     0          0          1      )

 cart.    s( 1) = (  1.0000000 -0.0000000  0.0000000 )
                  ( -0.0000000  1.0000000  0.0000000 )
                  (  0.0000000 -0.0000000  1.0000000 )


   Cartesian axes

     site n.     atom                  positions (alat units)
         1        K      tau(   1) = (   0.5084777   0.2919903   0.2085189  )
         2        V      tau(   2) = (   0.5123922   0.2926042   0.8290030  )
         3        Cr     tau(   3) = (   1.0128003   0.5815429   0.4204229  )
         4        C      tau(   4) = (   1.0042104   0.3645213   0.2576227  )
         5        C      tau(   5) = (   1.0204599   0.7980003   0.5840350  )
         6        C      tau(   6) = (   0.8186346   0.6950686   0.2658576  )
         7        C      tau(   7) = (   1.2045431   0.4666175   0.5769605  )
         8        C      tau(   8) = (   0.8196431   0.4700272   0.5781264  )
         9        C      tau(   9) = (   1.2053720   0.6927139   0.2631851  )
        10        N      tau(  10) = (   0.9985728   0.2422445   0.1653878  )
        11        N      tau(  11) = (   1.0251203   0.9197531   0.6770094  )
        12        N      tau(  12) = (   0.7076431   0.7544227   0.1781016  )
        13        N      tau(  13) = (   1.3104611   0.4043431   0.6688563  )
        14        N      tau(  14) = (   0.7112567   0.4074397   0.6666357  )
        15        N      tau(  15) = (   1.3137121   0.7552801   0.1747354  )
        16        O      tau(  16) = (   1.5308991   0.9879364   0.7669027  )
        17        H      tau(  17) = (   1.6283743   1.0542995   0.7201493  )
        18        H      tau(  18) = (   1.4505367   0.9743521   0.6693476  )
        19        O      tau(  19) = (   1.4747271   0.7377372   0.5211186  )
        20        H      tau(  20) = (   1.5512302   0.7718466   0.4258413  )
        21        H      tau(  21) = (   1.5465386   0.7463516   0.6256754  )

   Crystallographic axes

     site n.     atom                  positions (cryst. coord.)
         1        K      tau(   1) = (  0.2536468  0.2536861  0.2463421  )
         2        V      tau(   2) = (  0.0022504  0.0022048  0.9977614  )
         3        Cr     tau(   3) = (  0.5031604  0.5031702  0.4968347  )
         4        C      tau(   4) = (  0.6909289  0.3144378  0.3003583  )
         5        C      tau(   5) = (  0.3144552  0.6909183  0.6943057  )
         6        C      tau(   6) = (  0.3027795  0.7011298  0.3113865  )
         7        C      tau(   7) = (  0.7011188  0.3027866  0.6847009  )
         8        C      tau(   8) = (  0.3098041  0.3098182  0.6901822  )
         9        C      tau(   9) = (  0.6959396  0.6959334  0.3040582  )
        10        N      tau(  10) = (  0.7961266  0.2083137  0.1890504  )
        11        N      tau(  11) = (  0.2082793  0.7961351  0.8065210  )
        12        N      tau(  12) = (  0.1912967  0.8075369  0.2061184  )
        13        N      tau(  13) = (  0.8075187  0.1913122  0.7950445  )
        14        N      tau(  14) = (  0.2013066  0.2013007  0.7986960  )
        15        N      tau(  15) = (  0.8043785  0.8044020  0.1956171  )
        16        O      tau(  16) = (  0.6415423  0.8351105  0.9098425  )
        17        H      tau(  17) = (  0.7196051  0.9311933  0.8520040  )
        18        H      tau(  18) = (  0.6085641  0.8595280  0.7925834  )
        19        O      tau(  19) = (  0.8351527  0.6415560  0.6134608  )
        20        H      tau(  20) = (  0.9312241  0.7196557  0.4971667  )
        21        H      tau(  21) = (  0.8595828  0.6085317  0.7393039  )

     number of k points=    92  Gaussian smearing, width (Ry)=  0.0050
                       cart. coord. in units 2pi/alat
        k(    1) = (   0.0000000   0.0000000   0.0000000), wk =   0.0055556
        k(    2) = (  -0.0021193  -0.0005515   0.2422181), wk =   0.0111111
        k(    3) = (  -0.0042386  -0.0011030   0.4844363), wk =   0.0111111
        k(    4) = (  -0.0015153   0.1958124  -0.0677339), wk =   0.0111111
        k(    5) = (  -0.0036346   0.1952609   0.1744842), wk =   0.0111111
        k(    6) = (  -0.0057539   0.1947094   0.4167023), wk =   0.0111111
        k(    7) = (   0.0027232   0.1969154  -0.5521702), wk =   0.0111111
        k(    8) = (   0.0006040   0.1963639  -0.3099521), wk =   0.0111111
        k(    9) = (  -0.0030306   0.3916248  -0.1354678), wk =   0.0111111
        k(   10) = (  -0.0051499   0.3910733   0.1067503), wk =   0.0111111
        k(   11) = (  -0.0072692   0.3905218   0.3489684), wk =   0.0111111
        k(   12) = (   0.0012079   0.3927278  -0.6199041), wk =   0.0111111
        k(   13) = (  -0.0009114   0.3921763  -0.3776860), wk =   0.0111111
        k(   14) = (   0.0045459  -0.5874372   0.2032018), wk =   0.0055556
        k(   15) = (   0.0024267  -0.5879887   0.4454199), wk =   0.0111111
        k(   16) = (   0.0003074  -0.5885402   0.6876380), wk =   0.0111111
        k(   17) = (   0.1683555  -0.0994861  -0.0684906), wk =   0.0111111
        k(   18) = (   0.1662362  -0.1000376   0.1737275), wk =   0.0111111
        k(   19) = (   0.1641170  -0.1005891   0.4159456), wk =   0.0111111
        k(   20) = (   0.1725941  -0.0983831  -0.5529269), wk =   0.0111111
        k(   21) = (   0.1704748  -0.0989346  -0.3107088), wk =   0.0111111
        k(   22) = (   0.1668402   0.0963263  -0.1362246), wk =   0.0111111
        k(   23) = (   0.1647209   0.0957748   0.1059936), wk =   0.0111111
        k(   24) = (   0.1626017   0.0952233   0.3482117), wk =   0.0111111
        k(   25) = (   0.1710788   0.0974293  -0.6206608), wk =   0.0111111
        k(   26) = (   0.1689595   0.0968778  -0.3784427), wk =   0.0111111
        k(   27) = (   0.1653249   0.2921387  -0.2039585), wk =   0.0111111
        k(   28) = (   0.1632056   0.2915872   0.0382596), wk =   0.0111111
        k(   29) = (   0.1610863   0.2910357   0.2804778), wk =   0.0111111
        k(   30) = (   0.1695634   0.2932417  -0.6883947), wk =   0.0111111
        k(   31) = (   0.1674442   0.2926902  -0.4461766), wk =   0.0111111
        k(   32) = (   0.1729015  -0.6869233   0.1347111), wk =   0.0111111
        k(   33) = (   0.1707822  -0.6874748   0.3769293), wk =   0.0111111
        k(   34) = (   0.1686629  -0.6880262   0.6191474), wk =   0.0111111
        k(   35) = (   0.1771400  -0.6858203  -0.3497251), wk =   0.0111111
        k(   36) = (   0.1750207  -0.6863718  -0.1075070), wk =   0.0111111
        k(   37) = (   0.1713861  -0.4911109   0.0669772), wk =   0.0111111
        k(   38) = (   0.1692669  -0.4916624   0.3091953), wk =   0.0111111
        k(   39) = (   0.1671476  -0.4922139   0.5514135), wk =   0.0111111
        k(   40) = (   0.1756247  -0.4900079  -0.4174591), wk =   0.0111111
        k(   41) = (   0.1735054  -0.4905594  -0.1752409), wk =   0.0111111
        k(   42) = (   0.1698708  -0.2952985  -0.0007567), wk =   0.0111111
        k(   43) = (   0.1677516  -0.2958500   0.2414614), wk =   0.0111111
        k(   44) = (   0.1656323  -0.2964015   0.4836795), wk =   0.0111111
        k(   45) = (   0.1741094  -0.2941955  -0.4851930), wk =   0.0111111
        k(   46) = (   0.1719901  -0.2947470  -0.2429749), wk =   0.0111111
        k(   47) = (   0.3367110  -0.1989722  -0.1369813), wk =   0.0111111
        k(   48) = (   0.3345918  -0.1995237   0.1052368), wk =   0.0111111
        k(   49) = (   0.3324725  -0.2000752   0.3474550), wk =   0.0111111
        k(   50) = (   0.3409496  -0.1978692  -0.6214175), wk =   0.0111111
        k(   51) = (   0.3388303  -0.1984207  -0.3791994), wk =   0.0111111
        k(   52) = (   0.3351957  -0.0031598  -0.2047152), wk =   0.0111111
        k(   53) = (   0.3330764  -0.0037113   0.0375029), wk =   0.0111111
        k(   54) = (   0.3309572  -0.0042628   0.2797211), wk =   0.0111111
        k(   55) = (   0.3394343  -0.0020568  -0.6891515), wk =   0.0111111
        k(   56) = (   0.3373150  -0.0026083  -0.4469333), wk =   0.0111111
        k(   57) = (   0.3336804   0.1926526  -0.2724491), wk =   0.0111111
        k(   58) = (   0.3315611   0.1921011  -0.0302310), wk =   0.0111111
        k(   59) = (   0.3294419   0.1915496   0.2119871), wk =   0.0111111
        k(   60) = (   0.3379190   0.1937556  -0.7568854), wk =   0.0111111
        k(   61) = (   0.3357997   0.1932041  -0.5146673), wk =   0.0111111
        k(   62) = (   0.3412570  -0.7864093   0.0662205), wk =   0.0111111
        k(   63) = (   0.3391377  -0.7869608   0.3084386), wk =   0.0111111
        k(   64) = (   0.3370184  -0.7875123   0.5506567), wk =   0.0111111
        k(   65) = (   0.3454955  -0.7853063  -0.4182158), wk =   0.0111111
        k(   66) = (   0.3433762  -0.7858578  -0.1759977), wk =   0.0111111
        k(   67) = (   0.3397417  -0.5905969  -0.0015134), wk =   0.0111111
        k(   68) = (   0.3376224  -0.5911484   0.2407047), wk =   0.0111111
        k(   69) = (   0.3355031  -0.5916999   0.4829228), wk =   0.0111111
        k(   70) = (   0.3439802  -0.5894939  -0.4859497), wk =   0.0111111
        k(   71) = (   0.3418609  -0.5900454  -0.2437316), wk =   0.0111111
        k(   72) = (   0.3382263  -0.3947845  -0.0692474), wk =   0.0111111
        k(   73) = (   0.3361071  -0.3953360   0.1729708), wk =   0.0111111
        k(   74) = (   0.3339878  -0.3958875   0.4151889), wk =   0.0111111
        k(   75) = (   0.3424649  -0.3936816  -0.5536836), wk =   0.0111111
        k(   76) = (   0.3403456  -0.3942331  -0.3114655), wk =   0.0111111
        k(   77) = (  -0.5050665   0.2984582   0.2054719), wk =   0.0055556
        k(   78) = (  -0.5071858   0.2979067   0.4476901), wk =   0.0111111
        k(   79) = (  -0.5093051   0.2973552   0.6899082), wk =   0.0111111
        k(   80) = (  -0.5065819   0.4942706   0.1377380), wk =   0.0111111
        k(   81) = (  -0.5087011   0.4937191   0.3799561), wk =   0.0111111
        k(   82) = (  -0.5108204   0.4931676   0.6221743), wk =   0.0111111
        k(   83) = (  -0.5023433   0.4953736  -0.3466983), wk =   0.0111111
        k(   84) = (  -0.5044626   0.4948221  -0.1044801), wk =   0.0111111
        k(   85) = (  -0.5080972   0.6900830   0.0700041), wk =   0.0111111
        k(   86) = (  -0.5102164   0.6895315   0.3122222), wk =   0.0111111
        k(   87) = (  -0.5123357   0.6889800   0.5544403), wk =   0.0111111
        k(   88) = (  -0.5038586   0.6911860  -0.4144322), wk =   0.0111111
        k(   89) = (  -0.5059779   0.6906345  -0.1722141), wk =   0.0111111
        k(   90) = (  -0.5005206  -0.2889789   0.4086737), wk =   0.0055556
        k(   91) = (  -0.5026399  -0.2895304   0.6508918), wk =   0.0111111
        k(   92) = (  -0.5047592  -0.2900819   0.8931100), wk =   0.0111111

                       cryst. coord.
        k(    1) = (   0.0000000   0.0000000   0.0000000), wk =   0.0055556
        k(    2) = (   0.0000000   0.0000000   0.2000000), wk =   0.0111111
        k(    3) = (   0.0000000   0.0000000   0.4000000), wk =   0.0111111
        k(    4) = (   0.0000000   0.1666667   0.0000000), wk =   0.0111111
        k(    5) = (   0.0000000   0.1666667   0.2000000), wk =   0.0111111
        k(    6) = (   0.0000000   0.1666667   0.4000000), wk =   0.0111111
        k(    7) = (   0.0000000   0.1666667  -0.4000000), wk =   0.0111111
        k(    8) = (   0.0000000   0.1666667  -0.2000000), wk =   0.0111111
        k(    9) = (   0.0000000   0.3333333   0.0000000), wk =   0.0111111
        k(   10) = (   0.0000000   0.3333333   0.2000000), wk =   0.0111111
        k(   11) = (   0.0000000   0.3333333   0.4000000), wk =   0.0111111
        k(   12) = (   0.0000000   0.3333333  -0.4000000), wk =   0.0111111
        k(   13) = (   0.0000000   0.3333333  -0.2000000), wk =   0.0111111
        k(   14) = (  -0.0000000  -0.5000000   0.0000000), wk =   0.0055556
        k(   15) = (   0.0000000  -0.5000000   0.2000000), wk =   0.0111111
        k(   16) = (   0.0000000  -0.5000000   0.4000000), wk =   0.0111111
        k(   17) = (   0.1666667  -0.0000000  -0.0000000), wk =   0.0111111
        k(   18) = (   0.1666667  -0.0000000   0.2000000), wk =   0.0111111
        k(   19) = (   0.1666667   0.0000000   0.4000000), wk =   0.0111111
        k(   20) = (   0.1666667  -0.0000000  -0.4000000), wk =   0.0111111
        k(   21) = (   0.1666667  -0.0000000  -0.2000000), wk =   0.0111111
        k(   22) = (   0.1666667   0.1666667  -0.0000000), wk =   0.0111111
        k(   23) = (   0.1666667   0.1666667   0.2000000), wk =   0.0111111
        k(   24) = (   0.1666667   0.1666667   0.4000000), wk =   0.0111111
        k(   25) = (   0.1666667   0.1666667  -0.4000000), wk =   0.0111111
        k(   26) = (   0.1666667   0.1666667  -0.2000000), wk =   0.0111111
        k(   27) = (   0.1666667   0.3333333   0.0000000), wk =   0.0111111
        k(   28) = (   0.1666667   0.3333333   0.2000000), wk =   0.0111111
        k(   29) = (   0.1666667   0.3333333   0.4000000), wk =   0.0111111
        k(   30) = (   0.1666667   0.3333333  -0.4000000), wk =   0.0111111
        k(   31) = (   0.1666667   0.3333333  -0.2000000), wk =   0.0111111
        k(   32) = (   0.1666667  -0.5000000   0.0000000), wk =   0.0111111
        k(   33) = (   0.1666667  -0.5000000   0.2000000), wk =   0.0111111
        k(   34) = (   0.1666667  -0.5000000   0.4000000), wk =   0.0111111
        k(   35) = (   0.1666667  -0.5000000  -0.4000000), wk =   0.0111111
        k(   36) = (   0.1666667  -0.5000000  -0.2000000), wk =   0.0111111
        k(   37) = (   0.1666667  -0.3333333  -0.0000000), wk =   0.0111111
        k(   38) = (   0.1666667  -0.3333333   0.2000000), wk =   0.0111111
        k(   39) = (   0.1666667  -0.3333333   0.4000000), wk =   0.0111111
        k(   40) = (   0.1666667  -0.3333333  -0.4000000), wk =   0.0111111
        k(   41) = (   0.1666667  -0.3333333  -0.2000000), wk =   0.0111111
        k(   42) = (   0.1666667  -0.1666667   0.0000000), wk =   0.0111111
        k(   43) = (   0.1666667  -0.1666667   0.2000000), wk =   0.0111111
        k(   44) = (   0.1666667  -0.1666667   0.4000000), wk =   0.0111111
        k(   45) = (   0.1666667  -0.1666667  -0.4000000), wk =   0.0111111
        k(   46) = (   0.1666667  -0.1666667  -0.2000000), wk =   0.0111111
        k(   47) = (   0.3333333  -0.0000000  -0.0000000), wk =   0.0111111
        k(   48) = (   0.3333333  -0.0000000   0.2000000), wk =   0.0111111
        k(   49) = (   0.3333333  -0.0000000   0.4000000), wk =   0.0111111
        k(   50) = (   0.3333333  -0.0000000  -0.4000000), wk =   0.0111111
        k(   51) = (   0.3333333  -0.0000000  -0.2000000), wk =   0.0111111
        k(   52) = (   0.3333333   0.1666667  -0.0000000), wk =   0.0111111
        k(   53) = (   0.3333333   0.1666667   0.2000000), wk =   0.0111111
        k(   54) = (   0.3333333   0.1666667   0.4000000), wk =   0.0111111
        k(   55) = (   0.3333333   0.1666667  -0.4000000), wk =   0.0111111
        k(   56) = (   0.3333333   0.1666667  -0.2000000), wk =   0.0111111
        k(   57) = (   0.3333333   0.3333333  -0.0000000), wk =   0.0111111
        k(   58) = (   0.3333333   0.3333333   0.2000000), wk =   0.0111111
        k(   59) = (   0.3333333   0.3333333   0.4000000), wk =   0.0111111
        k(   60) = (   0.3333333   0.3333333  -0.4000000), wk =   0.0111111
        k(   61) = (   0.3333333   0.3333333  -0.2000000), wk =   0.0111111
        k(   62) = (   0.3333333  -0.5000000  -0.0000000), wk =   0.0111111
        k(   63) = (   0.3333333  -0.5000000   0.2000000), wk =   0.0111111
        k(   64) = (   0.3333333  -0.5000000   0.4000000), wk =   0.0111111
        k(   65) = (   0.3333333  -0.5000000  -0.4000000), wk =   0.0111111
        k(   66) = (   0.3333333  -0.5000000  -0.2000000), wk =   0.0111111
        k(   67) = (   0.3333333  -0.3333333  -0.0000000), wk =   0.0111111
        k(   68) = (   0.3333333  -0.3333333   0.2000000), wk =   0.0111111
        k(   69) = (   0.3333333  -0.3333333   0.4000000), wk =   0.0111111
        k(   70) = (   0.3333333  -0.3333333  -0.4000000), wk =   0.0111111
        k(   71) = (   0.3333333  -0.3333333  -0.2000000), wk =   0.0111111
        k(   72) = (   0.3333333  -0.1666667  -0.0000000), wk =   0.0111111
        k(   73) = (   0.3333333  -0.1666667   0.2000000), wk =   0.0111111
        k(   74) = (   0.3333333  -0.1666667   0.4000000), wk =   0.0111111
        k(   75) = (   0.3333333  -0.1666667  -0.4000000), wk =   0.0111111
        k(   76) = (   0.3333333  -0.1666667  -0.2000000), wk =   0.0111111
        k(   77) = (  -0.5000000   0.0000000   0.0000000), wk =   0.0055556
        k(   78) = (  -0.5000000   0.0000000   0.2000000), wk =   0.0111111
        k(   79) = (  -0.5000000   0.0000000   0.4000000), wk =   0.0111111
        k(   80) = (  -0.5000000   0.1666667   0.0000000), wk =   0.0111111
        k(   81) = (  -0.5000000   0.1666667   0.2000000), wk =   0.0111111
        k(   82) = (  -0.5000000   0.1666667   0.4000000), wk =   0.0111111
        k(   83) = (  -0.5000000   0.1666667  -0.4000000), wk =   0.0111111
        k(   84) = (  -0.5000000   0.1666667  -0.2000000), wk =   0.0111111
        k(   85) = (  -0.5000000   0.3333333   0.0000000), wk =   0.0111111
        k(   86) = (  -0.5000000   0.3333333   0.2000000), wk =   0.0111111
        k(   87) = (  -0.5000000   0.3333333   0.4000000), wk =   0.0111111
        k(   88) = (  -0.5000000   0.3333333  -0.4000000), wk =   0.0111111
        k(   89) = (  -0.5000000   0.3333333  -0.2000000), wk =   0.0111111
        k(   90) = (  -0.5000000  -0.5000000   0.0000000), wk =   0.0055556
        k(   91) = (  -0.5000000  -0.5000000   0.2000000), wk =   0.0111111
        k(   92) = (  -0.5000000  -0.5000000   0.4000000), wk =   0.0111111

     Dense  grid:   328321 G-vectors     FFT dimensions: ( 100,  96, 100)

     Dynamical RAM for                 wfc:      40.10 MB

     Dynamical RAM for     wfc (w. buffer):     280.68 MB

     Dynamical RAM for             U proj.:       6.27 MB

     Dynamical RAM for  U proj. (w. buff.):      43.86 MB

     Dynamical RAM for           str. fact:      35.07 MB

     Dynamical RAM for           local pot:       0.00 MB

     Dynamical RAM for          nlocal pot:     122.80 MB

     Dynamical RAM for                qrad:      11.78 MB

     Dynamical RAM for          rho,v,vnew:      74.00 MB

     Dynamical RAM for           G-vectors:      21.29 MB

     Dynamical RAM for          h,s,v(r/c):       0.75 MB

     Dynamical RAM for          <psi|beta>:       0.19 MB

     Dynamical RAM for                 psi:      80.20 MB

     Dynamical RAM for                hpsi:      80.20 MB

     Dynamical RAM for      wfcinit/wfcrot:      80.29 MB

     Estimated static dynamical RAM per process >     673.51 MB

     Estimated max dynamical RAM per process >     834.84 MB

     Estimated total dynamical RAM >      26.09 GB
     Generating pointlists ...
     new r_m :   0.2040 (alat units)  2.9405 (a.u.) for type    1
     new r_m :   0.1153 (alat units)  1.6618 (a.u.) for type    2
     new r_m :   0.1120 (alat units)  1.6143 (a.u.) for type    3
     new r_m :   0.0632 (alat units)  0.9112 (a.u.) for type    4
     new r_m :   0.0632 (alat units)  0.9112 (a.u.) for type    5
     new r_m :   0.0523 (alat units)  0.7544 (a.u.) for type    6
     new r_m :   0.0523 (alat units)  0.7544 (a.u.) for type    7

     The potential is recalculated from file :
     /tmp/scratch/KVCr_2H2O_LCM/KVCr_2H2O_LCM.save/charge-density


     HUBBARD ENERGY =    0.2316  (Ry)

     STARTING HUBBARD OCCUPATIONS:

     =================== HUBBARD OCCUPATIONS ===================
     ------------------------ ATOM    2 ------------------------
     Tr[ns(  2)] (up, down, total) =   0.37554  3.12356  3.49910
     Atomic magnetic moment for atom   2 =  -2.74802
     SPIN  1
     eigenvalues:
       0.023  0.023  0.024  0.150  0.155
     eigenvectors (columns):
      -0.203 -0.577  0.790  0.043  0.012
       0.204  0.364  0.352 -0.743  0.387
      -0.528  0.276  0.035  0.376  0.709
       0.746 -0.296 -0.049  0.303  0.512
      -0.288 -0.609 -0.498 -0.461  0.291
     occupation matrix ns (before diag.):
       0.024 -0.003  0.003  0.002 -0.003
      -0.003  0.113  0.001 -0.003  0.058
       0.003  0.001  0.107  0.062  0.005
       0.002 -0.003  0.062  0.069  0.002
      -0.003  0.058  0.005  0.002  0.062
     SPIN  2
     eigenvalues:
       0.187  0.192  0.914  0.914  0.917
     eigenvectors (columns):
      -0.049 -0.019  0.576  0.641 -0.504
       0.735 -0.405 -0.359  0.406  0.049
      -0.394 -0.693 -0.294 -0.176 -0.496
      -0.322 -0.507  0.292  0.250  0.702
       0.446 -0.314  0.606 -0.575 -0.070
     occupation matrix ns (before diag.):
       0.913  0.021 -0.023 -0.019  0.012
       0.021  0.403  0.008  0.024 -0.330
      -0.023  0.008  0.455 -0.347 -0.029
      -0.019  0.024 -0.347  0.655 -0.011
       0.012 -0.330 -0.029 -0.011  0.698
     ------------------------ ATOM    3 ------------------------
     Tr[ns(  3)] (up, down, total) =   3.81082  0.83518  4.64599
     Atomic magnetic moment for atom   3 =   2.97564
     SPIN  1
     eigenvalues:
       0.484  0.489  0.945  0.946  0.947
     eigenvectors (columns):
      -0.027  0.023  0.576 -0.712  0.400
      -0.677 -0.444 -0.423 -0.393 -0.110
       0.437 -0.705 -0.187  0.100  0.518
       0.285 -0.478  0.367 -0.141 -0.732
      -0.519 -0.279  0.566  0.556  0.156
     occupation matrix ns (before diag.):
       0.945 -0.004  0.013  0.008 -0.004
      -0.004  0.644 -0.006 -0.007 -0.218
       0.013 -0.006  0.631 -0.212  0.015
       0.008 -0.007 -0.212  0.804  0.007
      -0.004 -0.218  0.015  0.007  0.786
     SPIN  2
     eigenvalues:
       0.042  0.042  0.043  0.352  0.357
     eigenvectors (columns):
       0.590 -0.576  0.565 -0.021  0.028
       0.008  0.420  0.408 -0.739 -0.334
       0.466  0.188 -0.246  0.322 -0.764
      -0.659 -0.366  0.347  0.209 -0.516
      -0.012 -0.568 -0.577 -0.554 -0.195
     occupation matrix ns (before diag.):
       0.043  0.002 -0.009 -0.005  0.002
       0.002  0.246  0.006  0.006  0.147
      -0.009  0.006  0.258  0.145 -0.008
      -0.005  0.006  0.145  0.139 -0.004
       0.002  0.147 -0.008 -0.004  0.149

     Number of occupied Hubbard levels =    8.1451

     Atomic wfc used for Hubbard projectors are orthogonalized

     Starting wfcs are   85 randomized atomic wfcs

     Band Structure Calculation
     Davidson diagonalization with overlap

     Computing kpt #:     1  of     6 on this pool
     c_bands:  1 eigenvalues not converged
     total cpu time spent up to now is       61.3 secs

     Computing kpt #:     2  of     6 on this pool
     total cpu time spent up to now is      113.7 secs

     Computing kpt #:     3  of     6 on this pool
     total cpu time spent up to now is      164.6 secs

     Computing kpt #:     4  of     6 on this pool
     total cpu time spent up to now is      216.8 secs

     Computing kpt #:     5  of     6 on this pool
     total cpu time spent up to now is      268.3 secs

     Computing kpt #:     6  of     6 on this pool
     total cpu time spent up to now is      313.1 secs

     ethr =  1.98E-10,  avg # of iterations = 97.7

     total cpu time spent up to now is      321.3 secs

     End of band structure calculation

 ------ SPIN UP ------------


          k = 0.0000 0.0000 0.0000 ( 40973 PWs)   bands (ev):

   -70.8804 -59.1455 -42.2556 -42.2489 -42.2406 -33.0369 -33.0054 -33.0029
   -28.4845 -17.6693 -17.2387 -15.6313 -15.5328 -15.4717 -15.4481 -15.3970
   -15.2759 -11.9410 -11.9361 -11.9161  -6.1563  -5.6957  -5.2046  -4.4088
    -4.3179  -4.3009  -4.2654  -4.1918  -3.8353  -2.8184  -2.7288  -2.6485
    -2.2139  -2.1580  -2.1351  -2.0984  -1.7646  -1.5545  -1.5317  -1.3708
    -1.2512  -1.2283  -1.1828  -1.1121  -1.1036  -0.9606  -0.8009  -0.7407
    -0.4999  -0.4836  -0.4373   0.1539   0.9733   4.9186   5.0041   5.2496
     5.2963   5.3141   5.8570   6.3700   6.4145   6.4777   7.1789   7.2177

     occupation numbers 
     1.0000   1.0000   1.0000   1.0000   1.0000   1.0000   1.0000   1.0000
     1.0000   1.0000   1.0000   1.0000   1.0000   1.0000   1.0000   1.0000
     1.0000   1.0000   1.0000   1.0000   1.0000   1.0000   1.0000   1.0000
     1.0000   1.0000   1.0000   1.0000   1.0000   1.0000   1.0000   1.0000
     1.0000   1.0000   1.0000   1.0000   1.0000   1.0000   1.0000   1.0000
     1.0000   1.0000   1.0000   1.0000   1.0000   1.0000   1.0000   1.0000
     1.0000   1.0000   1.0000   1.0000   1.0000   0.0000   0.0000   0.0000
     0.0000   0.0000   0.0000   0.0000   0.0000   0.0000   0.0000   0.0000

          k =-0.0021-0.0006 0.2422 ( 41033 PWs)   bands (ev):

   -70.8804 -59.1455 -42.2556 -42.2489 -42.2406 -33.0369 -33.0054 -33.0029
   -28.4846 -17.6666 -17.2424 -15.6219 -15.5358 -15.4715 -15.4512 -15.3993
   -15.2773 -11.9404 -11.9355 -11.9156  -6.0652  -5.7025  -5.2019  -4.7343
    -4.3110  -4.3029  -4.2641  -4.1959  -3.4767  -2.7924  -2.6935  -2.6184
    -2.2651  -2.2447  -2.1508  -2.0732  -1.8578  -1.6678  -1.6050  -1.3864
    -1.2881  -1.2731  -1.2381  -1.1398  -1.0594  -0.9455  -0.8164  -0.7242
    -0.4102  -0.3848  -0.3375   0.1848   0.9556   4.9386   5.0180   5.3154
     5.3769   5.3982   6.0396   6.3515   6.4349   6.4931   7.0596   7.1214

     occupation numbers 
     1.0000   1.0000   1.0000   1.0000   1.0000   1.0000   1.0000   1.0000
     1.0000   1.0000   1.0000   1.0000   1.0000   1.0000   1.0000   1.0000
     1.0000   1.0000   1.0000   1.0000   1.0000   1.0000   1.0000   1.0000
     1.0000   1.0000   1.0000   1.0000   1.0000   1.0000   1.0000   1.0000
     1.0000   1.0000   1.0000   1.0000   1.0000   1.0000   1.0000   1.0000
     1.0000   1.0000   1.0000   1.0000   1.0000   1.0000   1.0000   1.0000
     1.0000   1.0000   1.0000   1.0000   1.0000   0.0000   0.0000   0.0000
     0.0000   0.0000   0.0000   0.0000   0.0000   0.0000   0.0000   0.0000

          k =-0.0042-0.0011 0.4844 ( 41045 PWs)   bands (ev):

   -70.8804 -59.1455 -42.2556 -42.2489 -42.2406 -33.0369 -33.0054 -33.0029
   -28.4846 -17.6621 -17.2485 -15.6017 -15.5465 -15.4685 -15.4586 -15.4025
   -15.2796 -11.9396 -11.9345 -11.9149  -5.8313  -5.7100  -5.3158  -5.0654
    -4.2877  -4.2678  -4.2562  -4.2051  -3.0631  -2.7333  -2.6371  -2.5485
    -2.3471  -2.3168  -2.2212  -2.1072  -2.0699  -1.8500  -1.7077  -1.3947
    -1.3587  -1.2672  -1.2357  -1.1784  -1.1010  -0.9661  -0.7649  -0.6817
    -0.3045  -0.2630  -0.2151   0.2384   0.9258   4.9763   5.0473   5.4176
     5.5611   5.6223   6.1344   6.3409   6.3841   6.5634   7.0486   7.1685

     occupation numbers 
     1.0000   1.0000   1.0000   1.0000   1.0000   1.0000   1.0000   1.0000
     1.0000   1.0000   1.0000   1.0000   1.0000   1.0000   1.0000   1.0000
     1.0000   1.0000   1.0000   1.0000   1.0000   1.0000   1.0000   1.0000
     1.0000   1.0000   1.0000   1.0000   1.0000   1.0000   1.0000   1.0000
     1.0000   1.0000   1.0000   1.0000   1.0000   1.0000   1.0000   1.0000
     1.0000   1.0000   1.0000   1.0000   1.0000   1.0000   1.0000   1.0000
     1.0000   1.0000   1.0000   1.0000   1.0000   0.0000   0.0000   0.0000
     0.0000   0.0000   0.0000   0.0000   0.0000   0.0000   0.0000   0.0000

          k =-0.0015 0.1958-0.0677 ( 41019 PWs)   bands (ev):

   -70.8804 -59.1455 -42.2556 -42.2489 -42.2406 -33.0369 -33.0054 -33.0029
   -28.4846 -17.6680 -17.2404 -15.6240 -15.5312 -15.4751 -15.4516 -15.3984
   -15.2775 -11.9406 -11.9357 -11.9154  -6.0902  -5.6907  -5.2072  -4.6182
    -4.3925  -4.2926  -4.2672  -4.1915  -3.5383  -2.7849  -2.7131  -2.6221
    -2.2601  -2.2378  -2.1453  -2.0685  -1.8366  -1.6075  -1.5355  -1.4626
    -1.3198  -1.2430  -1.2105  -1.1571  -1.0794  -0.8902  -0.8324  -0.7389
    -0.4379  -0.4014  -0.3570   0.1867   0.9509   4.9346   5.0150   5.3029
     5.3512   5.3803   6.0072   6.3428   6.4496   6.5172   7.0735   7.1655

     occupation numbers 
     1.0000   1.0000   1.0000   1.0000   1.0000   1.0000   1.0000   1.0000
     1.0000   1.0000   1.0000   1.0000   1.0000   1.0000   1.0000   1.0000
     1.0000   1.0000   1.0000   1.0000   1.0000   1.0000   1.0000   1.0000
     1.0000   1.0000   1.0000   1.0000   1.0000   1.0000   1.0000   1.0000
     1.0000   1.0000   1.0000   1.0000   1.0000   1.0000   1.0000   1.0000
     1.0000   1.0000   1.0000   1.0000   1.0000   1.0000   1.0000   1.0000
     1.0000   1.0000   1.0000   1.0000   1.0000   0.0000   0.0000   0.0000
     0.0000   0.0000   0.0000   0.0000   0.0000   0.0000   0.0000   0.0000

          k =-0.0036 0.1953 0.1745 ( 41032 PWs)   bands (ev):

   -70.8804 -59.1455 -42.2556 -42.2489 -42.2406 -33.0369 -33.0054 -33.0029
   -28.4846 -17.6655 -17.2441 -15.6164 -15.5339 -15.4770 -15.4519 -15.4000
   -15.2776 -11.9405 -11.9356 -11.9151  -6.0526  -5.7004  -5.1982  -4.7649
    -4.3440  -4.2796  -4.2561  -4.1920  -3.4463  -2.7618  -2.6717  -2.6424
    -2.2925  -2.1696  -2.1379  -2.1305  -1.9263  -1.6754  -1.6581  -1.4231
    -1.3857  -1.3669  -1.1014  -1.0671  -0.9966  -0.9280  -0.7990  -0.7529
    -0.4817  -0.3324  -0.2983   0.2092   0.9300   4.9321   5.0219   5.3048
     5.3960   5.4553   6.0814   6.3737   6.4678   6.5073   7.0457   7.1464

     occupation numbers 
     1.0000   1.0000   1.0000   1.0000   1.0000   1.0000   1.0000   1.0000
     1.0000   1.0000   1.0000   1.0000   1.0000   1.0000   1.0000   1.0000
     1.0000   1.0000   1.0000   1.0000   1.0000   1.0000   1.0000   1.0000
     1.0000   1.0000   1.0000   1.0000   1.0000   1.0000   1.0000   1.0000
     1.0000   1.0000   1.0000   1.0000   1.0000   1.0000   1.0000   1.0000
     1.0000   1.0000   1.0000   1.0000   1.0000   1.0000   1.0000   1.0000
     1.0000   1.0000   1.0000   1.0000   1.0000   0.0000   0.0000   0.0000
     0.0000   0.0000   0.0000   0.0000   0.0000   0.0000   0.0000   0.0000

          k =-0.0058 0.1947 0.4167 ( 41071 PWs)   bands (ev):

   -70.8804 -59.1455 -42.2556 -42.2489 -42.2406 -33.0369 -33.0054 -33.0029
   -28.4846 -17.6611 -17.2502 -15.5976 -15.5427 -15.4755 -15.4583 -15.4032
   -15.2796 -11.9396 -11.9347 -11.9143  -5.8684  -5.7131  -5.2517  -5.0615
    -4.3053  -4.2611  -4.2436  -4.1991  -3.0993  -2.7246  -2.6229  -2.5527
    -2.3640  -2.2756  -2.2621  -2.1132  -2.0974  -1.8356  -1.7403  -1.4874
    -1.4445  -1.3296  -1.1919  -1.0413  -0.9849  -0.9487  -0.7696  -0.7033
    -0.3375  -0.2410  -0.1971   0.2599   0.9002   4.9608   5.0351   5.3916
     5.5980   5.6607   6.1824   6.4371   6.4920   6.5771   6.9481   7.0680

     occupation numbers 
     1.0000   1.0000   1.0000   1.0000   1.0000   1.0000   1.0000   1.0000
     1.0000   1.0000   1.0000   1.0000   1.0000   1.0000   1.0000   1.0000
     1.0000   1.0000   1.0000   1.0000   1.0000   1.0000   1.0000   1.0000
     1.0000   1.0000   1.0000   1.0000   1.0000   1.0000   1.0000   1.0000
     1.0000   1.0000   1.0000   1.0000   1.0000   1.0000   1.0000   1.0000
     1.0000   1.0000   1.0000   1.0000   1.0000   1.0000   1.0000   1.0000
     1.0000   1.0000   1.0000   1.0000   1.0000   0.0000   0.0000   0.0000
     0.0000   0.0000   0.0000   0.0000   0.0000   0.0000   0.0000   0.0000

          k = 0.0027 0.1969-0.5522 ( 41065 PWs)   bands (ev):

   -70.8804 -59.1455 -42.2556 -42.2489 -42.2406 -33.0369 -33.0054 -33.0029
   -28.4846 -17.6608 -17.2502 -15.5951 -15.5436 -15.4696 -15.4653 -15.4037
   -15.2808 -11.9393 -11.9342 -11.9143  -5.7680  -5.6983  -5.3739  -5.0915
    -4.2853  -4.2680  -4.2532  -4.1962  -2.9648  -2.7023  -2.6244  -2.5325
    -2.4246  -2.3467  -2.2462  -2.1631  -2.1094  -1.8339  -1.7328  -1.5030
    -1.4474  -1.3020  -1.2251  -1.1170  -1.0286  -0.9704  -0.7345  -0.6647
    -0.2549  -0.2434  -0.1835   0.2714   0.9028   4.9822   5.0349   5.4841
     5.6293   5.7093   6.2249   6.3345   6.4309   6.7501   7.0089   7.1073

     occupation numbers 
     1.0000   1.0000   1.0000   1.0000   1.0000   1.0000   1.0000   1.0000
     1.0000   1.0000   1.0000   1.0000   1.0000   1.0000   1.0000   1.0000
     1.0000   1.0000   1.0000   1.0000   1.0000   1.0000   1.0000   1.0000
     1.0000   1.0000   1.0000   1.0000   1.0000   1.0000   1.0000   1.0000
     1.0000   1.0000   1.0000   1.0000   1.0000   1.0000   1.0000   1.0000
     1.0000   1.0000   1.0000   1.0000   1.0000   1.0000   1.0000   1.0000
     1.0000   1.0000   1.0000   1.0000   1.0000   0.0000   0.0000   0.0000
     0.0000   0.0000   0.0000   0.0000   0.0000   0.0000   0.0000   0.0000

          k = 0.0006 0.1964-0.3100 ( 41085 PWs)   bands (ev):

   -70.8804 -59.1455 -42.2556 -42.2489 -42.2406 -33.0369 -33.0054 -33.0029
   -28.4846 -17.6652 -17.2441 -15.6138 -15.5338 -15.4726 -15.4578 -15.4011
   -15.2794 -11.9399 -11.9348 -11.9150  -5.9669  -5.6957  -5.2197  -4.9184
    -4.3335  -4.2824  -4.2663  -4.1903  -3.2502  -2.7586  -2.6708  -2.5782
    -2.3535  -2.2600  -2.2260  -2.0984  -1.9333  -1.6703  -1.6438  -1.4898
    -1.3928  -1.3053  -1.1921  -1.1362  -1.1025  -0.9469  -0.7750  -0.6934
    -0.3573  -0.3110  -0.2469   0.2243   0.9351   4.9647   5.0196   5.3701
     5.4832   5.5273   6.2235   6.3309   6.4750   6.5644   6.9427   7.0174

     occupation numbers 
     1.0000   1.0000   1.0000   1.0000   1.0000   1.0000   1.0000   1.0000
     1.0000   1.0000   1.0000   1.0000   1.0000   1.0000   1.0000   1.0000
     1.0000   1.0000   1.0000   1.0000   1.0000   1.0000   1.0000   1.0000
     1.0000   1.0000   1.0000   1.0000   1.0000   1.0000   1.0000   1.0000
     1.0000   1.0000   1.0000   1.0000   1.0000   1.0000   1.0000   1.0000
     1.0000   1.0000   1.0000   1.0000   1.0000   1.0000   1.0000   1.0000
     1.0000   1.0000   1.0000   1.0000   1.0000   0.0000   0.0000   0.0000
     0.0000   0.0000   0.0000   0.0000   0.0000   0.0000   0.0000   0.0000

          k =-0.0030 0.3916-0.1355 ( 41068 PWs)   bands (ev):

   -70.8804 -59.1455 -42.2556 -42.2489 -42.2406 -33.0369 -33.0054 -33.0029
   -28.4846 -17.6654 -17.2437 -15.6059 -15.5316 -15.4802 -15.4608 -15.4006
   -15.2807 -11.9398 -11.9348 -11.9141  -5.9071  -5.6821  -5.2243  -5.0291
    -4.3535  -4.2854  -4.2544  -4.1882  -3.1592  -2.7044  -2.6550  -2.5689
    -2.3490  -2.3040  -2.2036  -2.0934  -2.0407  -1.7656  -1.6332  -1.4759
    -1.3537  -1.2794  -1.2363  -1.1991  -1.1050  -0.8996  -0.7743  -0.7107
    -0.3370  -0.2809  -0.2410   0.2592   0.9037   4.9711   5.0420   5.3984
     5.5247   5.5517   6.1915   6.4088   6.4551   6.5125   6.9920   7.0661

     occupation numbers 
     1.0000   1.0000   1.0000   1.0000   1.0000   1.0000   1.0000   1.0000
     1.0000   1.0000   1.0000   1.0000   1.0000   1.0000   1.0000   1.0000
     1.0000   1.0000   1.0000   1.0000   1.0000   1.0000   1.0000   1.0000
     1.0000   1.0000   1.0000   1.0000   1.0000   1.0000   1.0000   1.0000
     1.0000   1.0000   1.0000   1.0000   1.0000   1.0000   1.0000   1.0000
     1.0000   1.0000   1.0000   1.0000   1.0000   1.0000   1.0000   1.0000
     1.0000   1.0000   1.0000   1.0000   1.0000   0.0000   0.0000   0.0000
     0.0000   0.0000   0.0000   0.0000   0.0000   0.0000   0.0000   0.0000

          k =-0.0051 0.3911 0.1068 ( 41052 PWs)   bands (ev):

   -70.8804 -59.1455 -42.2556 -42.2489 -42.2406 -33.0369 -33.0054 -33.0029
   -28.4846 -17.6630 -17.2475 -15.6004 -15.5313 -15.4847 -15.4595 -15.4021
   -15.2800 -11.9399 -11.9350 -11.9138  -5.9328  -5.6931  -5.2030  -4.9964
    -4.3504  -4.2695  -4.2472  -4.1879  -3.1921  -2.6890  -2.6506  -2.5878
    -2.3661  -2.2447  -2.1801  -2.1358  -2.1003  -1.7803  -1.6890  -1.5087
    -1.4706  -1.4122  -1.1683  -0.9961  -0.9422  -0.8578  -0.7931  -0.7644
    -0.4428  -0.2231  -0.1987   0.2747   0.8787   4.9504   5.0297   5.3378
     5.5796   5.6351   6.2581   6.4173   6.5120   6.6004   6.9317   7.0255

     occupation numbers 
     1.0000   1.0000   1.0000   1.0000   1.0000   1.0000   1.0000   1.0000
     1.0000   1.0000   1.0000   1.0000   1.0000   1.0000   1.0000   1.0000
     1.0000   1.0000   1.0000   1.0000   1.0000   1.0000   1.0000   1.0000
     1.0000   1.0000   1.0000   1.0000   1.0000   1.0000   1.0000   1.0000
     1.0000   1.0000   1.0000   1.0000   1.0000   1.0000   1.0000   1.0000
     1.0000   1.0000   1.0000   1.0000   1.0000   1.0000   1.0000   1.0000
     1.0000   1.0000   1.0000   1.0000   1.0000   0.0000   0.0000   0.0000
     0.0000   0.0000   0.0000   0.0000   0.0000   0.0000   0.0000   0.0000

          k =-0.0073 0.3905 0.3490 ( 41054 PWs)   bands (ev):

   -70.8804 -59.1455 -42.2556 -42.2489 -42.2406 -33.0369 -33.0054 -33.0029
   -28.4846 -17.6587 -17.2538 -15.5856 -15.5352 -15.4848 -15.4656 -15.4051
   -15.2809 -11.9395 -11.9346 -11.9131  -5.8541  -5.7085  -5.2145  -5.0959
    -4.3234  -4.2495  -4.2320  -4.1867  -3.0488  -2.7062  -2.5793  -2.5159
    -2.4339  -2.3489  -2.2303  -2.2122  -2.1578  -1.8019  -1.7828  -1.6086
    -1.5747  -1.4400  -1.1238  -0.9326  -0.9185  -0.8155  -0.7609  -0.6950
    -0.4609  -0.1441  -0.1203   0.3173   0.8445   4.9512   5.0112   5.3196
     5.8658   5.9147   6.2800   6.5560   6.5923   6.6990   6.8294   6.9809

     occupation numbers 
     1.0000   1.0000   1.0000   1.0000   1.0000   1.0000   1.0000   1.0000
     1.0000   1.0000   1.0000   1.0000   1.0000   1.0000   1.0000   1.0000
     1.0000   1.0000   1.0000   1.0000   1.0000   1.0000   1.0000   1.0000
     1.0000   1.0000   1.0000   1.0000   1.0000   1.0000   1.0000   1.0000
     1.0000   1.0000   1.0000   1.0000   1.0000   1.0000   1.0000   1.0000
     1.0000   1.0000   1.0000   1.0000   1.0000   1.0000   1.0000   1.0000
     1.0000   1.0000   1.0000   1.0000   1.0000   0.0000   0.0000   0.0000
     0.0000   0.0000   0.0000   0.0000   0.0000   0.0000   0.0000   0.0000

          k = 0.0012 0.3927-0.6199 ( 41044 PWs)   bands (ev):

   -70.8804 -59.1455 -42.2556 -42.2489 -42.2406 -33.0369 -33.0054 -33.0029
   -28.4846 -17.6585 -17.2537 -15.5822 -15.5373 -15.4780 -15.4735 -15.4052
   -15.2820 -11.9391 -11.9341 -11.9131  -5.7367  -5.7093  -5.3462  -5.1222
    -4.3010  -4.2548  -4.2390  -4.1838  -2.8740  -2.6893  -2.5888  -2.5357
    -2.4887  -2.3453  -2.3291  -2.2169  -2.1734  -1.8142  -1.7450  -1.6606
    -1.5675  -1.3359  -1.2363  -1.0533  -0.9276  -0.8770  -0.7211  -0.6298
    -0.3273  -0.1527  -0.1162   0.3288   0.8477   4.9690   5.0139   5.4334
     5.7855   5.9976   6.4182   6.5215   6.6048   6.8181   6.8651   6.9561

     occupation numbers 
     1.0000   1.0000   1.0000   1.0000   1.0000   1.0000   1.0000   1.0000
     1.0000   1.0000   1.0000   1.0000   1.0000   1.0000   1.0000   1.0000
     1.0000   1.0000   1.0000   1.0000   1.0000   1.0000   1.0000   1.0000
     1.0000   1.0000   1.0000   1.0000   1.0000   1.0000   1.0000   1.0000
     1.0000   1.0000   1.0000   1.0000   1.0000   1.0000   1.0000   1.0000
     1.0000   1.0000   1.0000   1.0000   1.0000   1.0000   1.0000   1.0000
     1.0000   1.0000   1.0000   1.0000   1.0000   0.0000   0.0000   0.0000
     0.0000   0.0000   0.0000   0.0000   0.0000   0.0000   0.0000   0.0000

          k =-0.0009 0.3922-0.3777 ( 41074 PWs)   bands (ev):

   -70.8804 -59.1455 -42.2556 -42.2489 -42.2406 -33.0369 -33.0054 -33.0029
   -28.4846 -17.6626 -17.2474 -15.5967 -15.5329 -15.4773 -15.4684 -15.4027
   -15.2819 -11.9393 -11.9342 -11.9137  -5.7948  -5.6879  -5.3001  -5.1163
    -4.3124  -4.2903  -4.2453  -4.1845  -2.9971  -2.6700  -2.6222  -2.5531
    -2.4208  -2.3399  -2.2758  -2.1516  -2.1109  -1.7507  -1.7175  -1.5655
    -1.4589  -1.3245  -1.2388  -1.1267  -1.0234  -0.9418  -0.7211  -0.6749
    -0.2800  -0.2314  -0.1824   0.2927   0.8855   4.9848   5.0296   5.4929
     5.6117   5.7009   6.2402   6.4786   6.5479   6.6989   6.8856   6.9568

     occupation numbers 
     1.0000   1.0000   1.0000   1.0000   1.0000   1.0000   1.0000   1.0000
     1.0000   1.0000   1.0000   1.0000   1.0000   1.0000   1.0000   1.0000
     1.0000   1.0000   1.0000   1.0000   1.0000   1.0000   1.0000   1.0000
     1.0000   1.0000   1.0000   1.0000   1.0000   1.0000   1.0000   1.0000
     1.0000   1.0000   1.0000   1.0000   1.0000   1.0000   1.0000   1.0000
     1.0000   1.0000   1.0000   1.0000   1.0000   1.0000   1.0000   1.0000
     1.0000   1.0000   1.0000   1.0000   1.0000   0.0000   0.0000   0.0000
     0.0000   0.0000   0.0000   0.0000   0.0000   0.0000   0.0000   0.0000

          k = 0.0045-0.5874 0.2032 ( 41088 PWs)   bands (ev):

   -70.8804 -59.1455 -42.2556 -42.2489 -42.2406 -33.0369 -33.0054 -33.0029
   -28.4846 -17.6640 -17.2453 -15.5934 -15.5364 -15.4788 -15.4685 -15.4013
   -15.2823 -11.9394 -11.9344 -11.9135  -5.7200  -5.6994  -5.3342  -5.1719
    -4.3159  -4.3066  -4.2378  -4.1891  -2.9845  -2.6475  -2.5866  -2.5420
    -2.3776  -2.3566  -2.2325  -2.1971  -2.1226  -1.8484  -1.6983  -1.4546
    -1.3640  -1.2984  -1.2653  -1.1704  -1.1282  -0.9193  -0.7507  -0.6874
    -0.2950  -0.2320  -0.1938   0.2989   0.8783   4.9916   5.0580   5.4557
     5.6574   5.6761   6.1199   6.3309   6.3954   6.7132   7.0919   7.1395

     occupation numbers 
     1.0000   1.0000   1.0000   1.0000   1.0000   1.0000   1.0000   1.0000
     1.0000   1.0000   1.0000   1.0000   1.0000   1.0000   1.0000   1.0000
     1.0000   1.0000   1.0000   1.0000   1.0000   1.0000   1.0000   1.0000
     1.0000   1.0000   1.0000   1.0000   1.0000   1.0000   1.0000   1.0000
     1.0000   1.0000   1.0000   1.0000   1.0000   1.0000   1.0000   1.0000
     1.0000   1.0000   1.0000   1.0000   1.0000   1.0000   1.0000   1.0000
     1.0000   1.0000   1.0000   1.0000   1.0000   0.0000   0.0000   0.0000
     0.0000   0.0000   0.0000   0.0000   0.0000   0.0000   0.0000   0.0000

          k = 0.0024-0.5880 0.4454 ( 41058 PWs)   bands (ev):

   -70.8804 -59.1455 -42.2556 -42.2489 -42.2406 -33.0369 -33.0054 -33.0029
   -28.4846 -17.6615 -17.2492 -15.5875 -15.5345 -15.4830 -15.4693 -15.4031
   -15.2822 -11.9393 -11.9344 -11.9131  -5.7565  -5.6962  -5.3015  -5.1556
    -4.3205  -4.2816  -4.2350  -4.1851  -2.9595  -2.6513  -2.5674  -2.5513
    -2.4361  -2.3355  -2.3055  -2.1991  -2.1407  -1.8245  -1.7404  -1.5578
    -1.4893  -1.3382  -1.2619  -1.0818  -0.9441  -0.8952  -0.7265  -0.7089
    -0.3321  -0.1833  -0.1509   0.3196   0.8537   4.9780   5.0343   5.4493
     5.6800   5.8169   6.2461   6.4168   6.5075   6.7721   6.9968   7.0403

     occupation numbers 
     1.0000   1.0000   1.0000   1.0000   1.0000   1.0000   1.0000   1.0000
     1.0000   1.0000   1.0000   1.0000   1.0000   1.0000   1.0000   1.0000
     1.0000   1.0000   1.0000   1.0000   1.0000   1.0000   1.0000   1.0000
     1.0000   1.0000   1.0000   1.0000   1.0000   1.0000   1.0000   1.0000
     1.0000   1.0000   1.0000   1.0000   1.0000   1.0000   1.0000   1.0000
     1.0000   1.0000   1.0000   1.0000   1.0000   1.0000   1.0000   1.0000
     1.0000   1.0000   1.0000   1.0000   1.0000   0.0000   0.0000   0.0000
     0.0000   0.0000   0.0000   0.0000   0.0000   0.0000   0.0000   0.0000

          k = 0.0003-0.5885 0.6876 ( 40994 PWs)   bands (ev):

   -70.8804 -59.1455 -42.2556 -42.2489 -42.2406 -33.0369 -33.0054 -33.0029
   -28.4846 -17.6574 -17.2555 -15.5764 -15.5331 -15.4861 -15.4742 -15.4060
   -15.2821 -11.9392 -11.9343 -11.9125  -5.7955  -5.7068  -5.2442  -5.1375
    -4.3208  -4.2449  -4.2291  -4.1800  -2.9352  -2.7077  -2.5261  -2.4855
    -2.4819  -2.4273  -2.3002  -2.2580  -2.1673  -1.7886  -1.7790  -1.6924
    -1.6301  -1.4460  -1.1538  -0.9418  -0.8899  -0.8065  -0.7507  -0.6257
    -0.4492  -0.1046  -0.0851   0.3551   0.8136   4.9542   5.0014   5.3325
     6.0502   6.1778   6.4076   6.5546   6.6204   6.7592   6.8529   6.8818

     occupation numbers 
     1.0000   1.0000   1.0000   1.0000   1.0000   1.0000   1.0000   1.0000
     1.0000   1.0000   1.0000   1.0000   1.0000   1.0000   1.0000   1.0000
     1.0000   1.0000   1.0000   1.0000   1.0000   1.0000   1.0000   1.0000
     1.0000   1.0000   1.0000   1.0000   1.0000   1.0000   1.0000   1.0000
     1.0000   1.0000   1.0000   1.0000   1.0000   1.0000   1.0000   1.0000
     1.0000   1.0000   1.0000   1.0000   1.0000   1.0000   1.0000   1.0000
     1.0000   1.0000   1.0000   1.0000   1.0000   0.0000   0.0000   0.0000
     0.0000   0.0000   0.0000   0.0000   0.0000   0.0000   0.0000   0.0000

          k = 0.1684-0.0995-0.0685 ( 41019 PWs)   bands (ev):

   -70.8804 -59.1455 -42.2556 -42.2489 -42.2406 -33.0369 -33.0054 -33.0029
   -28.4846 -17.6680 -17.2404 -15.6240 -15.5312 -15.4751 -15.4516 -15.3984
   -15.2775 -11.9406 -11.9357 -11.9154  -6.0902  -5.6907  -5.2072  -4.6183
    -4.3925  -4.2926  -4.2672  -4.1914  -3.5383  -2.7849  -2.7131  -2.6221
    -2.2601  -2.2378  -2.1454  -2.0685  -1.8366  -1.6075  -1.5354  -1.4627
    -1.3198  -1.2430  -1.2106  -1.1571  -1.0794  -0.8902  -0.8324  -0.7389
    -0.4379  -0.4014  -0.3570   0.1867   0.9509   4.9346   5.0150   5.3029
     5.3512   5.3803   6.0072   6.3427   6.4497   6.5172   7.0734   7.1654

     occupation numbers 
     1.0000   1.0000   1.0000   1.0000   1.0000   1.0000   1.0000   1.0000
     1.0000   1.0000   1.0000   1.0000   1.0000   1.0000   1.0000   1.0000
     1.0000   1.0000   1.0000   1.0000   1.0000   1.0000   1.0000   1.0000
     1.0000   1.0000   1.0000   1.0000   1.0000   1.0000   1.0000   1.0000
     1.0000   1.0000   1.0000   1.0000   1.0000   1.0000   1.0000   1.0000
     1.0000   1.0000   1.0000   1.0000   1.0000   1.0000   1.0000   1.0000
     1.0000   1.0000   1.0000   1.0000   1.0000   0.0000   0.0000   0.0000
     0.0000   0.0000   0.0000   0.0000   0.0000   0.0000   0.0000   0.0000

          k = 0.1662-0.1000 0.1737 ( 41027 PWs)   bands (ev):

   -70.8804 -59.1455 -42.2556 -42.2489 -42.2406 -33.0369 -33.0054 -33.0029
   -28.4846 -17.6673 -17.2411 -15.6182 -15.5369 -15.4724 -15.4581 -15.3962
   -15.2764 -11.9405 -11.9351 -11.9155  -6.0564  -5.7081  -5.2025  -4.7252
    -4.3359  -4.2843  -4.2615  -4.1943  -3.4597  -2.7809  -2.7089  -2.5956
    -2.3112  -2.2296  -2.1740  -2.1035  -1.8756  -1.6367  -1.5624  -1.4459
    -1.3553  -1.3139  -1.1918  -1.1324  -1.0074  -0.9206  -0.8421  -0.7302
    -0.4587  -0.3534  -0.2813   0.1981   0.9513   4.9433   5.0108   5.3115
     5.3945   5.4436   6.0765   6.4207   6.4309   6.4813   7.0493   7.1189

     occupation numbers 
     1.0000   1.0000   1.0000   1.0000   1.0000   1.0000   1.0000   1.0000
     1.0000   1.0000   1.0000   1.0000   1.0000   1.0000   1.0000   1.0000
     1.0000   1.0000   1.0000   1.0000   1.0000   1.0000   1.0000   1.0000
     1.0000   1.0000   1.0000   1.0000   1.0000   1.0000   1.0000   1.0000
     1.0000   1.0000   1.0000   1.0000   1.0000   1.0000   1.0000   1.0000
     1.0000   1.0000   1.0000   1.0000   1.0000   1.0000   1.0000   1.0000
     1.0000   1.0000   1.0000   1.0000   1.0000   0.0000   0.0000   0.0000
     0.0000   0.0000   0.0000   0.0000   0.0000   0.0000   0.0000   0.0000

          k = 0.1641-0.1006 0.4159 ( 41057 PWs)   bands (ev):

   -70.8804 -59.1455 -42.2556 -42.2489 -42.2406 -33.0369 -33.0054 -33.0029
   -28.4846 -17.6633 -17.2465 -15.6001 -15.5448 -15.4702 -15.4670 -15.3986
   -15.2779 -11.9397 -11.9341 -11.9149  -5.8741  -5.7213  -5.2767  -5.0021
    -4.2916  -4.2708  -4.2491  -4.2027  -3.1090  -2.7488  -2.6527  -2.5350
    -2.3826  -2.3197  -2.2304  -2.1497  -2.0434  -1.7808  -1.6699  -1.4674
    -1.4143  -1.3008  -1.2479  -1.1759  -1.0288  -0.9059  -0.7646  -0.6885
    -0.3537  -0.2503  -0.1672   0.2481   0.9248   4.9625   5.0318   5.3866
     5.5948   5.6661   6.1835   6.4020   6.5049   6.5750   6.9527   7.0713

     occupation numbers 
     1.0000   1.0000   1.0000   1.0000   1.0000   1.0000   1.0000   1.0000
     1.0000   1.0000   1.0000   1.0000   1.0000   1.0000   1.0000   1.0000
     1.0000   1.0000   1.0000   1.0000   1.0000   1.0000   1.0000   1.0000
     1.0000   1.0000   1.0000   1.0000   1.0000   1.0000   1.0000   1.0000
     1.0000   1.0000   1.0000   1.0000   1.0000   1.0000   1.0000   1.0000
     1.0000   1.0000   1.0000   1.0000   1.0000   1.0000   1.0000   1.0000
     1.0000   1.0000   1.0000   1.0000   1.0000   0.0000   0.0000   0.0000
     0.0000   0.0000   0.0000   0.0000   0.0000   0.0000   0.0000   0.0000

          k = 0.1726-0.0984-0.5529 ( 41064 PWs)   bands (ev):

   -70.8804 -59.1455 -42.2556 -42.2489 -42.2406 -33.0369 -33.0054 -33.0029
   -28.4846 -17.6615 -17.2491 -15.5965 -15.5404 -15.4803 -15.4592 -15.4020
   -15.2800 -11.9393 -11.9341 -11.9144  -5.7662  -5.7008  -5.3811  -5.0778
    -4.2973  -4.2645  -4.2489  -4.1991  -2.9610  -2.7212  -2.6304  -2.5182
    -2.4238  -2.3429  -2.2301  -2.1799  -2.0998  -1.8368  -1.7251  -1.5049
    -1.3953  -1.3169  -1.2296  -1.1668  -1.0548  -0.9392  -0.7259  -0.6855
    -0.2598  -0.2397  -0.1675   0.2693   0.9076   4.9627   5.0534   5.4779
     5.6183   5.7235   6.2258   6.3601   6.4071   6.7569   6.9907   7.0940

     occupation numbers 
     1.0000   1.0000   1.0000   1.0000   1.0000   1.0000   1.0000   1.0000
     1.0000   1.0000   1.0000   1.0000   1.0000   1.0000   1.0000   1.0000
     1.0000   1.0000   1.0000   1.0000   1.0000   1.0000   1.0000   1.0000
     1.0000   1.0000   1.0000   1.0000   1.0000   1.0000   1.0000   1.0000
     1.0000   1.0000   1.0000   1.0000   1.0000   1.0000   1.0000   1.0000
     1.0000   1.0000   1.0000   1.0000   1.0000   1.0000   1.0000   1.0000
     1.0000   1.0000   1.0000   1.0000   1.0000   0.0000   0.0000   0.0000
     0.0000   0.0000   0.0000   0.0000   0.0000   0.0000   0.0000   0.0000

          k = 0.1705-0.0989-0.3107 ( 41070 PWs)   bands (ev):

   -70.8804 -59.1455 -42.2556 -42.2489 -42.2406 -33.0369 -33.0054 -33.0029
   -28.4846 -17.6644 -17.2453 -15.6133 -15.5297 -15.4806 -15.4524 -15.4024
   -15.2797 -11.9398 -11.9351 -11.9148  -5.9634  -5.6927  -5.2136  -4.9372
    -4.3474  -4.2783  -4.2624  -4.1900  -3.2383  -2.7435  -2.6942  -2.5608
    -2.3262  -2.2966  -2.1701  -2.0725  -1.9916  -1.7494  -1.6502  -1.4715
    -1.3796  -1.2672  -1.2394  -1.1658  -1.0074  -0.9339  -0.7838  -0.7369
    -0.3488  -0.3054  -0.2429   0.2289   0.9248   4.9437   5.0398   5.3676
     5.4812   5.5319   6.2141   6.3487   6.5147   6.5375   6.9100   7.0321

     occupation numbers 
     1.0000   1.0000   1.0000   1.0000   1.0000   1.0000   1.0000   1.0000
     1.0000   1.0000   1.0000   1.0000   1.0000   1.0000   1.0000   1.0000
     1.0000   1.0000   1.0000   1.0000   1.0000   1.0000   1.0000   1.0000
     1.0000   1.0000   1.0000   1.0000   1.0000   1.0000   1.0000   1.0000
     1.0000   1.0000   1.0000   1.0000   1.0000   1.0000   1.0000   1.0000
     1.0000   1.0000   1.0000   1.0000   1.0000   1.0000   1.0000   1.0000
     1.0000   1.0000   1.0000   1.0000   1.0000   0.0000   0.0000   0.0000
     0.0000   0.0000   0.0000   0.0000   0.0000   0.0000   0.0000   0.0000

          k = 0.1668 0.0963-0.1362 ( 41070 PWs)   bands (ev):

   -70.8804 -59.1455 -42.2556 -42.2489 -42.2406 -33.0369 -33.0054 -33.0029
   -28.4846 -17.6674 -17.2411 -15.6275 -15.5288 -15.4720 -15.4483 -15.4021
   -15.2791 -11.9402 -11.9357 -11.9156  -6.0806  -5.6843  -5.2103  -4.6363
    -4.4002  -4.3045  -4.2706  -4.1887  -3.4919  -2.8032  -2.7223  -2.5859
    -2.3187  -2.2146  -2.1524  -2.0581  -1.8170  -1.5974  -1.5869  -1.4624
    -1.3266  -1.2828  -1.2260  -1.1457  -1.0360  -0.8801  -0.8723  -0.7395
    -0.4897  -0.3502  -0.2881   0.1744   0.9602   4.9322   5.0121   5.2562
     5.4184   5.4328   6.0440   6.3930   6.4161   6.5104   7.1004   7.1624

     occupation numbers 
     1.0000   1.0000   1.0000   1.0000   1.0000   1.0000   1.0000   1.0000
     1.0000   1.0000   1.0000   1.0000   1.0000   1.0000   1.0000   1.0000
     1.0000   1.0000   1.0000   1.0000   1.0000   1.0000   1.0000   1.0000
     1.0000   1.0000   1.0000   1.0000   1.0000   1.0000   1.0000   1.0000
     1.0000   1.0000   1.0000   1.0000   1.0000   1.0000   1.0000   1.0000
     1.0000   1.0000   1.0000   1.0000   1.0000   1.0000   1.0000   1.0000
     1.0000   1.0000   1.0000   1.0000   1.0000   0.0000   0.0000   0.0000
     0.0000   0.0000   0.0000   0.0000   0.0000   0.0000   0.0000   0.0000

          k = 0.1647 0.0958 0.1060 ( 41026 PWs)   bands (ev):

   -70.8804 -59.1455 -42.2556 -42.2489 -42.2406 -33.0369 -33.0054 -33.0029
   -28.4846 -17.6669 -17.2420 -15.6226 -15.5365 -15.4713 -15.4512 -15.3985
   -15.2768 -11.9406 -11.9356 -11.9157  -6.0810  -5.7046  -5.1998  -4.6978
    -4.3079  -4.2984  -4.2623  -4.1958  -3.5270  -2.7960  -2.6944  -2.6286
    -2.2505  -2.2326  -2.1450  -2.0835  -1.8488  -1.6565  -1.5939  -1.3746
    -1.3009  -1.2723  -1.2273  -1.1066  -1.0578  -0.9581  -0.8179  -0.7273
    -0.4145  -0.4015  -0.3585   0.1805   0.9578   4.9351   5.0156   5.3162
     5.3551   5.3768   6.0060   6.3546   6.4388   6.4908   7.0770   7.1320

     occupation numbers 
     1.0000   1.0000   1.0000   1.0000   1.0000   1.0000   1.0000   1.0000
     1.0000   1.0000   1.0000   1.0000   1.0000   1.0000   1.0000   1.0000
     1.0000   1.0000   1.0000   1.0000   1.0000   1.0000   1.0000   1.0000
     1.0000   1.0000   1.0000   1.0000   1.0000   1.0000   1.0000   1.0000
     1.0000   1.0000   1.0000   1.0000   1.0000   1.0000   1.0000   1.0000
     1.0000   1.0000   1.0000   1.0000   1.0000   1.0000   1.0000   1.0000
     1.0000   1.0000   1.0000   1.0000   1.0000   0.0000   0.0000   0.0000
     0.0000   0.0000   0.0000   0.0000   0.0000   0.0000   0.0000   0.0000

          k = 0.1626 0.0952 0.3482 ( 41077 PWs)   bands (ev):

   -70.8804 -59.1455 -42.2556 -42.2489 -42.2406 -33.0369 -33.0054 -33.0029
   -28.4846 -17.6630 -17.2474 -15.6042 -15.5480 -15.4671 -15.4587 -15.4008
   -15.2782 -11.9398 -11.9348 -11.9151  -5.9227  -5.7209  -5.2347  -4.9938
    -4.2916  -4.2666  -4.2461  -4.2019  -3.1966  -2.7617  -2.6352  -2.5675
    -2.3140  -2.2919  -2.1965  -2.1540  -2.0127  -1.7875  -1.6905  -1.4557
    -1.3593  -1.2835  -1.2056  -1.1093  -1.0683  -0.9683  -0.7771  -0.6980
    -0.3090  -0.2929  -0.2341   0.2212   0.9307   4.9580   5.0323   5.4075
     5.4971   5.5381   6.1329   6.3966   6.5133   6.5709   6.9267   7.0428

     occupation numbers 
     1.0000   1.0000   1.0000   1.0000   1.0000   1.0000   1.0000   1.0000
     1.0000   1.0000   1.0000   1.0000   1.0000   1.0000   1.0000   1.0000
     1.0000   1.0000   1.0000   1.0000   1.0000   1.0000   1.0000   1.0000
     1.0000   1.0000   1.0000   1.0000   1.0000   1.0000   1.0000   1.0000
     1.0000   1.0000   1.0000   1.0000   1.0000   1.0000   1.0000   1.0000
     1.0000   1.0000   1.0000   1.0000   1.0000   1.0000   1.0000   1.0000
     1.0000   1.0000   1.0000   1.0000   1.0000   0.0000   0.0000   0.0000
     0.0000   0.0000   0.0000   0.0000   0.0000   0.0000   0.0000   0.0000

          k = 0.1711 0.0974-0.6207 ( 41078 PWs)   bands (ev):

   -70.8804 -59.1455 -42.2556 -42.2489 -42.2406 -33.0369 -33.0054 -33.0029
   -28.4846 -17.6609 -17.2499 -15.5987 -15.5456 -15.4692 -15.4578 -15.4053
   -15.2815 -11.9390 -11.9342 -11.9146  -5.7581  -5.6975  -5.3902  -5.0942
    -4.2832  -4.2682  -4.2524  -4.1925  -2.9599  -2.7217  -2.6295  -2.4983
    -2.4367  -2.3310  -2.2156  -2.1651  -2.1332  -1.8551  -1.7389  -1.5031
    -1.3975  -1.2945  -1.2300  -1.1806  -1.0859  -0.9068  -0.7428  -0.6645
    -0.3023  -0.2024  -0.1390   0.2472   0.9150   4.9742   5.0406   5.4481
     5.6221   5.7739   6.1882   6.3597   6.4048   6.7750   7.0101   7.1574

     occupation numbers 
     1.0000   1.0000   1.0000   1.0000   1.0000   1.0000   1.0000   1.0000
     1.0000   1.0000   1.0000   1.0000   1.0000   1.0000   1.0000   1.0000
     1.0000   1.0000   1.0000   1.0000   1.0000   1.0000   1.0000   1.0000
     1.0000   1.0000   1.0000   1.0000   1.0000   1.0000   1.0000   1.0000
     1.0000   1.0000   1.0000   1.0000   1.0000   1.0000   1.0000   1.0000
     1.0000   1.0000   1.0000   1.0000   1.0000   1.0000   1.0000   1.0000
     1.0000   1.0000   1.0000   1.0000   1.0000   0.0000   0.0000   0.0000
     0.0000   0.0000   0.0000   0.0000   0.0000   0.0000   0.0000   0.0000

          k = 0.1690 0.0969-0.3784 ( 41075 PWs)   bands (ev):

   -70.8804 -59.1455 -42.2556 -42.2489 -42.2406 -33.0369 -33.0054 -33.0029
   -28.4846 -17.6637 -17.2460 -15.6158 -15.5304 -15.4727 -15.4511 -15.4066
   -15.2820 -11.9392 -11.9348 -11.9150  -5.9273  -5.6838  -5.2303  -4.9920
    -4.3355  -4.2812  -4.2694  -4.1803  -3.1591  -2.7567  -2.7005  -2.5120
    -2.3894  -2.2586  -2.2109  -2.1264  -1.9870  -1.7475  -1.6628  -1.4954
    -1.3918  -1.3426  -1.2543  -1.1591  -1.0016  -0.9217  -0.7770  -0.7002
    -0.4116  -0.2251  -0.1643   0.2166   0.9342   4.9558   5.0267   5.3220
     5.6000   5.6496   6.2513   6.4134   6.4645   6.5218   6.9567   7.0357

     occupation numbers 
     1.0000   1.0000   1.0000   1.0000   1.0000   1.0000   1.0000   1.0000
     1.0000   1.0000   1.0000   1.0000   1.0000   1.0000   1.0000   1.0000
     1.0000   1.0000   1.0000   1.0000   1.0000   1.0000   1.0000   1.0000
     1.0000   1.0000   1.0000   1.0000   1.0000   1.0000   1.0000   1.0000
     1.0000   1.0000   1.0000   1.0000   1.0000   1.0000   1.0000   1.0000
     1.0000   1.0000   1.0000   1.0000   1.0000   1.0000   1.0000   1.0000
     1.0000   1.0000   1.0000   1.0000   1.0000   0.0000   0.0000   0.0000
     0.0000   0.0000   0.0000   0.0000   0.0000   0.0000   0.0000   0.0000

          k = 0.1653 0.2921-0.2040 ( 41083 PWs)   bands (ev):

   -70.8804 -59.1455 -42.2556 -42.2489 -42.2406 -33.0369 -33.0054 -33.0029
   -28.4846 -17.6651 -17.2440 -15.6179 -15.5247 -15.4773 -15.4517 -15.4055
   -15.2823 -11.9393 -11.9350 -11.9148  -5.9580  -5.6734  -5.2175  -4.9388
    -4.3756  -4.2799  -4.2703  -4.1772  -3.2105  -2.7577  -2.7008  -2.5203
    -2.3890  -2.2664  -2.1892  -2.1170  -1.9523  -1.7147  -1.5911  -1.5435
    -1.3900  -1.3482  -1.2674  -1.1675  -0.9634  -0.9354  -0.7865  -0.7135
    -0.4179  -0.2466  -0.1827   0.2207   0.9299   4.9525   5.0248   5.3104
     5.5811   5.6059   6.2376   6.3892   6.5072   6.5673   6.9055   7.0201

     occupation numbers 
     1.0000   1.0000   1.0000   1.0000   1.0000   1.0000   1.0000   1.0000
     1.0000   1.0000   1.0000   1.0000   1.0000   1.0000   1.0000   1.0000
     1.0000   1.0000   1.0000   1.0000   1.0000   1.0000   1.0000   1.0000
     1.0000   1.0000   1.0000   1.0000   1.0000   1.0000   1.0000   1.0000
     1.0000   1.0000   1.0000   1.0000   1.0000   1.0000   1.0000   1.0000
     1.0000   1.0000   1.0000   1.0000   1.0000   1.0000   1.0000   1.0000
     1.0000   1.0000   1.0000   1.0000   1.0000   0.0000   0.0000   0.0000
     0.0000   0.0000   0.0000   0.0000   0.0000   0.0000   0.0000   0.0000

          k = 0.1632 0.2916 0.0383 ( 41050 PWs)   bands (ev):

   -70.8804 -59.1455 -42.2556 -42.2489 -42.2406 -33.0369 -33.0054 -33.0029
   -28.4846 -17.6648 -17.2449 -15.6142 -15.5310 -15.4795 -15.4523 -15.4016
   -15.2791 -11.9400 -11.9352 -11.9149  -5.9909  -5.6952  -5.2074  -4.8901
    -4.3471  -4.2804  -4.2609  -4.1918  -3.2949  -2.7495  -2.6903  -2.5827
    -2.3049  -2.2860  -2.1616  -2.0635  -1.9718  -1.7374  -1.6486  -1.4578
    -1.3720  -1.2894  -1.2171  -1.1379  -1.0067  -0.9206  -0.7967  -0.7443
    -0.3662  -0.3293  -0.2612   0.2232   0.9266   4.9411   5.0354   5.3566
     5.4423   5.5062   6.1873   6.3309   6.5048   6.5271   6.9368   7.0659

     occupation numbers 
     1.0000   1.0000   1.0000   1.0000   1.0000   1.0000   1.0000   1.0000
     1.0000   1.0000   1.0000   1.0000   1.0000   1.0000   1.0000   1.0000
     1.0000   1.0000   1.0000   1.0000   1.0000   1.0000   1.0000   1.0000
     1.0000   1.0000   1.0000   1.0000   1.0000   1.0000   1.0000   1.0000
     1.0000   1.0000   1.0000   1.0000   1.0000   1.0000   1.0000   1.0000
     1.0000   1.0000   1.0000   1.0000   1.0000   1.0000   1.0000   1.0000
     1.0000   1.0000   1.0000   1.0000   1.0000   0.0000   0.0000   0.0000
     0.0000   0.0000   0.0000   0.0000   0.0000   0.0000   0.0000   0.0000

          k = 0.1611 0.2910 0.2805 ( 41064 PWs)   bands (ev):

   -70.8804 -59.1455 -42.2556 -42.2489 -42.2406 -33.0369 -33.0054 -33.0029
   -28.4846 -17.6610 -17.2505 -15.5979 -15.5434 -15.4742 -15.4581 -15.4035
   -15.2796 -11.9397 -11.9348 -11.9143  -5.8980  -5.7144  -5.2232  -5.0434
    -4.3069  -4.2597  -4.2403  -4.1964  -3.1445  -2.7307  -2.6166  -2.5613
    -2.3631  -2.2724  -2.2217  -2.1404  -2.0870  -1.8134  -1.7548  -1.5008
    -1.4647  -1.3551  -1.1171  -1.0346  -0.9777  -0.9441  -0.7715  -0.7083
    -0.3678  -0.2364  -0.1920   0.2559   0.8981   4.9563   5.0267   5.3626
     5.5906   5.6696   6.1841   6.4688   6.5204   6.5879   6.9079   7.0411

     occupation numbers 
     1.0000   1.0000   1.0000   1.0000   1.0000   1.0000   1.0000   1.0000
     1.0000   1.0000   1.0000   1.0000   1.0000   1.0000   1.0000   1.0000
     1.0000   1.0000   1.0000   1.0000   1.0000   1.0000   1.0000   1.0000
     1.0000   1.0000   1.0000   1.0000   1.0000   1.0000   1.0000   1.0000
     1.0000   1.0000   1.0000   1.0000   1.0000   1.0000   1.0000   1.0000
     1.0000   1.0000   1.0000   1.0000   1.0000   1.0000   1.0000   1.0000
     1.0000   1.0000   1.0000   1.0000   1.0000   0.0000   0.0000   0.0000
     0.0000   0.0000   0.0000   0.0000   0.0000   0.0000   0.0000   0.0000

          k = 0.1696 0.2932-0.6884 ( 41065 PWs)   bands (ev):

   -70.8804 -59.1455 -42.2556 -42.2489 -42.2406 -33.0369 -33.0054 -33.0029
   -28.4846 -17.6589 -17.2530 -15.5917 -15.5437 -15.4685 -15.4625 -15.4082
   -15.2830 -11.9388 -11.9344 -11.9138  -5.7502  -5.7083  -5.3469  -5.1268
    -4.2889  -4.2585  -4.2451  -4.1805  -2.9240  -2.7030  -2.5957  -2.5126
    -2.4697  -2.3460  -2.2649  -2.1885  -2.1705  -1.8380  -1.7859  -1.6115
    -1.4925  -1.2790  -1.1895  -1.1528  -0.9984  -0.9151  -0.6961  -0.6501
    -0.2614  -0.2086  -0.1120   0.2780   0.8815   4.9764   5.0132   5.4795
     5.6007   5.9703   6.2623   6.5283   6.5715   6.8278   6.8905   7.0050

     occupation numbers 
     1.0000   1.0000   1.0000   1.0000   1.0000   1.0000   1.0000   1.0000
     1.0000   1.0000   1.0000   1.0000   1.0000   1.0000   1.0000   1.0000
     1.0000   1.0000   1.0000   1.0000   1.0000   1.0000   1.0000   1.0000
     1.0000   1.0000   1.0000   1.0000   1.0000   1.0000   1.0000   1.0000
     1.0000   1.0000   1.0000   1.0000   1.0000   1.0000   1.0000   1.0000
     1.0000   1.0000   1.0000   1.0000   1.0000   1.0000   1.0000   1.0000
     1.0000   1.0000   1.0000   1.0000   1.0000   0.0000   0.0000   0.0000
     0.0000   0.0000   0.0000   0.0000   0.0000   0.0000   0.0000   0.0000

          k = 0.1674 0.2927-0.4462 ( 41090 PWs)   bands (ev):

   -70.8804 -59.1455 -42.2556 -42.2489 -42.2406 -33.0369 -33.0054 -33.0029
   -28.4846 -17.6615 -17.2489 -15.6067 -15.5292 -15.4730 -15.4559 -15.4099
   -15.2847 -11.9387 -11.9344 -11.9141  -5.8245  -5.6734  -5.2676  -5.1229
    -4.3191  -4.2801  -4.2564  -4.1676  -2.9895  -2.7177  -2.6688  -2.5011
    -2.4028  -2.3587  -2.2429  -2.1848  -2.0871  -1.7547  -1.7311  -1.6091
    -1.4764  -1.3208  -1.2669  -1.1578  -1.0175  -0.8735  -0.7143  -0.6624
    -0.3457  -0.1751  -0.1039   0.2567   0.9017   4.9767   5.0097   5.3886
     5.6833   5.8863   6.2938   6.5116   6.5961   6.7594   6.8474   6.8790

     occupation numbers 
     1.0000   1.0000   1.0000   1.0000   1.0000   1.0000   1.0000   1.0000
     1.0000   1.0000   1.0000   1.0000   1.0000   1.0000   1.0000   1.0000
     1.0000   1.0000   1.0000   1.0000   1.0000   1.0000   1.0000   1.0000
     1.0000   1.0000   1.0000   1.0000   1.0000   1.0000   1.0000   1.0000
     1.0000   1.0000   1.0000   1.0000   1.0000   1.0000   1.0000   1.0000
     1.0000   1.0000   1.0000   1.0000   1.0000   1.0000   1.0000   1.0000
     1.0000   1.0000   1.0000   1.0000   1.0000   0.0000   0.0000   0.0000
     0.0000   0.0000   0.0000   0.0000   0.0000   0.0000   0.0000   0.0000

          k = 0.1729-0.6869 0.1347 ( 41074 PWs)   bands (ev):

   -70.8804 -59.1455 -42.2556 -42.2489 -42.2406 -33.0369 -33.0054 -33.0029
   -28.4846 -17.6634 -17.2461 -15.6010 -15.5277 -15.4836 -15.4600 -15.4047
   -15.2839 -11.9389 -11.9344 -11.9137  -5.7723  -5.6758  -5.2838  -5.1718
    -4.3353  -4.2915  -4.2418  -4.1758  -2.9719  -2.6692  -2.6473  -2.5133
    -2.4196  -2.3370  -2.2316  -2.1861  -2.1141  -1.8157  -1.6903  -1.5123
    -1.4613  -1.3485  -1.2791  -1.1839  -0.9883  -0.9255  -0.7266  -0.6898
    -0.2984  -0.2110  -0.1391   0.2831   0.8867   4.9768   5.0418   5.4328
     5.6730   5.7751   6.2147   6.4297   6.4525   6.7542   6.9768   7.0716

     occupation numbers 
     1.0000   1.0000   1.0000   1.0000   1.0000   1.0000   1.0000   1.0000
     1.0000   1.0000   1.0000   1.0000   1.0000   1.0000   1.0000   1.0000
     1.0000   1.0000   1.0000   1.0000   1.0000   1.0000   1.0000   1.0000
     1.0000   1.0000   1.0000   1.0000   1.0000   1.0000   1.0000   1.0000
     1.0000   1.0000   1.0000   1.0000   1.0000   1.0000   1.0000   1.0000
     1.0000   1.0000   1.0000   1.0000   1.0000   1.0000   1.0000   1.0000
     1.0000   1.0000   1.0000   1.0000   1.0000   0.0000   0.0000   0.0000
     0.0000   0.0000   0.0000   0.0000   0.0000   0.0000   0.0000   0.0000

          k = 0.1708-0.6875 0.3769 ( 41074 PWs)   bands (ev):

   -70.8804 -59.1455 -42.2556 -42.2489 -42.2406 -33.0369 -33.0054 -33.0029
   -28.4846 -17.6630 -17.2470 -15.5983 -15.5258 -15.4926 -15.4604 -15.4016
   -15.2810 -11.9394 -11.9344 -11.9138  -5.8164  -5.6908  -5.2789  -5.1022
    -4.3363  -4.2754  -4.2470  -4.1877  -3.0224  -2.6941  -2.6375  -2.5213
    -2.3918  -2.3522  -2.2200  -2.1854  -2.0865  -1.7998  -1.7096  -1.5172
    -1.4083  -1.3367  -1.2581  -1.1321  -1.0390  -0.8998  -0.7373  -0.7153
    -0.2778  -0.2290  -0.2021   0.2913   0.8856   4.9572   5.0543   5.4719
     5.6110   5.6569   6.2247   6.4901   6.5331   6.6581   6.8748   6.9723

     occupation numbers 
     1.0000   1.0000   1.0000   1.0000   1.0000   1.0000   1.0000   1.0000
     1.0000   1.0000   1.0000   1.0000   1.0000   1.0000   1.0000   1.0000
     1.0000   1.0000   1.0000   1.0000   1.0000   1.0000   1.0000   1.0000
     1.0000   1.0000   1.0000   1.0000   1.0000   1.0000   1.0000   1.0000
     1.0000   1.0000   1.0000   1.0000   1.0000   1.0000   1.0000   1.0000
     1.0000   1.0000   1.0000   1.0000   1.0000   1.0000   1.0000   1.0000
     1.0000   1.0000   1.0000   1.0000   1.0000   0.0000   0.0000   0.0000
     0.0000   0.0000   0.0000   0.0000   0.0000   0.0000   0.0000   0.0000

          k = 0.1687-0.6880 0.6191 ( 41044 PWs)   bands (ev):

   -70.8804 -59.1455 -42.2556 -42.2489 -42.2406 -33.0369 -33.0054 -33.0029
   -28.4846 -17.6593 -17.2527 -15.5859 -15.5334 -15.4885 -15.4660 -15.4034
   -15.2805 -11.9394 -11.9344 -11.9133  -5.8115  -5.7095  -5.2748  -5.0951
    -4.3177  -4.2523  -4.2376  -4.1908  -2.9884  -2.7047  -2.5771  -2.5271
    -2.4417  -2.3545  -2.2694  -2.2179  -2.1367  -1.8091  -1.7652  -1.5904
    -1.5381  -1.3801  -1.2219  -0.9740  -0.9357  -0.8532  -0.7555  -0.6855
    -0.3783  -0.1571  -0.1422   0.3194   0.8539   4.9522   5.0275   5.3818
     5.7860   5.8774   6.2932   6.5128   6.5974   6.7568   6.8205   6.9505

     occupation numbers 
     1.0000   1.0000   1.0000   1.0000   1.0000   1.0000   1.0000   1.0000
     1.0000   1.0000   1.0000   1.0000   1.0000   1.0000   1.0000   1.0000
     1.0000   1.0000   1.0000   1.0000   1.0000   1.0000   1.0000   1.0000
     1.0000   1.0000   1.0000   1.0000   1.0000   1.0000   1.0000   1.0000
     1.0000   1.0000   1.0000   1.0000   1.0000   1.0000   1.0000   1.0000
     1.0000   1.0000   1.0000   1.0000   1.0000   1.0000   1.0000   1.0000
     1.0000   1.0000   1.0000   1.0000   1.0000   0.0000   0.0000   0.0000
     0.0000   0.0000   0.0000   0.0000   0.0000   0.0000   0.0000   0.0000

          k = 0.1771-0.6858-0.3497 ( 41040 PWs)   bands (ev):

   -70.8804 -59.1455 -42.2556 -42.2489 -42.2406 -33.0369 -33.0054 -33.0029
   -28.4846 -17.6574 -17.2553 -15.5806 -15.5380 -15.4755 -15.4731 -15.4075
   -15.2830 -11.9390 -11.9343 -11.9128  -5.7596  -5.7098  -5.2915  -5.1472
    -4.3058  -4.2490  -4.2335  -4.1771  -2.8865  -2.7111  -2.5532  -2.5262
    -2.4887  -2.3733  -2.2945  -2.2521  -2.1739  -1.8129  -1.7768  -1.7034
    -1.5915  -1.3817  -1.1549  -1.0256  -0.9401  -0.8648  -0.7004  -0.6202
    -0.3574  -0.1452  -0.0776   0.3318   0.8341   4.9700   4.9961   5.3842
     5.8346   6.2240   6.4273   6.5691   6.6453   6.7786   6.8375   6.9366

     occupation numbers 
     1.0000   1.0000   1.0000   1.0000   1.0000   1.0000   1.0000   1.0000
     1.0000   1.0000   1.0000   1.0000   1.0000   1.0000   1.0000   1.0000
     1.0000   1.0000   1.0000   1.0000   1.0000   1.0000   1.0000   1.0000
     1.0000   1.0000   1.0000   1.0000   1.0000   1.0000   1.0000   1.0000
     1.0000   1.0000   1.0000   1.0000   1.0000   1.0000   1.0000   1.0000
     1.0000   1.0000   1.0000   1.0000   1.0000   1.0000   1.0000   1.0000
     1.0000   1.0000   1.0000   1.0000   1.0000   0.0000   0.0000   0.0000
     0.0000   0.0000   0.0000   0.0000   0.0000   0.0000   0.0000   0.0000

          k = 0.1750-0.6864-0.1075 ( 41073 PWs)   bands (ev):

   -70.8804 -59.1455 -42.2556 -42.2489 -42.2406 -33.0369 -33.0054 -33.0029
   -28.4846 -17.6600 -17.2512 -15.5918 -15.5318 -15.4776 -15.4648 -15.4085
   -15.2851 -11.9386 -11.9343 -11.9131  -5.7266  -5.6923  -5.3048  -5.1924
    -4.3007  -4.2931  -4.2326  -4.1680  -2.8726  -2.6757  -2.5981  -2.5341
    -2.4896  -2.3550  -2.2839  -2.2112  -2.1678  -1.8053  -1.7619  -1.6655
    -1.5314  -1.3056  -1.2581  -1.1254  -0.9757  -0.8910  -0.6764  -0.6534
    -0.2572  -0.2115  -0.0768   0.3085   0.8540   4.9823   5.0076   5.5085
     5.5925   6.1046   6.4466   6.5255   6.5806   6.8335   6.9014   6.9578

     occupation numbers 
     1.0000   1.0000   1.0000   1.0000   1.0000   1.0000   1.0000   1.0000
     1.0000   1.0000   1.0000   1.0000   1.0000   1.0000   1.0000   1.0000
     1.0000   1.0000   1.0000   1.0000   1.0000   1.0000   1.0000   1.0000
     1.0000   1.0000   1.0000   1.0000   1.0000   1.0000   1.0000   1.0000
     1.0000   1.0000   1.0000   1.0000   1.0000   1.0000   1.0000   1.0000
     1.0000   1.0000   1.0000   1.0000   1.0000   1.0000   1.0000   1.0000
     1.0000   1.0000   1.0000   1.0000   1.0000   0.0000   0.0000   0.0000
     0.0000   0.0000   0.0000   0.0000   0.0000   0.0000   0.0000   0.0000

          k = 0.1714-0.4911 0.0670 ( 41053 PWs)   bands (ev):

   -70.8804 -59.1455 -42.2556 -42.2489 -42.2406 -33.0369 -33.0054 -33.0029
   -28.4846 -17.6640 -17.2453 -15.5939 -15.5371 -15.4786 -15.4675 -15.4015
   -15.2823 -11.9393 -11.9344 -11.9135  -5.7939  -5.6866  -5.2734  -5.1426
    -4.3252  -4.2986  -4.2353  -4.1849  -3.0155  -2.6614  -2.6113  -2.5428
    -2.3894  -2.3551  -2.2476  -2.1634  -2.1203  -1.8017  -1.6902  -1.4931
    -1.4690  -1.3482  -1.2674  -1.1085  -1.0216  -0.9356  -0.7307  -0.7126
    -0.2741  -0.2331  -0.1758   0.2916   0.8747   4.9758   5.0450   5.4781
     5.5912   5.6749   6.2069   6.4512   6.5507   6.6677   6.9900   7.0200

     occupation numbers 
     1.0000   1.0000   1.0000   1.0000   1.0000   1.0000   1.0000   1.0000
     1.0000   1.0000   1.0000   1.0000   1.0000   1.0000   1.0000   1.0000
     1.0000   1.0000   1.0000   1.0000   1.0000   1.0000   1.0000   1.0000
     1.0000   1.0000   1.0000   1.0000   1.0000   1.0000   1.0000   1.0000
     1.0000   1.0000   1.0000   1.0000   1.0000   1.0000   1.0000   1.0000
     1.0000   1.0000   1.0000   1.0000   1.0000   1.0000   1.0000   1.0000
     1.0000   1.0000   1.0000   1.0000   1.0000   0.0000   0.0000   0.0000
     0.0000   0.0000   0.0000   0.0000   0.0000   0.0000   0.0000   0.0000

          k = 0.1693-0.4917 0.3092 ( 41078 PWs)   bands (ev):

   -70.8804 -59.1455 -42.2556 -42.2489 -42.2406 -33.0369 -33.0054 -33.0029
   -28.4846 -17.6634 -17.2461 -15.5902 -15.5329 -15.4880 -15.4699 -15.3993
   -15.2807 -11.9393 -11.9339 -11.9135  -5.7441  -5.7031  -5.3507  -5.1031
    -4.3053  -4.2985  -4.2373  -4.1899  -2.9573  -2.6758  -2.6130  -2.5140
    -2.4345  -2.3643  -2.2663  -2.1908  -2.1549  -1.7688  -1.7155  -1.5352
    -1.4258  -1.3614  -1.2511  -1.2060  -0.9893  -0.8972  -0.7266  -0.6904
    -0.2831  -0.1985  -0.1765   0.3129   0.8779   4.9687   5.0481   5.4725
     5.6662   5.7841   6.2446   6.4018   6.4739   6.7831   7.0077   7.0463

     occupation numbers 
     1.0000   1.0000   1.0000   1.0000   1.0000   1.0000   1.0000   1.0000
     1.0000   1.0000   1.0000   1.0000   1.0000   1.0000   1.0000   1.0000
     1.0000   1.0000   1.0000   1.0000   1.0000   1.0000   1.0000   1.0000
     1.0000   1.0000   1.0000   1.0000   1.0000   1.0000   1.0000   1.0000
     1.0000   1.0000   1.0000   1.0000   1.0000   1.0000   1.0000   1.0000
     1.0000   1.0000   1.0000   1.0000   1.0000   1.0000   1.0000   1.0000
     1.0000   1.0000   1.0000   1.0000   1.0000   0.0000   0.0000   0.0000
     0.0000   0.0000   0.0000   0.0000   0.0000   0.0000   0.0000   0.0000

          k = 0.1671-0.4922 0.5514 ( 41046 PWs)   bands (ev):

   -70.8804 -59.1455 -42.2556 -42.2489 -42.2406 -33.0369 -33.0054 -33.0029
   -28.4846 -17.6596 -17.2518 -15.5794 -15.5287 -15.4956 -15.4744 -15.4010
   -15.2802 -11.9392 -11.9338 -11.9130  -5.7235  -5.7160  -5.3714  -5.0873
    -4.3042  -4.2599  -4.2384  -4.1896  -2.8588  -2.6983  -2.5873  -2.5458
    -2.4716  -2.3955  -2.2914  -2.2495  -2.1921  -1.7915  -1.7143  -1.6249
    -1.5494  -1.3545  -1.2644  -1.1008  -0.9407  -0.8666  -0.6959  -0.6507
    -0.2859  -0.1872  -0.1135   0.3493   0.8457   4.9478   5.0354   5.4979
     5.6594   6.1308   6.4621   6.5581   6.6194   6.7739   6.8509   6.8709

     occupation numbers 
     1.0000   1.0000   1.0000   1.0000   1.0000   1.0000   1.0000   1.0000
     1.0000   1.0000   1.0000   1.0000   1.0000   1.0000   1.0000   1.0000
     1.0000   1.0000   1.0000   1.0000   1.0000   1.0000   1.0000   1.0000
     1.0000   1.0000   1.0000   1.0000   1.0000   1.0000   1.0000   1.0000
     1.0000   1.0000   1.0000   1.0000   1.0000   1.0000   1.0000   1.0000
     1.0000   1.0000   1.0000   1.0000   1.0000   1.0000   1.0000   1.0000
     1.0000   1.0000   1.0000   1.0000   1.0000   0.0000   0.0000   0.0000
     0.0000   0.0000   0.0000   0.0000   0.0000   0.0000   0.0000   0.0000

          k = 0.1756-0.4900-0.4175 ( 41018 PWs)   bands (ev):

   -70.8804 -59.1455 -42.2556 -42.2489 -42.2406 -33.0369 -33.0054 -33.0029
   -28.4846 -17.6580 -17.2545 -15.5771 -15.5318 -15.4889 -15.4743 -15.4045
   -15.2816 -11.9392 -11.9342 -11.9126  -5.7694  -5.7093  -5.2935  -5.1201
    -4.3162  -4.2478  -4.2336  -4.1834  -2.9018  -2.7047  -2.5444  -2.5143
    -2.4739  -2.4149  -2.3012  -2.2519  -2.1782  -1.7899  -1.7565  -1.6716
    -1.6126  -1.4005  -1.2170  -0.9773  -0.9034  -0.8130  -0.7511  -0.6316
    -0.3990  -0.1134  -0.1065   0.3539   0.8231   4.9531   5.0141   5.3741
     5.9109   6.1394   6.4421   6.5493   6.6375   6.7622   6.8582   6.8742

     occupation numbers 
     1.0000   1.0000   1.0000   1.0000   1.0000   1.0000   1.0000   1.0000
     1.0000   1.0000   1.0000   1.0000   1.0000   1.0000   1.0000   1.0000
     1.0000   1.0000   1.0000   1.0000   1.0000   1.0000   1.0000   1.0000
     1.0000   1.0000   1.0000   1.0000   1.0000   1.0000   1.0000   1.0000
     1.0000   1.0000   1.0000   1.0000   1.0000   1.0000   1.0000   1.0000
     1.0000   1.0000   1.0000   1.0000   1.0000   1.0000   1.0000   1.0000
     1.0000   1.0000   1.0000   1.0000   1.0000   0.0000   0.0000   0.0000
     0.0000   0.0000   0.0000   0.0000   0.0000   0.0000   0.0000   0.0000

          k = 0.1735-0.4906-0.1752 ( 41047 PWs)   bands (ev):

   -70.8804 -59.1455 -42.2556 -42.2489 -42.2406 -33.0369 -33.0054 -33.0029
   -28.4846 -17.6608 -17.2504 -15.5868 -15.5357 -15.4804 -15.4684 -15.4050
   -15.2828 -11.9392 -11.9346 -11.9130  -5.8059  -5.6910  -5.2073  -5.1873
    -4.3277  -4.2746  -4.2314  -4.1796  -2.9941  -2.6621  -2.5881  -2.5214
    -2.4383  -2.3610  -2.2647  -2.2009  -2.1437  -1.8261  -1.7482  -1.5942
    -1.5407  -1.3920  -1.1934  -1.0111  -0.9280  -0.8871  -0.7272  -0.7134
    -0.3602  -0.1777  -0.1157   0.3182   0.8410   4.9715   5.0182   5.3963
     5.6995   5.8882   6.2771   6.5665   6.6215   6.7407   6.8629   6.9510

     occupation numbers 
     1.0000   1.0000   1.0000   1.0000   1.0000   1.0000   1.0000   1.0000
     1.0000   1.0000   1.0000   1.0000   1.0000   1.0000   1.0000   1.0000
     1.0000   1.0000   1.0000   1.0000   1.0000   1.0000   1.0000   1.0000
     1.0000   1.0000   1.0000   1.0000   1.0000   1.0000   1.0000   1.0000
     1.0000   1.0000   1.0000   1.0000   1.0000   1.0000   1.0000   1.0000
     1.0000   1.0000   1.0000   1.0000   1.0000   1.0000   1.0000   1.0000
     1.0000   1.0000   1.0000   1.0000   1.0000   0.0000   0.0000   0.0000
     0.0000   0.0000   0.0000   0.0000   0.0000   0.0000   0.0000   0.0000

          k = 0.1699-0.2953-0.0008 ( 41080 PWs)   bands (ev):

   -70.8804 -59.1455 -42.2556 -42.2489 -42.2406 -33.0369 -33.0054 -33.0029
   -28.4846 -17.6663 -17.2424 -15.6087 -15.5340 -15.4783 -15.4606 -15.3986
   -15.2791 -11.9401 -11.9351 -11.9144  -5.9828  -5.6878  -5.2141  -4.8867
    -4.3651  -4.2819  -4.2570  -4.1892  -3.2874  -2.7152  -2.6794  -2.6013
    -2.3160  -2.2495  -2.2149  -2.0957  -1.9965  -1.6840  -1.5919  -1.4897
    -1.4101  -1.3468  -1.1949  -1.1200  -1.0194  -0.9056  -0.7937  -0.7538
    -0.3724  -0.2983  -0.2687   0.2411   0.9090   4.9545   5.0299   5.3790
     5.4564   5.4765   6.2285   6.2883   6.4973   6.6058   7.0056   7.0269

     occupation numbers 
     1.0000   1.0000   1.0000   1.0000   1.0000   1.0000   1.0000   1.0000
     1.0000   1.0000   1.0000   1.0000   1.0000   1.0000   1.0000   1.0000
     1.0000   1.0000   1.0000   1.0000   1.0000   1.0000   1.0000   1.0000
     1.0000   1.0000   1.0000   1.0000   1.0000   1.0000   1.0000   1.0000
     1.0000   1.0000   1.0000   1.0000   1.0000   1.0000   1.0000   1.0000
     1.0000   1.0000   1.0000   1.0000   1.0000   1.0000   1.0000   1.0000
     1.0000   1.0000   1.0000   1.0000   1.0000   0.0000   0.0000   0.0000
     0.0000   0.0000   0.0000   0.0000   0.0000   0.0000   0.0000   0.0000

          k = 0.1678-0.2958 0.2415 ( 41056 PWs)   bands (ev):

   -70.8804 -59.1455 -42.2556 -42.2489 -42.2406 -33.0369 -33.0054 -33.0029
   -28.4846 -17.6655 -17.2432 -15.6029 -15.5353 -15.4771 -15.4697 -15.3969
   -15.2783 -11.9399 -11.9343 -11.9144  -5.9235  -5.7034  -5.2349  -4.9495
    -4.3348  -4.2817  -4.2526  -4.1922  -3.1792  -2.7247  -2.6774  -2.5463
    -2.3836  -2.2895  -2.2431  -2.1445  -2.0200  -1.6710  -1.6343  -1.5278
    -1.4258  -1.3529  -1.2572  -1.1595  -0.9458  -0.9072  -0.7837  -0.7141
    -0.3913  -0.2455  -0.1952   0.2624   0.9128   4.9611   5.0245   5.3595
     5.5799   5.6228   6.2717   6.4111   6.4936   6.5915   6.9370   6.9877

     occupation numbers 
     1.0000   1.0000   1.0000   1.0000   1.0000   1.0000   1.0000   1.0000
     1.0000   1.0000   1.0000   1.0000   1.0000   1.0000   1.0000   1.0000
     1.0000   1.0000   1.0000   1.0000   1.0000   1.0000   1.0000   1.0000
     1.0000   1.0000   1.0000   1.0000   1.0000   1.0000   1.0000   1.0000
     1.0000   1.0000   1.0000   1.0000   1.0000   1.0000   1.0000   1.0000
     1.0000   1.0000   1.0000   1.0000   1.0000   1.0000   1.0000   1.0000
     1.0000   1.0000   1.0000   1.0000   1.0000   0.0000   0.0000   0.0000
     0.0000   0.0000   0.0000   0.0000   0.0000   0.0000   0.0000   0.0000

          k = 0.1656-0.2964 0.4837 ( 41047 PWs)   bands (ev):

   -70.8804 -59.1455 -42.2556 -42.2489 -42.2406 -33.0369 -33.0054 -33.0029
   -28.4846 -17.6617 -17.2487 -15.5879 -15.5362 -15.4844 -15.4735 -15.3988
   -15.2790 -11.9394 -11.9337 -11.9138  -5.7765  -5.7144  -5.3496  -5.0482
    -4.2899  -4.2756  -4.2429  -4.1957  -2.9492  -2.6970  -2.6478  -2.5121
    -2.4639  -2.3756  -2.2690  -2.2002  -2.1400  -1.7835  -1.6926  -1.5505
    -1.4963  -1.3516  -1.2290  -1.1923  -0.9658  -0.8936  -0.7014  -0.6710
    -0.2989  -0.1855  -0.1551   0.3122   0.8846   4.9556   5.0352   5.4597
     5.6766   5.8829   6.3189   6.4706   6.6134   6.7932   6.8695   6.9107

     occupation numbers 
     1.0000   1.0000   1.0000   1.0000   1.0000   1.0000   1.0000   1.0000
     1.0000   1.0000   1.0000   1.0000   1.0000   1.0000   1.0000   1.0000
     1.0000   1.0000   1.0000   1.0000   1.0000   1.0000   1.0000   1.0000
     1.0000   1.0000   1.0000   1.0000   1.0000   1.0000   1.0000   1.0000
     1.0000   1.0000   1.0000   1.0000   1.0000   1.0000   1.0000   1.0000
     1.0000   1.0000   1.0000   1.0000   1.0000   1.0000   1.0000   1.0000
     1.0000   1.0000   1.0000   1.0000   1.0000   0.0000   0.0000   0.0000
     0.0000   0.0000   0.0000   0.0000   0.0000   0.0000   0.0000   0.0000

          k = 0.1741-0.2942-0.4852 ( 41033 PWs)   bands (ev):

   -70.8804 -59.1455 -42.2556 -42.2489 -42.2406 -33.0369 -33.0054 -33.0029
   -28.4846 -17.6600 -17.2514 -15.5864 -15.5314 -15.4924 -15.4664 -15.4018
   -15.2801 -11.9393 -11.9341 -11.9134  -5.7695  -5.7092  -5.3367  -5.0868
    -4.3110  -4.2564  -4.2415  -4.1933  -2.9352  -2.7055  -2.5768  -2.5368
    -2.4627  -2.3546  -2.2881  -2.2227  -2.1325  -1.8020  -1.7563  -1.5787
    -1.4884  -1.3537  -1.2599  -1.0611  -0.9445  -0.9048  -0.7179  -0.6828
    -0.2966  -0.1913  -0.1489   0.3207   0.8640   4.9507   5.0411   5.4633
     5.6715   5.8874   6.3242   6.4991   6.5896   6.7881   6.8377   6.9290

     occupation numbers 
     1.0000   1.0000   1.0000   1.0000   1.0000   1.0000   1.0000   1.0000
     1.0000   1.0000   1.0000   1.0000   1.0000   1.0000   1.0000   1.0000
     1.0000   1.0000   1.0000   1.0000   1.0000   1.0000   1.0000   1.0000
     1.0000   1.0000   1.0000   1.0000   1.0000   1.0000   1.0000   1.0000
     1.0000   1.0000   1.0000   1.0000   1.0000   1.0000   1.0000   1.0000
     1.0000   1.0000   1.0000   1.0000   1.0000   1.0000   1.0000   1.0000
     1.0000   1.0000   1.0000   1.0000   1.0000   0.0000   0.0000   0.0000
     0.0000   0.0000   0.0000   0.0000   0.0000   0.0000   0.0000   0.0000

          k = 0.1720-0.2947-0.2430 ( 41070 PWs)   bands (ev):

   -70.8804 -59.1455 -42.2556 -42.2489 -42.2406 -33.0369 -33.0054 -33.0029
   -28.4846 -17.6630 -17.2475 -15.6002 -15.5306 -15.4857 -15.4596 -15.4020
   -15.2802 -11.9398 -11.9349 -11.9138  -5.9171  -5.6928  -5.2078  -5.0194
    -4.3485  -4.2703  -4.2478  -4.1884  -3.1658  -2.6907  -2.6474  -2.5789
    -2.3670  -2.2683  -2.1835  -2.1434  -2.0880  -1.7899  -1.6915  -1.5072
    -1.4593  -1.3900  -1.1958  -1.0118  -0.9645  -0.8600  -0.7820  -0.7604
    -0.4178  -0.2243  -0.2005   0.2773   0.8798   4.9525   5.0342   5.3562
     5.5814   5.6364   6.2456   6.4384   6.5030   6.6004   6.9170   7.0176

     occupation numbers 
     1.0000   1.0000   1.0000   1.0000   1.0000   1.0000   1.0000   1.0000
     1.0000   1.0000   1.0000   1.0000   1.0000   1.0000   1.0000   1.0000
     1.0000   1.0000   1.0000   1.0000   1.0000   1.0000   1.0000   1.0000
     1.0000   1.0000   1.0000   1.0000   1.0000   1.0000   1.0000   1.0000
     1.0000   1.0000   1.0000   1.0000   1.0000   1.0000   1.0000   1.0000
     1.0000   1.0000   1.0000   1.0000   1.0000   1.0000   1.0000   1.0000
     1.0000   1.0000   1.0000   1.0000   1.0000   0.0000   0.0000   0.0000
     0.0000   0.0000   0.0000   0.0000   0.0000   0.0000   0.0000   0.0000

          k = 0.3367-0.1990-0.1370 ( 41067 PWs)   bands (ev):

   -70.8804 -59.1455 -42.2556 -42.2489 -42.2406 -33.0369 -33.0054 -33.0029
   -28.4846 -17.6654 -17.2437 -15.6059 -15.5316 -15.4802 -15.4608 -15.4006
   -15.2807 -11.9398 -11.9348 -11.9141  -5.9071  -5.6821  -5.2242  -5.0292
    -4.3536  -4.2853  -4.2545  -4.1881  -3.1592  -2.7045  -2.6550  -2.5688
    -2.3490  -2.3039  -2.2038  -2.0933  -2.0407  -1.7656  -1.6332  -1.4758
    -1.3538  -1.2794  -1.2363  -1.1993  -1.1050  -0.8995  -0.7743  -0.7107
    -0.3370  -0.2809  -0.2410   0.2592   0.9037   4.9712   5.0421   5.3984
     5.5246   5.5516   6.1913   6.4089   6.4552   6.5126   6.9920   7.0660

     occupation numbers 
     1.0000   1.0000   1.0000   1.0000   1.0000   1.0000   1.0000   1.0000
     1.0000   1.0000   1.0000   1.0000   1.0000   1.0000   1.0000   1.0000
     1.0000   1.0000   1.0000   1.0000   1.0000   1.0000   1.0000   1.0000
     1.0000   1.0000   1.0000   1.0000   1.0000   1.0000   1.0000   1.0000
     1.0000   1.0000   1.0000   1.0000   1.0000   1.0000   1.0000   1.0000
     1.0000   1.0000   1.0000   1.0000   1.0000   1.0000   1.0000   1.0000
     1.0000   1.0000   1.0000   1.0000   1.0000   0.0000   0.0000   0.0000
     0.0000   0.0000   0.0000   0.0000   0.0000   0.0000   0.0000   0.0000

          k = 0.3346-0.1995 0.1052 ( 41049 PWs)   bands (ev):

   -70.8804 -59.1455 -42.2556 -42.2489 -42.2406 -33.0369 -33.0054 -33.0029
   -28.4846 -17.6659 -17.2427 -15.6036 -15.5356 -15.4771 -15.4696 -15.3962
   -15.2779 -11.9399 -11.9343 -11.9145  -5.9394  -5.7053  -5.2292  -4.9213
    -4.3379  -4.2805  -4.2534  -4.1923  -3.2053  -2.7294  -2.6886  -2.5419
    -2.3810  -2.2888  -2.2326  -2.1477  -2.0085  -1.6590  -1.6285  -1.5271
    -1.4352  -1.3601  -1.2562  -1.1479  -0.9195  -0.9008  -0.7997  -0.7224
    -0.4160  -0.2461  -0.1860   0.2574   0.9155   4.9565   5.0222   5.3411
     5.5772   5.6209   6.2903   6.3892   6.4996   6.5872   6.9495   6.9929

     occupation numbers 
     1.0000   1.0000   1.0000   1.0000   1.0000   1.0000   1.0000   1.0000
     1.0000   1.0000   1.0000   1.0000   1.0000   1.0000   1.0000   1.0000
     1.0000   1.0000   1.0000   1.0000   1.0000   1.0000   1.0000   1.0000
     1.0000   1.0000   1.0000   1.0000   1.0000   1.0000   1.0000   1.0000
     1.0000   1.0000   1.0000   1.0000   1.0000   1.0000   1.0000   1.0000
     1.0000   1.0000   1.0000   1.0000   1.0000   1.0000   1.0000   1.0000
     1.0000   1.0000   1.0000   1.0000   1.0000   0.0000   0.0000   0.0000
     0.0000   0.0000   0.0000   0.0000   0.0000   0.0000   0.0000   0.0000

          k = 0.3325-0.2001 0.3475 ( 41044 PWs)   bands (ev):

   -70.8804 -59.1455 -42.2556 -42.2489 -42.2406 -33.0369 -33.0054 -33.0029
   -28.4846 -17.6638 -17.2453 -15.5923 -15.5365 -15.4867 -15.4734 -15.3951
   -15.2769 -11.9395 -11.9334 -11.9143  -5.8645  -5.7280  -5.2750  -4.9577
    -4.3035  -4.2668  -4.2435  -4.1975  -3.0657  -2.7426  -2.6983  -2.4564
    -2.4333  -2.3934  -2.2386  -2.1819  -2.0970  -1.7906  -1.6693  -1.5460
    -1.4659  -1.3901  -1.3041  -1.1369  -0.9221  -0.8127  -0.7168  -0.7006
    -0.4561  -0.1648  -0.0771   0.2875   0.9057   4.9355   5.0226   5.3131
     5.8606   5.9049   6.3045   6.5201   6.5918   6.6810   6.8479   6.9447

     occupation numbers 
     1.0000   1.0000   1.0000   1.0000   1.0000   1.0000   1.0000   1.0000
     1.0000   1.0000   1.0000   1.0000   1.0000   1.0000   1.0000   1.0000
     1.0000   1.0000   1.0000   1.0000   1.0000   1.0000   1.0000   1.0000
     1.0000   1.0000   1.0000   1.0000   1.0000   1.0000   1.0000   1.0000
     1.0000   1.0000   1.0000   1.0000   1.0000   1.0000   1.0000   1.0000
     1.0000   1.0000   1.0000   1.0000   1.0000   1.0000   1.0000   1.0000
     1.0000   1.0000   1.0000   1.0000   1.0000   0.0000   0.0000   0.0000
     0.0000   0.0000   0.0000   0.0000   0.0000   0.0000   0.0000   0.0000

          k = 0.3409-0.1979-0.6214 ( 41032 PWs)   bands (ev):

   -70.8804 -59.1455 -42.2556 -42.2489 -42.2406 -33.0369 -33.0054 -33.0029
   -28.4846 -17.6620 -17.2479 -15.5885 -15.5274 -15.5008 -15.4671 -15.3980
   -15.2789 -11.9391 -11.9334 -11.9139  -5.7425  -5.7211  -5.3801  -5.0405
    -4.2928  -4.2729  -4.2382  -4.1932  -2.8829  -2.7350  -2.6600  -2.5198
    -2.4816  -2.3466  -2.2675  -2.2204  -2.1433  -1.8186  -1.6958  -1.5927
    -1.4758  -1.3543  -1.2929  -1.1941  -1.0011  -0.8436  -0.6880  -0.6423
    -0.3261  -0.1626  -0.0878   0.3131   0.8871   4.9353   5.0433   5.4231
     5.7849   6.0028   6.4306   6.5124   6.5921   6.7769   6.8494   6.9815

     occupation numbers 
     1.0000   1.0000   1.0000   1.0000   1.0000   1.0000   1.0000   1.0000
     1.0000   1.0000   1.0000   1.0000   1.0000   1.0000   1.0000   1.0000
     1.0000   1.0000   1.0000   1.0000   1.0000   1.0000   1.0000   1.0000
     1.0000   1.0000   1.0000   1.0000   1.0000   1.0000   1.0000   1.0000
     1.0000   1.0000   1.0000   1.0000   1.0000   1.0000   1.0000   1.0000
     1.0000   1.0000   1.0000   1.0000   1.0000   1.0000   1.0000   1.0000
     1.0000   1.0000   1.0000   1.0000   1.0000   0.0000   0.0000   0.0000
     0.0000   0.0000   0.0000   0.0000   0.0000   0.0000   0.0000   0.0000

          k = 0.3388-0.1984-0.3792 ( 41070 PWs)   bands (ev):

   -70.8804 -59.1455 -42.2556 -42.2489 -42.2406 -33.0369 -33.0054 -33.0029
   -28.4846 -17.6630 -17.2468 -15.5979 -15.5244 -15.4945 -15.4604 -15.4016
   -15.2813 -11.9392 -11.9343 -11.9138  -5.7905  -5.6904  -5.3066  -5.1077
    -4.3327  -4.2773  -4.2454  -4.1861  -2.9884  -2.6974  -2.6344  -2.5075
    -2.4176  -2.3522  -2.2330  -2.1929  -2.0962  -1.7944  -1.7148  -1.5254
    -1.4209  -1.3323  -1.2589  -1.1682  -1.0361  -0.9019  -0.7274  -0.7021
    -0.2568  -0.2299  -0.1867   0.2942   0.8865   4.9563   5.0559   5.4904
     5.6153   5.6954   6.2438   6.4922   6.5291   6.7111   6.8704   6.9621

     occupation numbers 
     1.0000   1.0000   1.0000   1.0000   1.0000   1.0000   1.0000   1.0000
     1.0000   1.0000   1.0000   1.0000   1.0000   1.0000   1.0000   1.0000
     1.0000   1.0000   1.0000   1.0000   1.0000   1.0000   1.0000   1.0000
     1.0000   1.0000   1.0000   1.0000   1.0000   1.0000   1.0000   1.0000
     1.0000   1.0000   1.0000   1.0000   1.0000   1.0000   1.0000   1.0000
     1.0000   1.0000   1.0000   1.0000   1.0000   1.0000   1.0000   1.0000
     1.0000   1.0000   1.0000   1.0000   1.0000   0.0000   0.0000   0.0000
     0.0000   0.0000   0.0000   0.0000   0.0000   0.0000   0.0000   0.0000

          k = 0.3352-0.0032-0.2047 ( 41082 PWs)   bands (ev):

   -70.8804 -59.1455 -42.2556 -42.2489 -42.2406 -33.0369 -33.0054 -33.0029
   -28.4846 -17.6651 -17.2440 -15.6179 -15.5247 -15.4773 -15.4516 -15.4056
   -15.2823 -11.9393 -11.9350 -11.9148  -5.9580  -5.6734  -5.2174  -4.9388
    -4.3757  -4.2798  -4.2703  -4.1771  -3.2105  -2.7577  -2.7009  -2.5202
    -2.3891  -2.2662  -2.1895  -2.1170  -1.9522  -1.7147  -1.5910  -1.5435
    -1.3901  -1.3482  -1.2674  -1.1675  -0.9635  -0.9354  -0.7864  -0.7135
    -0.4179  -0.2466  -0.1827   0.2207   0.9299   4.9526   5.0248   5.3104
     5.5811   5.6058   6.2377   6.3891   6.5073   6.5675   6.9055   7.0200

     occupation numbers 
     1.0000   1.0000   1.0000   1.0000   1.0000   1.0000   1.0000   1.0000
     1.0000   1.0000   1.0000   1.0000   1.0000   1.0000   1.0000   1.0000
     1.0000   1.0000   1.0000   1.0000   1.0000   1.0000   1.0000   1.0000
     1.0000   1.0000   1.0000   1.0000   1.0000   1.0000   1.0000   1.0000
     1.0000   1.0000   1.0000   1.0000   1.0000   1.0000   1.0000   1.0000
     1.0000   1.0000   1.0000   1.0000   1.0000   1.0000   1.0000   1.0000
     1.0000   1.0000   1.0000   1.0000   1.0000   0.0000   0.0000   0.0000
     0.0000   0.0000   0.0000   0.0000   0.0000   0.0000   0.0000   0.0000

          k = 0.3331-0.0037 0.0375 ( 41070 PWs)   bands (ev):

   -70.8804 -59.1455 -42.2556 -42.2489 -42.2406 -33.0369 -33.0054 -33.0029
   -28.4846 -17.6658 -17.2432 -15.6152 -15.5347 -15.4725 -15.4580 -15.3995
   -15.2785 -11.9401 -11.9349 -11.9151  -5.9944  -5.6996  -5.2137  -4.8652
    -4.3351  -4.2839  -4.2653  -4.1925  -3.3073  -2.7663  -2.6781  -2.5878
    -2.3385  -2.2571  -2.2097  -2.0927  -1.9129  -1.6588  -1.6190  -1.4696
    -1.3829  -1.3003  -1.1876  -1.1458  -1.1011  -0.9343  -0.7895  -0.7004
    -0.3723  -0.3322  -0.2651   0.2170   0.9403   4.9595   5.0178   5.3606
     5.4431   5.4992   6.1904   6.3298   6.4563   6.5527   6.9666   7.0465

     occupation numbers 
     1.0000   1.0000   1.0000   1.0000   1.0000   1.0000   1.0000   1.0000
     1.0000   1.0000   1.0000   1.0000   1.0000   1.0000   1.0000   1.0000
     1.0000   1.0000   1.0000   1.0000   1.0000   1.0000   1.0000   1.0000
     1.0000   1.0000   1.0000   1.0000   1.0000   1.0000   1.0000   1.0000
     1.0000   1.0000   1.0000   1.0000   1.0000   1.0000   1.0000   1.0000
     1.0000   1.0000   1.0000   1.0000   1.0000   1.0000   1.0000   1.0000
     1.0000   1.0000   1.0000   1.0000   1.0000   0.0000   0.0000   0.0000
     0.0000   0.0000   0.0000   0.0000   0.0000   0.0000   0.0000   0.0000

          k = 0.3310-0.0043 0.2797 ( 41060 PWs)   bands (ev):

   -70.8804 -59.1455 -42.2556 -42.2489 -42.2406 -33.0369 -33.0054 -33.0029
   -28.4846 -17.6638 -17.2457 -15.6013 -15.5452 -15.4699 -15.4674 -15.3976
   -15.2773 -11.9397 -11.9342 -11.9150  -5.9041  -5.7251  -5.2545  -4.9680
    -4.2945  -4.2686  -4.2475  -4.2018  -3.1543  -2.7593  -2.6701  -2.5187
    -2.3895  -2.3042  -2.2174  -2.1614  -2.0311  -1.7751  -1.6400  -1.4861
    -1.4111  -1.3236  -1.2338  -1.1749  -1.0177  -0.8728  -0.7734  -0.7009
    -0.3884  -0.2531  -0.1453   0.2394   0.9291   4.9540   5.0270   5.3572
     5.5907   5.6671   6.1852   6.4669   6.5042   6.5807   6.9116   7.0318

     occupation numbers 
     1.0000   1.0000   1.0000   1.0000   1.0000   1.0000   1.0000   1.0000
     1.0000   1.0000   1.0000   1.0000   1.0000   1.0000   1.0000   1.0000
     1.0000   1.0000   1.0000   1.0000   1.0000   1.0000   1.0000   1.0000
     1.0000   1.0000   1.0000   1.0000   1.0000   1.0000   1.0000   1.0000
     1.0000   1.0000   1.0000   1.0000   1.0000   1.0000   1.0000   1.0000
     1.0000   1.0000   1.0000   1.0000   1.0000   1.0000   1.0000   1.0000
     1.0000   1.0000   1.0000   1.0000   1.0000   0.0000   0.0000   0.0000
     0.0000   0.0000   0.0000   0.0000   0.0000   0.0000   0.0000   0.0000

          k = 0.3394-0.0021-0.6892 ( 41062 PWs)   bands (ev):

   -70.8804 -59.1455 -42.2556 -42.2489 -42.2406 -33.0369 -33.0054 -33.0029
   -28.4846 -17.6619 -17.2482 -15.5962 -15.5400 -15.4823 -15.4595 -15.4014
   -15.2803 -11.9389 -11.9337 -11.9145  -5.7549  -5.7169  -5.3788  -5.0561
    -4.2874  -4.2717  -4.2416  -4.1888  -2.9232  -2.7545  -2.6462  -2.5134
    -2.4608  -2.3291  -2.2537  -2.1784  -2.1219  -1.8195  -1.7073  -1.5791
    -1.4590  -1.3303  -1.2414  -1.1993  -1.1262  -0.8023  -0.7012  -0.6590
    -0.2766  -0.2500  -0.0484   0.2620   0.9104   4.9456   5.0406   5.4635
     5.6065   5.9749   6.2720   6.5026   6.5828   6.8197   6.8892   6.9935

     occupation numbers 
     1.0000   1.0000   1.0000   1.0000   1.0000   1.0000   1.0000   1.0000
     1.0000   1.0000   1.0000   1.0000   1.0000   1.0000   1.0000   1.0000
     1.0000   1.0000   1.0000   1.0000   1.0000   1.0000   1.0000   1.0000
     1.0000   1.0000   1.0000   1.0000   1.0000   1.0000   1.0000   1.0000
     1.0000   1.0000   1.0000   1.0000   1.0000   1.0000   1.0000   1.0000
     1.0000   1.0000   1.0000   1.0000   1.0000   1.0000   1.0000   1.0000
     1.0000   1.0000   1.0000   1.0000   1.0000   0.0000   0.0000   0.0000
     0.0000   0.0000   0.0000   0.0000   0.0000   0.0000   0.0000   0.0000

          k = 0.3373-0.0026-0.4469 ( 41095 PWs)   bands (ev):

   -70.8804 -59.1455 -42.2556 -42.2489 -42.2406 -33.0369 -33.0054 -33.0029
   -28.4846 -17.6626 -17.2471 -15.6083 -15.5231 -15.4864 -15.4525 -15.4065
   -15.2834 -11.9386 -11.9342 -11.9144  -5.8226  -5.6786  -5.2886  -5.0868
    -4.3384  -4.2729  -4.2553  -4.1704  -2.9819  -2.7266  -2.7059  -2.4618
    -2.4498  -2.3049  -2.2274  -2.2003  -2.0828  -1.7799  -1.6747  -1.5567
    -1.4933  -1.3475  -1.2986  -1.1882  -1.0566  -0.8172  -0.7150  -0.6784
    -0.3502  -0.1870  -0.0796   0.2535   0.9110   4.9434   5.0401   5.3872
     5.6822   5.8804   6.3020   6.5446   6.5701   6.7714   6.8112   6.8686

     occupation numbers 
     1.0000   1.0000   1.0000   1.0000   1.0000   1.0000   1.0000   1.0000
     1.0000   1.0000   1.0000   1.0000   1.0000   1.0000   1.0000   1.0000
     1.0000   1.0000   1.0000   1.0000   1.0000   1.0000   1.0000   1.0000
     1.0000   1.0000   1.0000   1.0000   1.0000   1.0000   1.0000   1.0000
     1.0000   1.0000   1.0000   1.0000   1.0000   1.0000   1.0000   1.0000
     1.0000   1.0000   1.0000   1.0000   1.0000   1.0000   1.0000   1.0000
     1.0000   1.0000   1.0000   1.0000   1.0000   0.0000   0.0000   0.0000
     0.0000   0.0000   0.0000   0.0000   0.0000   0.0000   0.0000   0.0000

          k = 0.3337 0.1927-0.2724 ( 41107 PWs)   bands (ev):

   -70.8804 -59.1455 -42.2556 -42.2489 -42.2406 -33.0369 -33.0054 -33.0029
   -28.4846 -17.6635 -17.2459 -15.6201 -15.5209 -15.4725 -15.4480 -15.4129
   -15.2855 -11.9385 -11.9348 -11.9147  -5.9286  -5.6607  -5.2229  -4.9807
    -4.3792  -4.2766  -4.2728  -4.1577  -3.1245  -2.7736  -2.7142  -2.4479
    -2.4301  -2.2554  -2.2229  -2.2027  -1.9940  -1.6846  -1.6586  -1.6124
    -1.4322  -1.4057  -1.3622  -1.0919  -0.9931  -0.7910  -0.7457  -0.7050
    -0.4964  -0.1460  -0.0738   0.2111   0.9287   4.9412   5.0094   5.2628
     5.8059   5.8228   6.3044   6.5301   6.5664   6.5872   6.8924   6.9350

     occupation numbers 
     1.0000   1.0000   1.0000   1.0000   1.0000   1.0000   1.0000   1.0000
     1.0000   1.0000   1.0000   1.0000   1.0000   1.0000   1.0000   1.0000
     1.0000   1.0000   1.0000   1.0000   1.0000   1.0000   1.0000   1.0000
     1.0000   1.0000   1.0000   1.0000   1.0000   1.0000   1.0000   1.0000
     1.0000   1.0000   1.0000   1.0000   1.0000   1.0000   1.0000   1.0000
     1.0000   1.0000   1.0000   1.0000   1.0000   1.0000   1.0000   1.0000
     1.0000   1.0000   1.0000   1.0000   1.0000   0.0000   0.0000   0.0000
     0.0000   0.0000   0.0000   0.0000   0.0000   0.0000   0.0000   0.0000

          k = 0.3316 0.1921-0.0302 ( 41062 PWs)   bands (ev):

   -70.8804 -59.1455 -42.2556 -42.2489 -42.2406 -33.0369 -33.0054 -33.0029
   -28.4846 -17.6644 -17.2452 -15.6172 -15.5316 -15.4724 -15.4513 -15.4048
   -15.2809 -11.9395 -11.9350 -11.9151  -5.9584  -5.6883  -5.2214  -4.9440
    -4.3349  -4.2864  -4.2686  -4.1853  -3.2204  -2.7655  -2.6973  -2.5383
    -2.3681  -2.2472  -2.2050  -2.0985  -1.9528  -1.7336  -1.6504  -1.4710
    -1.3634  -1.3216  -1.2424  -1.1701  -0.9903  -0.9625  -0.7871  -0.7075
    -0.4109  -0.2592  -0.2011   0.2100   0.9396   4.9538   5.0271   5.3204
     5.5406   5.5794   6.2323   6.3767   6.4447   6.5047   6.9760   7.0540

     occupation numbers 
     1.0000   1.0000   1.0000   1.0000   1.0000   1.0000   1.0000   1.0000
     1.0000   1.0000   1.0000   1.0000   1.0000   1.0000   1.0000   1.0000
     1.0000   1.0000   1.0000   1.0000   1.0000   1.0000   1.0000   1.0000
     1.0000   1.0000   1.0000   1.0000   1.0000   1.0000   1.0000   1.0000
     1.0000   1.0000   1.0000   1.0000   1.0000   1.0000   1.0000   1.0000
     1.0000   1.0000   1.0000   1.0000   1.0000   1.0000   1.0000   1.0000
     1.0000   1.0000   1.0000   1.0000   1.0000   0.0000   0.0000   0.0000
     0.0000   0.0000   0.0000   0.0000   0.0000   0.0000   0.0000   0.0000

          k = 0.3294 0.1915 0.2120 ( 41052 PWs)   bands (ev):

   -70.8804 -59.1455 -42.2556 -42.2489 -42.2406 -33.0369 -33.0054 -33.0029
   -28.4846 -17.6626 -17.2479 -15.6030 -15.5472 -15.4677 -15.4588 -15.4015
   -15.2789 -11.9397 -11.9346 -11.9150  -5.8786  -5.7165  -5.2691  -5.0354
    -4.2889  -4.2691  -4.2511  -4.2053  -3.1276  -2.7486  -2.6310  -2.5642
    -2.3298  -2.2967  -2.2290  -2.1129  -2.0346  -1.8241  -1.7017  -1.4061
    -1.3644  -1.2605  -1.2271  -1.1553  -1.1041  -0.9484  -0.7763  -0.6883
    -0.3076  -0.2780  -0.2315   0.2304   0.9287   4.9690   5.0405   5.4104
     5.5279   5.5741   6.1339   6.3940   6.4521   6.4907   7.0111   7.1225

     occupation numbers 
     1.0000   1.0000   1.0000   1.0000   1.0000   1.0000   1.0000   1.0000
     1.0000   1.0000   1.0000   1.0000   1.0000   1.0000   1.0000   1.0000
     1.0000   1.0000   1.0000   1.0000   1.0000   1.0000   1.0000   1.0000
     1.0000   1.0000   1.0000   1.0000   1.0000   1.0000   1.0000   1.0000
     1.0000   1.0000   1.0000   1.0000   1.0000   1.0000   1.0000   1.0000
     1.0000   1.0000   1.0000   1.0000   1.0000   1.0000   1.0000   1.0000
     1.0000   1.0000   1.0000   1.0000   1.0000   0.0000   0.0000   0.0000
     0.0000   0.0000   0.0000   0.0000   0.0000   0.0000   0.0000   0.0000

          k = 0.3379 0.1938-0.7569 ( 41095 PWs)   bands (ev):

   -70.8804 -59.1455 -42.2556 -42.2489 -42.2406 -33.0369 -33.0054 -33.0029
   -28.4846 -17.6606 -17.2503 -15.5979 -15.5457 -15.4690 -15.4574 -15.4062
   -15.2821 -11.9388 -11.9342 -11.9145  -5.7559  -5.7090  -5.3734  -5.0944
    -4.2813  -4.2688  -4.2479  -4.1842  -2.9500  -2.7328  -2.6127  -2.4913
    -2.4685  -2.3100  -2.2680  -2.1815  -2.1209  -1.8272  -1.7679  -1.5568
    -1.4112  -1.2959  -1.2344  -1.1958  -1.0785  -0.8870  -0.7209  -0.6435
    -0.3018  -0.1836  -0.1048   0.2453   0.9105   4.9636   5.0337   5.4605
     5.6242   5.8149   6.2062   6.5178   6.5962   6.8047   6.8348   7.0006

     occupation numbers 
     1.0000   1.0000   1.0000   1.0000   1.0000   1.0000   1.0000   1.0000
     1.0000   1.0000   1.0000   1.0000   1.0000   1.0000   1.0000   1.0000
     1.0000   1.0000   1.0000   1.0000   1.0000   1.0000   1.0000   1.0000
     1.0000   1.0000   1.0000   1.0000   1.0000   1.0000   1.0000   1.0000
     1.0000   1.0000   1.0000   1.0000   1.0000   1.0000   1.0000   1.0000
     1.0000   1.0000   1.0000   1.0000   1.0000   1.0000   1.0000   1.0000
     1.0000   1.0000   1.0000   1.0000   1.0000   0.0000   0.0000   0.0000
     0.0000   0.0000   0.0000   0.0000   0.0000   0.0000   0.0000   0.0000

          k = 0.3358 0.1932-0.5147 ( 41110 PWs)   bands (ev):

   -70.8804 -59.1455 -42.2556 -42.2489 -42.2406 -33.0369 -33.0054 -33.0029
   -28.4846 -17.6612 -17.2491 -15.6107 -15.5262 -15.4734 -15.4500 -15.4134
   -15.2863 -11.9380 -11.9343 -11.9144  -5.8173  -5.6668  -5.2834  -5.1107
    -4.3274  -4.2739  -4.2591  -4.1526  -2.9431  -2.7324  -2.7111  -2.4874
    -2.4279  -2.3069  -2.2307  -2.2064  -2.1452  -1.7797  -1.7332  -1.5883
    -1.4667  -1.4146  -1.3571  -1.1151  -1.0503  -0.7910  -0.7044  -0.6173
    -0.4128  -0.1101  -0.0278   0.2371   0.9096   4.9468   5.0146   5.3275
     5.8737   6.0746   6.3820   6.5134   6.5457   6.8309   6.9022   6.9395

     occupation numbers 
     1.0000   1.0000   1.0000   1.0000   1.0000   1.0000   1.0000   1.0000
     1.0000   1.0000   1.0000   1.0000   1.0000   1.0000   1.0000   1.0000
     1.0000   1.0000   1.0000   1.0000   1.0000   1.0000   1.0000   1.0000
     1.0000   1.0000   1.0000   1.0000   1.0000   1.0000   1.0000   1.0000
     1.0000   1.0000   1.0000   1.0000   1.0000   1.0000   1.0000   1.0000
     1.0000   1.0000   1.0000   1.0000   1.0000   1.0000   1.0000   1.0000
     1.0000   1.0000   1.0000   1.0000   1.0000   0.0000   0.0000   0.0000
     0.0000   0.0000   0.0000   0.0000   0.0000   0.0000   0.0000   0.0000

          k = 0.3413-0.7864 0.0662 ( 41124 PWs)   bands (ev):

   -70.8804 -59.1455 -42.2556 -42.2489 -42.2406 -33.0369 -33.0054 -33.0029
   -28.4846 -17.6622 -17.2476 -15.6120 -15.5184 -15.4798 -15.4505 -15.4132
   -15.2871 -11.9380 -11.9343 -11.9141  -5.8330  -5.6573  -5.2318  -5.1333
    -4.3572  -4.2784  -4.2535  -4.1484  -2.9595  -2.7426  -2.7006  -2.4993
    -2.3952  -2.3283  -2.2353  -2.2222  -2.1037  -1.7704  -1.6626  -1.6126
    -1.5000  -1.4550  -1.3662  -1.1219  -1.0069  -0.7949  -0.6986  -0.6308
    -0.4203  -0.1093  -0.0352   0.2490   0.9017   4.9455   5.0137   5.3164
     5.9257   6.0398   6.3575   6.5426   6.6459   6.8104   6.8540   6.8847

     occupation numbers 
     1.0000   1.0000   1.0000   1.0000   1.0000   1.0000   1.0000   1.0000
     1.0000   1.0000   1.0000   1.0000   1.0000   1.0000   1.0000   1.0000
     1.0000   1.0000   1.0000   1.0000   1.0000   1.0000   1.0000   1.0000
     1.0000   1.0000   1.0000   1.0000   1.0000   1.0000   1.0000   1.0000
     1.0000   1.0000   1.0000   1.0000   1.0000   1.0000   1.0000   1.0000
     1.0000   1.0000   1.0000   1.0000   1.0000   1.0000   1.0000   1.0000
     1.0000   1.0000   1.0000   1.0000   1.0000   0.0000   0.0000   0.0000
     0.0000   0.0000   0.0000   0.0000   0.0000   0.0000   0.0000   0.0000

          k = 0.3391-0.7870 0.3084 ( 41082 PWs)   bands (ev):

   -70.8804 -59.1455 -42.2556 -42.2489 -42.2406 -33.0369 -33.0054 -33.0029
   -28.4846 -17.6630 -17.2468 -15.6092 -15.5242 -15.4854 -15.4526 -15.4056
   -15.2827 -11.9388 -11.9344 -11.9145  -5.8458  -5.6811  -5.2702  -5.0732
    -4.3410  -4.2722  -4.2587  -4.1753  -3.0252  -2.7242  -2.7066  -2.4661
    -2.4349  -2.3058  -2.2110  -2.1853  -2.0657  -1.7758  -1.6685  -1.5389
    -1.4701  -1.3197  -1.2843  -1.1976  -1.0408  -0.8556  -0.7269  -0.6934
    -0.3492  -0.2012  -0.1137   0.2500   0.9141   4.9456   5.0428   5.3853
     5.6545   5.7792   6.2653   6.5297   6.5567   6.6926   6.8260   6.8960

     occupation numbers 
     1.0000   1.0000   1.0000   1.0000   1.0000   1.0000   1.0000   1.0000
     1.0000   1.0000   1.0000   1.0000   1.0000   1.0000   1.0000   1.0000
     1.0000   1.0000   1.0000   1.0000   1.0000   1.0000   1.0000   1.0000
     1.0000   1.0000   1.0000   1.0000   1.0000   1.0000   1.0000   1.0000
     1.0000   1.0000   1.0000   1.0000   1.0000   1.0000   1.0000   1.0000
     1.0000   1.0000   1.0000   1.0000   1.0000   1.0000   1.0000   1.0000
     1.0000   1.0000   1.0000   1.0000   1.0000   0.0000   0.0000   0.0000
     0.0000   0.0000   0.0000   0.0000   0.0000   0.0000   0.0000   0.0000

          k = 0.3370-0.7875 0.5507 ( 41055 PWs)   bands (ev):

   -70.8804 -59.1455 -42.2556 -42.2489 -42.2406 -33.0369 -33.0054 -33.0029
   -28.4846 -17.6613 -17.2496 -15.5968 -15.5412 -15.4785 -15.4590 -15.4024
   -15.2799 -11.9395 -11.9343 -11.9144  -5.8008  -5.7074  -5.3329  -5.0790
    -4.3013  -4.2622  -4.2490  -4.2011  -3.0089  -2.7156  -2.6319  -2.5333
    -2.3851  -2.3321  -2.2412  -2.1568  -2.0871  -1.8454  -1.7268  -1.4873
    -1.3801  -1.3347  -1.2374  -1.0930  -1.0377  -0.9645  -0.7436  -0.6939
    -0.2625  -0.2503  -0.2027   0.2670   0.9050   4.9647   5.0504   5.4568
     5.6281   5.6482   6.1952   6.3699   6.4353   6.6683   6.9879   7.0890

     occupation numbers 
     1.0000   1.0000   1.0000   1.0000   1.0000   1.0000   1.0000   1.0000
     1.0000   1.0000   1.0000   1.0000   1.0000   1.0000   1.0000   1.0000
     1.0000   1.0000   1.0000   1.0000   1.0000   1.0000   1.0000   1.0000
     1.0000   1.0000   1.0000   1.0000   1.0000   1.0000   1.0000   1.0000
     1.0000   1.0000   1.0000   1.0000   1.0000   1.0000   1.0000   1.0000
     1.0000   1.0000   1.0000   1.0000   1.0000   1.0000   1.0000   1.0000
     1.0000   1.0000   1.0000   1.0000   1.0000   0.0000   0.0000   0.0000
     0.0000   0.0000   0.0000   0.0000   0.0000   0.0000   0.0000   0.0000

          k = 0.3455-0.7853-0.4182 ( 41062 PWs)   bands (ev):

   -70.8804 -59.1455 -42.2556 -42.2489 -42.2406 -33.0369 -33.0054 -33.0029
   -28.4846 -17.6595 -17.2522 -15.5926 -15.5437 -15.4687 -15.4636 -15.4068
   -15.2824 -11.9390 -11.9343 -11.9140  -5.7481  -5.7012  -5.3685  -5.1179
    -4.2877  -4.2610  -4.2487  -4.1861  -2.9278  -2.6955  -2.6102  -2.5159
    -2.4614  -2.3383  -2.2671  -2.1738  -2.1585  -1.8478  -1.7641  -1.5762
    -1.4811  -1.2640  -1.2312  -1.1413  -1.0014  -0.9154  -0.7190  -0.6565
    -0.2592  -0.2213  -0.1324   0.2770   0.8879   4.9819   5.0196   5.4850
     5.6072   5.8850   6.2560   6.4444   6.4531   6.8376   6.9691   7.0778

     occupation numbers 
     1.0000   1.0000   1.0000   1.0000   1.0000   1.0000   1.0000   1.0000
     1.0000   1.0000   1.0000   1.0000   1.0000   1.0000   1.0000   1.0000
     1.0000   1.0000   1.0000   1.0000   1.0000   1.0000   1.0000   1.0000
     1.0000   1.0000   1.0000   1.0000   1.0000   1.0000   1.0000   1.0000
     1.0000   1.0000   1.0000   1.0000   1.0000   1.0000   1.0000   1.0000
     1.0000   1.0000   1.0000   1.0000   1.0000   1.0000   1.0000   1.0000
     1.0000   1.0000   1.0000   1.0000   1.0000   0.0000   0.0000   0.0000
     0.0000   0.0000   0.0000   0.0000   0.0000   0.0000   0.0000   0.0000

          k = 0.3434-0.7859-0.1760 ( 41102 PWs)   bands (ev):

   -70.8804 -59.1455 -42.2556 -42.2489 -42.2406 -33.0369 -33.0054 -33.0029
   -28.4846 -17.6600 -17.2509 -15.6040 -15.5275 -15.4732 -15.4542 -15.4139
   -15.2869 -11.9381 -11.9343 -11.9138  -5.7781  -5.6680  -5.2849  -5.1685
    -4.3112  -4.2821  -4.2470  -4.1526  -2.8822  -2.7323  -2.6562  -2.4978
    -2.4822  -2.2984  -2.2471  -2.2266  -2.1933  -1.7724  -1.7449  -1.6872
    -1.5004  -1.3299  -1.3011  -1.1706  -1.0065  -0.8584  -0.6663  -0.6077
    -0.3446  -0.1177  -0.0492   0.2673   0.8847   4.9633   5.0039   5.3924
     5.7335   6.2708   6.4931   6.5903   6.6414   6.7329   6.7901   6.9395

     occupation numbers 
     1.0000   1.0000   1.0000   1.0000   1.0000   1.0000   1.0000   1.0000
     1.0000   1.0000   1.0000   1.0000   1.0000   1.0000   1.0000   1.0000
     1.0000   1.0000   1.0000   1.0000   1.0000   1.0000   1.0000   1.0000
     1.0000   1.0000   1.0000   1.0000   1.0000   1.0000   1.0000   1.0000
     1.0000   1.0000   1.0000   1.0000   1.0000   1.0000   1.0000   1.0000
     1.0000   1.0000   1.0000   1.0000   1.0000   1.0000   1.0000   1.0000
     1.0000   1.0000   1.0000   1.0000   1.0000   0.0000   0.0000   0.0000
     0.0000   0.0000   0.0000   0.0000   0.0000   0.0000   0.0000   0.0000

          k = 0.3397-0.5906-0.0015 ( 41085 PWs)   bands (ev):

   -70.8804 -59.1455 -42.2556 -42.2489 -42.2406 -33.0369 -33.0054 -33.0029
   -28.4846 -17.6625 -17.2472 -15.5988 -15.5264 -15.4849 -15.4589 -15.4070
   -15.2855 -11.9384 -11.9342 -11.9135  -5.7295  -5.6850  -5.3043  -5.1846
    -4.3257  -4.2960  -4.2325  -4.1640  -2.8906  -2.6731  -2.6389  -2.5410
    -2.4644  -2.3528  -2.2586  -2.1792  -2.1431  -1.8178  -1.6966  -1.6020
    -1.5167  -1.4056  -1.2902  -1.1494  -1.0141  -0.8666  -0.7045  -0.6338
    -0.2965  -0.1598  -0.0800   0.2895   0.8740   4.9610   5.0328   5.4486
     5.7067   5.9284   6.3968   6.5770   6.6111   6.8159   6.9454   6.9519

     occupation numbers 
     1.0000   1.0000   1.0000   1.0000   1.0000   1.0000   1.0000   1.0000
     1.0000   1.0000   1.0000   1.0000   1.0000   1.0000   1.0000   1.0000
     1.0000   1.0000   1.0000   1.0000   1.0000   1.0000   1.0000   1.0000
     1.0000   1.0000   1.0000   1.0000   1.0000   1.0000   1.0000   1.0000
     1.0000   1.0000   1.0000   1.0000   1.0000   1.0000   1.0000   1.0000
     1.0000   1.0000   1.0000   1.0000   1.0000   1.0000   1.0000   1.0000
     1.0000   1.0000   1.0000   1.0000   1.0000   0.0000   0.0000   0.0000
     0.0000   0.0000   0.0000   0.0000   0.0000   0.0000   0.0000   0.0000

          k = 0.3376-0.5911 0.2407 ( 41067 PWs)   bands (ev):

   -70.8804 -59.1455 -42.2556 -42.2489 -42.2406 -33.0369 -33.0054 -33.0029
   -28.4846 -17.6630 -17.2463 -15.5967 -15.5201 -15.5005 -15.4606 -15.4015
   -15.2821 -11.9387 -11.9337 -11.9138  -5.7325  -5.6981  -5.3633  -5.0990
    -4.3191  -4.2859  -4.2362  -4.1772  -2.8900  -2.7212  -2.6388  -2.5307
    -2.4858  -2.3203  -2.2436  -2.2050  -2.1368  -1.7774  -1.7106  -1.5872
    -1.5138  -1.3612  -1.2840  -1.2046  -1.0662  -0.8132  -0.6797  -0.6689
    -0.2494  -0.2389  -0.0722   0.2977   0.8874   4.9439   5.0468   5.4997
     5.6072   6.0057   6.4089   6.5150   6.5439   6.8309   6.8979   6.9754

     occupation numbers 
     1.0000   1.0000   1.0000   1.0000   1.0000   1.0000   1.0000   1.0000
     1.0000   1.0000   1.0000   1.0000   1.0000   1.0000   1.0000   1.0000
     1.0000   1.0000   1.0000   1.0000   1.0000   1.0000   1.0000   1.0000
     1.0000   1.0000   1.0000   1.0000   1.0000   1.0000   1.0000   1.0000
     1.0000   1.0000   1.0000   1.0000   1.0000   1.0000   1.0000   1.0000
     1.0000   1.0000   1.0000   1.0000   1.0000   1.0000   1.0000   1.0000
     1.0000   1.0000   1.0000   1.0000   1.0000   0.0000   0.0000   0.0000
     0.0000   0.0000   0.0000   0.0000   0.0000   0.0000   0.0000   0.0000

          k = 0.3355-0.5917 0.4829 ( 41041 PWs)   bands (ev):

   -70.8804 -59.1455 -42.2556 -42.2489 -42.2406 -33.0369 -33.0054 -33.0029
   -28.4846 -17.6613 -17.2492 -15.5875 -15.5286 -15.4982 -15.4669 -15.3993
   -15.2793 -11.9392 -11.9336 -11.9137  -5.7374  -5.7088  -5.3909  -5.0622
    -4.2990  -4.2674  -4.2404  -4.1945  -2.8858  -2.7197  -2.6180  -2.5255
    -2.4847  -2.3524  -2.2902  -2.2220  -2.1374  -1.8050  -1.7196  -1.5888
    -1.4450  -1.3664  -1.2244  -1.2115  -0.9751  -0.9021  -0.6860  -0.6646
    -0.2765  -0.1710  -0.1445   0.3184   0.8793   4.9432   5.0482   5.4874
     5.6782   5.9231   6.3948   6.4998   6.5751   6.7849   6.8623   6.9542

     occupation numbers 
     1.0000   1.0000   1.0000   1.0000   1.0000   1.0000   1.0000   1.0000
     1.0000   1.0000   1.0000   1.0000   1.0000   1.0000   1.0000   1.0000
     1.0000   1.0000   1.0000   1.0000   1.0000   1.0000   1.0000   1.0000
     1.0000   1.0000   1.0000   1.0000   1.0000   1.0000   1.0000   1.0000
     1.0000   1.0000   1.0000   1.0000   1.0000   1.0000   1.0000   1.0000
     1.0000   1.0000   1.0000   1.0000   1.0000   1.0000   1.0000   1.0000
     1.0000   1.0000   1.0000   1.0000   1.0000   0.0000   0.0000   0.0000
     0.0000   0.0000   0.0000   0.0000   0.0000   0.0000   0.0000   0.0000

          k = 0.3440-0.5895-0.4859 ( 41057 PWs)   bands (ev):

   -70.8804 -59.1455 -42.2556 -42.2489 -42.2406 -33.0369 -33.0054 -33.0029
   -28.4846 -17.6596 -17.2519 -15.5841 -15.5367 -15.4807 -15.4736 -15.4027
   -15.2809 -11.9392 -11.9339 -11.9134  -5.7364  -5.7035  -5.3756  -5.0979
    -4.2956  -4.2633  -4.2421  -4.1894  -2.8857  -2.6775  -2.6110  -2.5302
    -2.4974  -2.3552  -2.3078  -2.2059  -2.1644  -1.8011  -1.7226  -1.6139
    -1.5382  -1.3231  -1.2585  -1.0915  -0.9572  -0.8970  -0.7134  -0.6435
    -0.2862  -0.1780  -0.1463   0.3242   0.8623   4.9654   5.0282   5.4957
     5.6794   5.9164   6.3865   6.4875   6.5980   6.8195   6.8788   6.9329

     occupation numbers 
     1.0000   1.0000   1.0000   1.0000   1.0000   1.0000   1.0000   1.0000
     1.0000   1.0000   1.0000   1.0000   1.0000   1.0000   1.0000   1.0000
     1.0000   1.0000   1.0000   1.0000   1.0000   1.0000   1.0000   1.0000
     1.0000   1.0000   1.0000   1.0000   1.0000   1.0000   1.0000   1.0000
     1.0000   1.0000   1.0000   1.0000   1.0000   1.0000   1.0000   1.0000
     1.0000   1.0000   1.0000   1.0000   1.0000   1.0000   1.0000   1.0000
     1.0000   1.0000   1.0000   1.0000   1.0000   0.0000   0.0000   0.0000
     0.0000   0.0000   0.0000   0.0000   0.0000   0.0000   0.0000   0.0000

          k = 0.3419-0.5900-0.2437 ( 41068 PWs)   bands (ev):

   -70.8804 -59.1455 -42.2556 -42.2489 -42.2406 -33.0369 -33.0054 -33.0029
   -28.4846 -17.6604 -17.2507 -15.5924 -15.5319 -15.4776 -15.4654 -15.4077
   -15.2847 -11.9387 -11.9343 -11.9132  -5.7314  -5.6893  -5.3135  -5.1824
    -4.3009  -4.2939  -4.2347  -4.1707  -2.8886  -2.6612  -2.6096  -2.5386
    -2.4734  -2.3563  -2.2875  -2.1982  -2.1631  -1.7987  -1.7617  -1.6456
    -1.5240  -1.3002  -1.2611  -1.1317  -0.9773  -0.8895  -0.6894  -0.6587
    -0.2593  -0.2171  -0.0897   0.3068   0.8585   4.9859   5.0099   5.5092
     5.5953   6.0254   6.4001   6.5150   6.5533   6.8358   6.8962   6.9710

     occupation numbers 
     1.0000   1.0000   1.0000   1.0000   1.0000   1.0000   1.0000   1.0000
     1.0000   1.0000   1.0000   1.0000   1.0000   1.0000   1.0000   1.0000
     1.0000   1.0000   1.0000   1.0000   1.0000   1.0000   1.0000   1.0000
     1.0000   1.0000   1.0000   1.0000   1.0000   1.0000   1.0000   1.0000
     1.0000   1.0000   1.0000   1.0000   1.0000   1.0000   1.0000   1.0000
     1.0000   1.0000   1.0000   1.0000   1.0000   1.0000   1.0000   1.0000
     1.0000   1.0000   1.0000   1.0000   1.0000   0.0000   0.0000   0.0000
     0.0000   0.0000   0.0000   0.0000   0.0000   0.0000   0.0000   0.0000

          k = 0.3382-0.3948-0.0692 ( 41053 PWs)   bands (ev):

   -70.8804 -59.1455 -42.2556 -42.2489 -42.2406 -33.0369 -33.0054 -33.0029
   -28.4846 -17.6640 -17.2453 -15.5939 -15.5371 -15.4785 -15.4675 -15.4015
   -15.2823 -11.9393 -11.9344 -11.9135  -5.7939  -5.6866  -5.2733  -5.1427
    -4.3253  -4.2986  -4.2354  -4.1848  -3.0155  -2.6614  -2.6113  -2.5428
    -2.3894  -2.3550  -2.2478  -2.1634  -2.1203  -1.8017  -1.6902  -1.4931
    -1.4689  -1.3483  -1.2674  -1.1085  -1.0216  -0.9356  -0.7308  -0.7126
    -0.2741  -0.2331  -0.1758   0.2917   0.8747   4.9758   5.0450   5.4782
     5.5911   5.6748   6.2068   6.4514   6.5508   6.6676   6.9899   7.0200

     occupation numbers 
     1.0000   1.0000   1.0000   1.0000   1.0000   1.0000   1.0000   1.0000
     1.0000   1.0000   1.0000   1.0000   1.0000   1.0000   1.0000   1.0000
     1.0000   1.0000   1.0000   1.0000   1.0000   1.0000   1.0000   1.0000
     1.0000   1.0000   1.0000   1.0000   1.0000   1.0000   1.0000   1.0000
     1.0000   1.0000   1.0000   1.0000   1.0000   1.0000   1.0000   1.0000
     1.0000   1.0000   1.0000   1.0000   1.0000   1.0000   1.0000   1.0000
     1.0000   1.0000   1.0000   1.0000   1.0000   0.0000   0.0000   0.0000
     0.0000   0.0000   0.0000   0.0000   0.0000   0.0000   0.0000   0.0000

          k = 0.3361-0.3953 0.1730 ( 41025 PWs)   bands (ev):

   -70.8804 -59.1455 -42.2556 -42.2489 -42.2406 -33.0369 -33.0054 -33.0029
   -28.4846 -17.6645 -17.2443 -15.5923 -15.5330 -15.4897 -15.4697 -15.3973
   -15.2797 -11.9393 -11.9337 -11.9138  -5.8130  -5.7052  -5.2989  -5.0408
    -4.3142  -4.2922  -4.2363  -4.1875  -3.0037  -2.7142  -2.6623  -2.4984
    -2.4351  -2.3172  -2.3028  -2.1786  -2.1150  -1.7313  -1.6822  -1.5663
    -1.4844  -1.4146  -1.2737  -1.1766  -0.9855  -0.8120  -0.7288  -0.6938
    -0.3529  -0.1970  -0.0978   0.2980   0.8882   4.9493   5.0359   5.3939
     5.7064   5.8681   6.2685   6.5604   6.6403   6.7333   6.8710   6.9229

     occupation numbers 
     1.0000   1.0000   1.0000   1.0000   1.0000   1.0000   1.0000   1.0000
     1.0000   1.0000   1.0000   1.0000   1.0000   1.0000   1.0000   1.0000
     1.0000   1.0000   1.0000   1.0000   1.0000   1.0000   1.0000   1.0000
     1.0000   1.0000   1.0000   1.0000   1.0000   1.0000   1.0000   1.0000
     1.0000   1.0000   1.0000   1.0000   1.0000   1.0000   1.0000   1.0000
     1.0000   1.0000   1.0000   1.0000   1.0000   1.0000   1.0000   1.0000
     1.0000   1.0000   1.0000   1.0000   1.0000   0.0000   0.0000   0.0000
     0.0000   0.0000   0.0000   0.0000   0.0000   0.0000   0.0000   0.0000

          k = 0.3340-0.3959 0.4152 ( 41037 PWs)   bands (ev):

   -70.8804 -59.1455 -42.2556 -42.2489 -42.2406 -33.0369 -33.0054 -33.0029
   -28.4846 -17.6626 -17.2470 -15.5845 -15.5242 -15.5047 -15.4743 -15.3959
   -15.2779 -11.9392 -11.9332 -11.9137  -5.7787  -5.7261  -5.3384  -5.0098
    -4.2945  -4.2736  -4.2378  -4.1939  -2.9212  -2.7305  -2.6858  -2.4958
    -2.4659  -2.3447  -2.2748  -2.2363  -2.1799  -1.8005  -1.7020  -1.5541
    -1.5033  -1.3873  -1.3332  -1.1610  -0.9320  -0.8378  -0.6996  -0.6289
    -0.3857  -0.1230  -0.0874   0.3299   0.8795   4.9290   5.0338   5.3667
     5.9110   6.1325   6.4397   6.5355   6.6497   6.7658   6.8264   6.8719

     occupation numbers 
     1.0000   1.0000   1.0000   1.0000   1.0000   1.0000   1.0000   1.0000
     1.0000   1.0000   1.0000   1.0000   1.0000   1.0000   1.0000   1.0000
     1.0000   1.0000   1.0000   1.0000   1.0000   1.0000   1.0000   1.0000
     1.0000   1.0000   1.0000   1.0000   1.0000   1.0000   1.0000   1.0000
     1.0000   1.0000   1.0000   1.0000   1.0000   1.0000   1.0000   1.0000
     1.0000   1.0000   1.0000   1.0000   1.0000   1.0000   1.0000   1.0000
     1.0000   1.0000   1.0000   1.0000   1.0000   0.0000   0.0000   0.0000
     0.0000   0.0000   0.0000   0.0000   0.0000   0.0000   0.0000   0.0000

          k = 0.3425-0.3937-0.5537 ( 41038 PWs)   bands (ev):

   -70.8804 -59.1455 -42.2556 -42.2489 -42.2406 -33.0369 -33.0054 -33.0029
   -28.4846 -17.6609 -17.2497 -15.5815 -15.5265 -15.5000 -15.4743 -15.3987
   -15.2792 -11.9392 -11.9335 -11.9133  -5.7278  -5.7195  -5.3809  -5.0595
    -4.2957  -4.2702  -4.2386  -4.1923  -2.8669  -2.7059  -2.6318  -2.5275
    -2.4711  -2.3770  -2.2820  -2.2531  -2.1912  -1.7938  -1.6895  -1.6073
    -1.5009  -1.3761  -1.2201  -1.2118  -0.9463  -0.8792  -0.6723  -0.6592
    -0.2768  -0.1859  -0.1174   0.3433   0.8613   4.9415   5.0405   5.4940
     5.6605   6.1294   6.4627   6.5499   6.6259   6.7762   6.8404   6.8713

     occupation numbers 
     1.0000   1.0000   1.0000   1.0000   1.0000   1.0000   1.0000   1.0000
     1.0000   1.0000   1.0000   1.0000   1.0000   1.0000   1.0000   1.0000
     1.0000   1.0000   1.0000   1.0000   1.0000   1.0000   1.0000   1.0000
     1.0000   1.0000   1.0000   1.0000   1.0000   1.0000   1.0000   1.0000
     1.0000   1.0000   1.0000   1.0000   1.0000   1.0000   1.0000   1.0000
     1.0000   1.0000   1.0000   1.0000   1.0000   1.0000   1.0000   1.0000
     1.0000   1.0000   1.0000   1.0000   1.0000   0.0000   0.0000   0.0000
     0.0000   0.0000   0.0000   0.0000   0.0000   0.0000   0.0000   0.0000

          k = 0.3403-0.3942-0.3115 ( 41069 PWs)   bands (ev):

   -70.8804 -59.1455 -42.2556 -42.2489 -42.2406 -33.0369 -33.0054 -33.0029
   -28.4846 -17.6618 -17.2486 -15.5879 -15.5341 -15.4841 -15.4695 -15.4024
   -15.2819 -11.9393 -11.9343 -11.9132  -5.7392  -5.6994  -5.3275  -5.1479
    -4.3175  -4.2845  -4.2362  -4.1866  -2.9514  -2.6495  -2.5683  -2.5510
    -2.4360  -2.3429  -2.3001  -2.2029  -2.1398  -1.8185  -1.7365  -1.5491
    -1.4634  -1.3286  -1.2770  -1.0985  -0.9751  -0.8959  -0.7246  -0.7039
    -0.3153  -0.1855  -0.1666   0.3195   0.8588   4.9782   5.0404   5.4729
     5.6636   5.7943   6.2408   6.4043   6.4747   6.7836   7.0093   7.0534

     occupation numbers 
     1.0000   1.0000   1.0000   1.0000   1.0000   1.0000   1.0000   1.0000
     1.0000   1.0000   1.0000   1.0000   1.0000   1.0000   1.0000   1.0000
     1.0000   1.0000   1.0000   1.0000   1.0000   1.0000   1.0000   1.0000
     1.0000   1.0000   1.0000   1.0000   1.0000   1.0000   1.0000   1.0000
     1.0000   1.0000   1.0000   1.0000   1.0000   1.0000   1.0000   1.0000
     1.0000   1.0000   1.0000   1.0000   1.0000   1.0000   1.0000   1.0000
     1.0000   1.0000   1.0000   1.0000   1.0000   0.0000   0.0000   0.0000
     0.0000   0.0000   0.0000   0.0000   0.0000   0.0000   0.0000   0.0000

          k =-0.5051 0.2985 0.2055 ( 41088 PWs)   bands (ev):

   -70.8804 -59.1455 -42.2556 -42.2489 -42.2406 -33.0369 -33.0054 -33.0029
   -28.4846 -17.6640 -17.2453 -15.5934 -15.5365 -15.4788 -15.4684 -15.4014
   -15.2823 -11.9394 -11.9344 -11.9135  -5.7200  -5.6994  -5.3340  -5.1721
    -4.3164  -4.3061  -4.2379  -4.1889  -2.9846  -2.6476  -2.5866  -2.5419
    -2.3776  -2.3565  -2.2326  -2.1972  -2.1225  -1.8483  -1.6983  -1.4544
    -1.3639  -1.2986  -1.2652  -1.1705  -1.1282  -0.9193  -0.7507  -0.6874
    -0.2950  -0.2320  -0.1938   0.2989   0.8782   4.9916   5.0580   5.4558
     5.6573   5.6759   6.1198   6.3312   6.3956   6.7131   7.0919   7.1395

     occupation numbers 
     1.0000   1.0000   1.0000   1.0000   1.0000   1.0000   1.0000   1.0000
     1.0000   1.0000   1.0000   1.0000   1.0000   1.0000   1.0000   1.0000
     1.0000   1.0000   1.0000   1.0000   1.0000   1.0000   1.0000   1.0000
     1.0000   1.0000   1.0000   1.0000   1.0000   1.0000   1.0000   1.0000
     1.0000   1.0000   1.0000   1.0000   1.0000   1.0000   1.0000   1.0000
     1.0000   1.0000   1.0000   1.0000   1.0000   1.0000   1.0000   1.0000
     1.0000   1.0000   1.0000   1.0000   1.0000   0.0000   0.0000   0.0000
     0.0000   0.0000   0.0000   0.0000   0.0000   0.0000   0.0000   0.0000

          k =-0.5072 0.2979 0.4477 ( 41048 PWs)   bands (ev):

   -70.8804 -59.1455 -42.2556 -42.2489 -42.2406 -33.0369 -33.0054 -33.0029
   -28.4846 -17.6637 -17.2456 -15.5908 -15.5329 -15.4886 -15.4698 -15.3987
   -15.2804 -11.9393 -11.9339 -11.9136  -5.7623  -5.7031  -5.3375  -5.0881
    -4.3063  -4.2982  -4.2372  -4.1894  -2.9673  -2.6870  -2.6268  -2.5077
    -2.4345  -2.3597  -2.2651  -2.1813  -2.1571  -1.7559  -1.7074  -1.5354
    -1.4525  -1.3561  -1.2692  -1.2045  -0.9782  -0.8858  -0.7266  -0.6905
    -0.3009  -0.1965  -0.1575   0.3096   0.8813   4.9643   5.0455   5.4485
     5.6848   5.8013   6.2485   6.4163   6.5071   6.7704   6.9932   7.0315

     occupation numbers 
     1.0000   1.0000   1.0000   1.0000   1.0000   1.0000   1.0000   1.0000
     1.0000   1.0000   1.0000   1.0000   1.0000   1.0000   1.0000   1.0000
     1.0000   1.0000   1.0000   1.0000   1.0000   1.0000   1.0000   1.0000
     1.0000   1.0000   1.0000   1.0000   1.0000   1.0000   1.0000   1.0000
     1.0000   1.0000   1.0000   1.0000   1.0000   1.0000   1.0000   1.0000
     1.0000   1.0000   1.0000   1.0000   1.0000   1.0000   1.0000   1.0000
     1.0000   1.0000   1.0000   1.0000   1.0000   0.0000   0.0000   0.0000
     0.0000   0.0000   0.0000   0.0000   0.0000   0.0000   0.0000   0.0000

          k =-0.5093 0.2974 0.6899 ( 41034 PWs)   bands (ev):

   -70.8804 -59.1455 -42.2556 -42.2489 -42.2406 -33.0369 -33.0054 -33.0029
   -28.4846 -17.6632 -17.2459 -15.5858 -15.5236 -15.5060 -15.4742 -15.3949
   -15.2774 -11.9393 -11.9330 -11.9138  -5.8065  -5.7287  -5.3141  -4.9831
    -4.2991  -4.2697  -4.2377  -4.1938  -2.9547  -2.7423  -2.7050  -2.4896
    -2.4604  -2.3312  -2.2851  -2.2037  -2.1722  -1.8046  -1.7146  -1.5709
    -1.4931  -1.4135  -1.3348  -1.1423  -0.9211  -0.7986  -0.7156  -0.6193
    -0.4402  -0.1242  -0.0472   0.3217   0.8861   4.9219   5.0280   5.3240
     6.0589   6.1601   6.3982   6.5455   6.6296   6.7655   6.8144   6.8730

     occupation numbers 
     1.0000   1.0000   1.0000   1.0000   1.0000   1.0000   1.0000   1.0000
     1.0000   1.0000   1.0000   1.0000   1.0000   1.0000   1.0000   1.0000
     1.0000   1.0000   1.0000   1.0000   1.0000   1.0000   1.0000   1.0000
     1.0000   1.0000   1.0000   1.0000   1.0000   1.0000   1.0000   1.0000
     1.0000   1.0000   1.0000   1.0000   1.0000   1.0000   1.0000   1.0000
     1.0000   1.0000   1.0000   1.0000   1.0000   1.0000   1.0000   1.0000
     1.0000   1.0000   1.0000   1.0000   1.0000   0.0000   0.0000   0.0000
     0.0000   0.0000   0.0000   0.0000   0.0000   0.0000   0.0000   0.0000

          k =-0.5066 0.4943 0.1377 ( 41074 PWs)   bands (ev):

   -70.8804 -59.1455 -42.2556 -42.2489 -42.2406 -33.0369 -33.0054 -33.0029
   -28.4846 -17.6634 -17.2461 -15.6010 -15.5277 -15.4836 -15.4600 -15.4048
   -15.2839 -11.9389 -11.9344 -11.9137  -5.7723  -5.6758  -5.2836  -5.1720
    -4.3354  -4.2914  -4.2419  -4.1757  -2.9719  -2.6693  -2.6472  -2.5133
    -2.4196  -2.3369  -2.2318  -2.1861  -2.1141  -1.8157  -1.6903  -1.5122
    -1.4613  -1.3485  -1.2792  -1.1839  -0.9884  -0.9254  -0.7265  -0.6898
    -0.2984  -0.2110  -0.1391   0.2832   0.8866   4.9768   5.0419   5.4328
     5.6730   5.7749   6.2147   6.4297   6.4528   6.7541   6.9768   7.0716

     occupation numbers 
     1.0000   1.0000   1.0000   1.0000   1.0000   1.0000   1.0000   1.0000
     1.0000   1.0000   1.0000   1.0000   1.0000   1.0000   1.0000   1.0000
     1.0000   1.0000   1.0000   1.0000   1.0000   1.0000   1.0000   1.0000
     1.0000   1.0000   1.0000   1.0000   1.0000   1.0000   1.0000   1.0000
     1.0000   1.0000   1.0000   1.0000   1.0000   1.0000   1.0000   1.0000
     1.0000   1.0000   1.0000   1.0000   1.0000   1.0000   1.0000   1.0000
     1.0000   1.0000   1.0000   1.0000   1.0000   0.0000   0.0000   0.0000
     0.0000   0.0000   0.0000   0.0000   0.0000   0.0000   0.0000   0.0000

          k =-0.5087 0.4937 0.3800 ( 41061 PWs)   bands (ev):

   -70.8804 -59.1455 -42.2556 -42.2489 -42.2406 -33.0369 -33.0054 -33.0029
   -28.4846 -17.6633 -17.2465 -15.5981 -15.5334 -15.4772 -15.4688 -15.4013
   -15.2811 -11.9394 -11.9342 -11.9139  -5.8214  -5.6911  -5.2841  -5.0897
    -4.3171  -4.2883  -4.2475  -4.1871  -3.0332  -2.6840  -2.6257  -2.5576
    -2.4104  -2.3258  -2.2722  -2.1454  -2.0914  -1.7335  -1.6992  -1.5519
    -1.4379  -1.3379  -1.2248  -1.1407  -1.0378  -0.9385  -0.7285  -0.6799
    -0.2890  -0.2312  -0.2072   0.2873   0.8924   4.9813   5.0317   5.4744
     5.6114   5.6544   6.2258   6.4721   6.5513   6.6451   6.8928   6.9615

     occupation numbers 
     1.0000   1.0000   1.0000   1.0000   1.0000   1.0000   1.0000   1.0000
     1.0000   1.0000   1.0000   1.0000   1.0000   1.0000   1.0000   1.0000
     1.0000   1.0000   1.0000   1.0000   1.0000   1.0000   1.0000   1.0000
     1.0000   1.0000   1.0000   1.0000   1.0000   1.0000   1.0000   1.0000
     1.0000   1.0000   1.0000   1.0000   1.0000   1.0000   1.0000   1.0000
     1.0000   1.0000   1.0000   1.0000   1.0000   1.0000   1.0000   1.0000
     1.0000   1.0000   1.0000   1.0000   1.0000   0.0000   0.0000   0.0000
     0.0000   0.0000   0.0000   0.0000   0.0000   0.0000   0.0000   0.0000

          k =-0.5108 0.4932 0.6222 ( 41062 PWs)   bands (ev):

   -70.8804 -59.1455 -42.2556 -42.2489 -42.2406 -33.0369 -33.0054 -33.0029
   -28.4846 -17.6628 -17.2469 -15.5902 -15.5363 -15.4858 -15.4734 -15.3968
   -15.2778 -11.9395 -11.9335 -11.9141  -5.8206  -5.7224  -5.3105  -5.0066
    -4.2959  -4.2727  -4.2429  -4.1973  -3.0056  -2.7202  -2.6741  -2.4929
    -2.4344  -2.3876  -2.2509  -2.1926  -2.1219  -1.7845  -1.6797  -1.5102
    -1.4995  -1.3532  -1.3042  -1.1619  -0.9443  -0.8658  -0.7050  -0.6862
    -0.3742  -0.1639  -0.1274   0.3012   0.8963   4.9465   5.0304   5.3763
     5.7850   5.8748   6.2960   6.4757   6.6172   6.7469   6.8529   6.9279

     occupation numbers 
     1.0000   1.0000   1.0000   1.0000   1.0000   1.0000   1.0000   1.0000
     1.0000   1.0000   1.0000   1.0000   1.0000   1.0000   1.0000   1.0000
     1.0000   1.0000   1.0000   1.0000   1.0000   1.0000   1.0000   1.0000
     1.0000   1.0000   1.0000   1.0000   1.0000   1.0000   1.0000   1.0000
     1.0000   1.0000   1.0000   1.0000   1.0000   1.0000   1.0000   1.0000
     1.0000   1.0000   1.0000   1.0000   1.0000   1.0000   1.0000   1.0000
     1.0000   1.0000   1.0000   1.0000   1.0000   0.0000   0.0000   0.0000
     0.0000   0.0000   0.0000   0.0000   0.0000   0.0000   0.0000   0.0000

          k =-0.5023 0.4954-0.3467 ( 41032 PWs)   bands (ev):

   -70.8804 -59.1455 -42.2556 -42.2489 -42.2406 -33.0369 -33.0054 -33.0029
   -28.4846 -17.6627 -17.2467 -15.5894 -15.5269 -15.5024 -15.4673 -15.3970
   -15.2785 -11.9390 -11.9331 -11.9141  -5.7680  -5.7281  -5.3517  -5.0149
    -4.2905  -4.2741  -4.2359  -4.1912  -2.9000  -2.7520  -2.6936  -2.5185
    -2.4830  -2.3361  -2.2252  -2.2193  -2.1474  -1.8363  -1.6897  -1.6047
    -1.4838  -1.4042  -1.3024  -1.1770  -1.0205  -0.7661  -0.6976  -0.6262
    -0.3752  -0.1639  -0.0281   0.3045   0.8932   4.9253   5.0350   5.3730
     5.8369   6.2237   6.4464   6.5471   6.6435   6.7396   6.7983   6.9254

     occupation numbers 
     1.0000   1.0000   1.0000   1.0000   1.0000   1.0000   1.0000   1.0000
     1.0000   1.0000   1.0000   1.0000   1.0000   1.0000   1.0000   1.0000
     1.0000   1.0000   1.0000   1.0000   1.0000   1.0000   1.0000   1.0000
     1.0000   1.0000   1.0000   1.0000   1.0000   1.0000   1.0000   1.0000
     1.0000   1.0000   1.0000   1.0000   1.0000   1.0000   1.0000   1.0000
     1.0000   1.0000   1.0000   1.0000   1.0000   1.0000   1.0000   1.0000
     1.0000   1.0000   1.0000   1.0000   1.0000   0.0000   0.0000   0.0000
     0.0000   0.0000   0.0000   0.0000   0.0000   0.0000   0.0000   0.0000

          k =-0.5045 0.4948-0.1045 ( 41066 PWs)   bands (ev):

   -70.8804 -59.1455 -42.2556 -42.2489 -42.2406 -33.0369 -33.0054 -33.0029
   -28.4846 -17.6630 -17.2462 -15.5965 -15.5196 -15.5013 -15.4606 -15.4016
   -15.2822 -11.9386 -11.9337 -11.9138  -5.7289  -5.7018  -5.3637  -5.0949
    -4.3169  -4.2873  -4.2346  -4.1752  -2.8761  -2.7263  -2.6472  -2.5432
    -2.4907  -2.3092  -2.2534  -2.1901  -2.1442  -1.7792  -1.7008  -1.6110
    -1.5218  -1.3840  -1.2781  -1.1986  -1.0803  -0.7937  -0.6677  -0.6654
    -0.2507  -0.2404  -0.0529   0.2971   0.8872   4.9403   5.0441   5.4978
     5.6056   6.0823   6.4421   6.5285   6.5850   6.8307   6.8991   6.9645

     occupation numbers 
     1.0000   1.0000   1.0000   1.0000   1.0000   1.0000   1.0000   1.0000
     1.0000   1.0000   1.0000   1.0000   1.0000   1.0000   1.0000   1.0000
     1.0000   1.0000   1.0000   1.0000   1.0000   1.0000   1.0000   1.0000
     1.0000   1.0000   1.0000   1.0000   1.0000   1.0000   1.0000   1.0000
     1.0000   1.0000   1.0000   1.0000   1.0000   1.0000   1.0000   1.0000
     1.0000   1.0000   1.0000   1.0000   1.0000   1.0000   1.0000   1.0000
     1.0000   1.0000   1.0000   1.0000   1.0000   0.0000   0.0000   0.0000
     0.0000   0.0000   0.0000   0.0000   0.0000   0.0000   0.0000   0.0000

          k =-0.5081 0.6901 0.0700 ( 41124 PWs)   bands (ev):

   -70.8804 -59.1455 -42.2556 -42.2489 -42.2406 -33.0369 -33.0054 -33.0029
   -28.4846 -17.6622 -17.2476 -15.6120 -15.5184 -15.4798 -15.4505 -15.4132
   -15.2871 -11.9380 -11.9343 -11.9141  -5.8330  -5.6573  -5.2317  -5.1334
    -4.3572  -4.2784  -4.2535  -4.1484  -2.9595  -2.7426  -2.7006  -2.4993
    -2.3952  -2.3283  -2.2353  -2.2223  -2.1037  -1.7704  -1.6626  -1.6126
    -1.5000  -1.4550  -1.3662  -1.1218  -1.0070  -0.7949  -0.6986  -0.6308
    -0.4203  -0.1093  -0.0352   0.2490   0.9017   4.9455   5.0137   5.3164
     5.9257   6.0396   6.3575   6.5427   6.6459   6.8104   6.8540   6.8847

     occupation numbers 
     1.0000   1.0000   1.0000   1.0000   1.0000   1.0000   1.0000   1.0000
     1.0000   1.0000   1.0000   1.0000   1.0000   1.0000   1.0000   1.0000
     1.0000   1.0000   1.0000   1.0000   1.0000   1.0000   1.0000   1.0000
     1.0000   1.0000   1.0000   1.0000   1.0000   1.0000   1.0000   1.0000
     1.0000   1.0000   1.0000   1.0000   1.0000   1.0000   1.0000   1.0000
     1.0000   1.0000   1.0000   1.0000   1.0000   1.0000   1.0000   1.0000
     1.0000   1.0000   1.0000   1.0000   1.0000   0.0000   0.0000   0.0000
     0.0000   0.0000   0.0000   0.0000   0.0000   0.0000   0.0000   0.0000

          k =-0.5102 0.6895 0.3122 ( 41077 PWs)   bands (ev):

   -70.8804 -59.1455 -42.2556 -42.2489 -42.2406 -33.0369 -33.0054 -33.0029
   -28.4846 -17.6622 -17.2481 -15.6080 -15.5299 -15.4729 -15.4564 -15.4082
   -15.2838 -11.9389 -11.9345 -11.9143  -5.8482  -5.6772  -5.2572  -5.0966
    -4.3223  -4.2793  -4.2601  -4.1730  -3.0337  -2.7228  -2.6685  -2.5102
    -2.3997  -2.3360  -2.2434  -2.1668  -2.0527  -1.7413  -1.7189  -1.5853
    -1.4612  -1.3191  -1.2520  -1.1555  -1.0141  -0.9014  -0.7327  -0.6702
    -0.3463  -0.2000  -0.1298   0.2515   0.9085   4.9774   5.0137   5.3866
     5.6547   5.7853   6.2597   6.4865   6.5920   6.6799   6.8623   6.9019

     occupation numbers 
     1.0000   1.0000   1.0000   1.0000   1.0000   1.0000   1.0000   1.0000
     1.0000   1.0000   1.0000   1.0000   1.0000   1.0000   1.0000   1.0000
     1.0000   1.0000   1.0000   1.0000   1.0000   1.0000   1.0000   1.0000
     1.0000   1.0000   1.0000   1.0000   1.0000   1.0000   1.0000   1.0000
     1.0000   1.0000   1.0000   1.0000   1.0000   1.0000   1.0000   1.0000
     1.0000   1.0000   1.0000   1.0000   1.0000   1.0000   1.0000   1.0000
     1.0000   1.0000   1.0000   1.0000   1.0000   0.0000   0.0000   0.0000
     0.0000   0.0000   0.0000   0.0000   0.0000   0.0000   0.0000   0.0000

          k =-0.5123 0.6890 0.5544 ( 41046 PWs)   bands (ev):

   -70.8804 -59.1455 -42.2556 -42.2489 -42.2406 -33.0369 -33.0054 -33.0029
   -28.4846 -17.6619 -17.2486 -15.5971 -15.5440 -15.4698 -15.4664 -15.4013
   -15.2795 -11.9395 -11.9341 -11.9145  -5.8050  -5.7091  -5.3383  -5.0627
    -4.2861  -4.2718  -4.2527  -4.2008  -3.0161  -2.7213  -2.6264  -2.5478
    -2.3925  -2.3475  -2.2401  -2.1498  -2.0787  -1.8074  -1.7147  -1.4696
    -1.4229  -1.3157  -1.2101  -1.1467  -1.0552  -0.9611  -0.7421  -0.6720
    -0.2829  -0.2418  -0.2004   0.2637   0.9130   4.9766   5.0384   5.4564
     5.6296   5.6506   6.1941   6.3323   6.4609   6.6638   6.9980   7.1054

     occupation numbers 
     1.0000   1.0000   1.0000   1.0000   1.0000   1.0000   1.0000   1.0000
     1.0000   1.0000   1.0000   1.0000   1.0000   1.0000   1.0000   1.0000
     1.0000   1.0000   1.0000   1.0000   1.0000   1.0000   1.0000   1.0000
     1.0000   1.0000   1.0000   1.0000   1.0000   1.0000   1.0000   1.0000
     1.0000   1.0000   1.0000   1.0000   1.0000   1.0000   1.0000   1.0000
     1.0000   1.0000   1.0000   1.0000   1.0000   1.0000   1.0000   1.0000
     1.0000   1.0000   1.0000   1.0000   1.0000   0.0000   0.0000   0.0000
     0.0000   0.0000   0.0000   0.0000   0.0000   0.0000   0.0000   0.0000

          k =-0.5039 0.6912-0.4144 ( 41071 PWs)   bands (ev):

   -70.8804 -59.1455 -42.2556 -42.2489 -42.2406 -33.0369 -33.0054 -33.0029
   -28.4846 -17.6618 -17.2484 -15.5962 -15.5400 -15.4819 -15.4595 -15.4015
   -15.2802 -11.9390 -11.9338 -11.9145  -5.7515  -5.7075  -5.3920  -5.0649
    -4.2904  -4.2699  -4.2438  -4.1928  -2.9269  -2.7425  -2.6369  -2.5084
    -2.4589  -2.3389  -2.2453  -2.1771  -2.1204  -1.8222  -1.7181  -1.5519
    -1.4417  -1.2947  -1.2605  -1.2048  -1.0969  -0.8456  -0.7090  -0.6687
    -0.2712  -0.2466  -0.0842   0.2660   0.9099   4.9527   5.0459   5.4709
     5.6085   5.8964   6.2641   6.4044   6.4750   6.8483   6.9437   7.0782

     occupation numbers 
     1.0000   1.0000   1.0000   1.0000   1.0000   1.0000   1.0000   1.0000
     1.0000   1.0000   1.0000   1.0000   1.0000   1.0000   1.0000   1.0000
     1.0000   1.0000   1.0000   1.0000   1.0000   1.0000   1.0000   1.0000
     1.0000   1.0000   1.0000   1.0000   1.0000   1.0000   1.0000   1.0000
     1.0000   1.0000   1.0000   1.0000   1.0000   1.0000   1.0000   1.0000
     1.0000   1.0000   1.0000   1.0000   1.0000   1.0000   1.0000   1.0000
     1.0000   1.0000   1.0000   1.0000   1.0000   0.0000   0.0000   0.0000
     0.0000   0.0000   0.0000   0.0000   0.0000   0.0000   0.0000   0.0000

          k =-0.5060 0.6906-0.1722 ( 41096 PWs)   bands (ev):

   -70.8804 -59.1455 -42.2556 -42.2489 -42.2406 -33.0369 -33.0054 -33.0029
   -28.4846 -17.6619 -17.2478 -15.6065 -15.5207 -15.4886 -15.4523 -15.4082
   -15.2849 -11.9381 -11.9339 -11.9142  -5.7779  -5.6751  -5.3262  -5.1017
    -4.3309  -4.2753  -4.2466  -4.1570  -2.8766  -2.7344  -2.7198  -2.5276
    -2.4641  -2.2745  -2.2416  -2.1961  -2.1482  -1.7836  -1.6957  -1.6102
    -1.5384  -1.4201  -1.3294  -1.1415  -1.1111  -0.7467  -0.6951  -0.6119
    -0.3523  -0.1583  -0.0023   0.2586   0.9028   4.9323   5.0310   5.3906
     5.7332   6.2783   6.4914   6.5827   6.6368   6.7246   6.7673   6.9214

     occupation numbers 
     1.0000   1.0000   1.0000   1.0000   1.0000   1.0000   1.0000   1.0000
     1.0000   1.0000   1.0000   1.0000   1.0000   1.0000   1.0000   1.0000
     1.0000   1.0000   1.0000   1.0000   1.0000   1.0000   1.0000   1.0000
     1.0000   1.0000   1.0000   1.0000   1.0000   1.0000   1.0000   1.0000
     1.0000   1.0000   1.0000   1.0000   1.0000   1.0000   1.0000   1.0000
     1.0000   1.0000   1.0000   1.0000   1.0000   1.0000   1.0000   1.0000
     1.0000   1.0000   1.0000   1.0000   1.0000   0.0000   0.0000   0.0000
     0.0000   0.0000   0.0000   0.0000   0.0000   0.0000   0.0000   0.0000

          k =-0.5005-0.2890 0.4087 ( 41084 PWs)   bands (ev):

   -70.8804 -59.1455 -42.2556 -42.2489 -42.2406 -33.0369 -33.0054 -33.0029
   -28.4846 -17.6616 -17.2483 -15.6165 -15.5170 -15.4727 -15.4471 -15.4190
   -15.2888 -11.9376 -11.9343 -11.9143  -5.8570  -5.6495  -5.2298  -5.0917
    -4.3666  -4.2737  -4.2623  -4.1336  -2.9656  -2.7733  -2.7169  -2.4904
    -2.4030  -2.2997  -2.2189  -2.2018  -2.1719  -1.7438  -1.6847  -1.6171
    -1.5167  -1.4774  -1.4381  -1.0541  -1.0196  -0.7651  -0.6897  -0.5797
    -0.4968  -0.0673   0.0183   0.2277   0.9085   4.9291   5.0010   5.2644
     6.2685   6.2887   6.3144   6.5242   6.6301   6.7488   6.7947   6.9315

     occupation numbers 
     1.0000   1.0000   1.0000   1.0000   1.0000   1.0000   1.0000   1.0000
     1.0000   1.0000   1.0000   1.0000   1.0000   1.0000   1.0000   1.0000
     1.0000   1.0000   1.0000   1.0000   1.0000   1.0000   1.0000   1.0000
     1.0000   1.0000   1.0000   1.0000   1.0000   1.0000   1.0000   1.0000
     1.0000   1.0000   1.0000   1.0000   1.0000   1.0000   1.0000   1.0000
     1.0000   1.0000   1.0000   1.0000   1.0000   1.0000   1.0000   1.0000
     1.0000   1.0000   1.0000   1.0000   1.0000   0.0000   0.0000   0.0000
     0.0000   0.0000   0.0000   0.0000   0.0000   0.0000   0.0000   0.0000

          k =-0.5026-0.2895 0.6509 ( 41113 PWs)   bands (ev):

   -70.8804 -59.1455 -42.2556 -42.2489 -42.2406 -33.0369 -33.0054 -33.0029
   -28.4846 -17.6615 -17.2487 -15.6113 -15.5267 -15.4734 -15.4503 -15.4125
   -15.2857 -11.9382 -11.9343 -11.9145  -5.8300  -5.6687  -5.2755  -5.1013
    -4.3291  -4.2737  -4.2617  -4.1571  -2.9710  -2.7322  -2.7116  -2.4779
    -2.4125  -2.3261  -2.2211  -2.2050  -2.1184  -1.7786  -1.7208  -1.5752
    -1.4615  -1.4056  -1.3388  -1.1199  -1.0473  -0.7964  -0.7146  -0.6401
    -0.4127  -0.1236  -0.0454   0.2350   0.9132   4.9502   5.0165   5.3269
     5.8385   5.9968   6.3372   6.4827   6.5196   6.8367   6.8745   6.9640

     occupation numbers 
     1.0000   1.0000   1.0000   1.0000   1.0000   1.0000   1.0000   1.0000
     1.0000   1.0000   1.0000   1.0000   1.0000   1.0000   1.0000   1.0000
     1.0000   1.0000   1.0000   1.0000   1.0000   1.0000   1.0000   1.0000
     1.0000   1.0000   1.0000   1.0000   1.0000   1.0000   1.0000   1.0000
     1.0000   1.0000   1.0000   1.0000   1.0000   1.0000   1.0000   1.0000
     1.0000   1.0000   1.0000   1.0000   1.0000   1.0000   1.0000   1.0000
     1.0000   1.0000   1.0000   1.0000   1.0000   0.0000   0.0000   0.0000
     0.0000   0.0000   0.0000   0.0000   0.0000   0.0000   0.0000   0.0000

          k =-0.5048-0.2901 0.8931 ( 41058 PWs)   bands (ev):

   -70.8804 -59.1455 -42.2556 -42.2489 -42.2406 -33.0369 -33.0054 -33.0029
   -28.4846 -17.6614 -17.2494 -15.5997 -15.5458 -15.4690 -15.4583 -15.4042
   -15.2808 -11.9393 -11.9343 -11.9147  -5.7734  -5.6966  -5.3815  -5.0894
    -4.2857  -4.2660  -4.2570  -4.1992  -2.9859  -2.7176  -2.6417  -2.5150
    -2.3990  -2.3325  -2.1964  -2.1431  -2.1252  -1.8634  -1.7216  -1.4498
    -1.3787  -1.2922  -1.2244  -1.1822  -1.0798  -0.9517  -0.7528  -0.6741
    -0.3028  -0.2260  -0.1719   0.2461   0.9196   4.9792   5.0470   5.4355
     5.6074   5.7177   6.1582   6.3107   6.3547   6.7043   7.0541   7.1909

     occupation numbers 
     1.0000   1.0000   1.0000   1.0000   1.0000   1.0000   1.0000   1.0000
     1.0000   1.0000   1.0000   1.0000   1.0000   1.0000   1.0000   1.0000
     1.0000   1.0000   1.0000   1.0000   1.0000   1.0000   1.0000   1.0000
     1.0000   1.0000   1.0000   1.0000   1.0000   1.0000   1.0000   1.0000
     1.0000   1.0000   1.0000   1.0000   1.0000   1.0000   1.0000   1.0000
     1.0000   1.0000   1.0000   1.0000   1.0000   1.0000   1.0000   1.0000
     1.0000   1.0000   1.0000   1.0000   1.0000   0.0000   0.0000   0.0000
     0.0000   0.0000   0.0000   0.0000   0.0000   0.0000   0.0000   0.0000

 ------ SPIN DOWN ----------


          k = 0.0000 0.0000 0.0000 ( 40973 PWs)   bands (ev):

   -67.9398 -61.6959 -39.2843 -39.2631 -39.2583 -35.5821 -35.5722 -35.5655
   -28.4850 -17.6704 -17.2397 -15.5994 -15.5002 -15.4354 -15.4095 -15.3587
   -15.2395 -11.9412 -11.9362 -11.9162  -6.1713  -5.6954  -5.2085  -4.4484
    -4.3573  -4.3354  -4.2319  -4.1595  -3.8228  -2.6561  -2.5519  -2.4571
    -2.1053  -2.0824  -1.8424  -1.7866  -1.7436  -1.5380  -1.5118  -1.3488
    -1.2763  -1.2481  -1.1974  -1.0887  -1.0741  -0.9249  -0.7685  -0.7003
     0.1440   0.9099   1.4372   1.4619   1.4963   4.3274   4.3506   4.3803
     5.8620   6.1058   6.1749   6.2631   6.2980   6.3504   6.8902   7.0170

     occupation numbers 
     1.0000   1.0000   1.0000   1.0000   1.0000   1.0000   1.0000   1.0000
     1.0000   1.0000   1.0000   1.0000   1.0000   1.0000   1.0000   1.0000
     1.0000   1.0000   1.0000   1.0000   1.0000   1.0000   1.0000   1.0000
     1.0000   1.0000   1.0000   1.0000   1.0000   1.0000   1.0000   1.0000
     1.0000   1.0000   1.0000   1.0000   1.0000   1.0000   1.0000   1.0000
     1.0000   1.0000   1.0000   1.0000   1.0000   1.0000   1.0000   1.0000
     1.0000   1.0000   1.0000   1.0000   1.0000   0.0000   0.0000   0.0000
     0.0000   0.0000   0.0000   0.0000   0.0000   0.0000   0.0000   0.0000

          k =-0.0021-0.0006 0.2422 ( 41033 PWs)   bands (ev):

   -67.9398 -61.6959 -39.2843 -39.2631 -39.2583 -35.5821 -35.5722 -35.5655
   -28.4849 -17.6677 -17.2434 -15.5897 -15.5030 -15.4350 -15.4130 -15.3611
   -15.2411 -11.9406 -11.9357 -11.9157  -6.0743  -5.7026  -5.2062  -4.7749
    -4.3539  -4.3431  -4.2236  -4.1605  -3.4650  -2.6385  -2.5150  -2.4399
    -2.1798  -2.1121  -1.9291  -1.7820  -1.7273  -1.6375  -1.5806  -1.3719
    -1.3263  -1.2655  -1.2059  -1.0873  -1.0426  -0.9230  -0.7918  -0.6625
     0.1740   0.9074   1.5420   1.5745   1.5930   4.2209   4.2706   4.2899
     6.0493   6.1284   6.1811   6.3919   6.4720   6.5202   6.8447   6.9522

     occupation numbers 
     1.0000   1.0000   1.0000   1.0000   1.0000   1.0000   1.0000   1.0000
     1.0000   1.0000   1.0000   1.0000   1.0000   1.0000   1.0000   1.0000
     1.0000   1.0000   1.0000   1.0000   1.0000   1.0000   1.0000   1.0000
     1.0000   1.0000   1.0000   1.0000   1.0000   1.0000   1.0000   1.0000
     1.0000   1.0000   1.0000   1.0000   1.0000   1.0000   1.0000   1.0000
     1.0000   1.0000   1.0000   1.0000   1.0000   1.0000   1.0000   1.0000
     1.0000   1.0000   1.0000   1.0000   1.0000   0.0000   0.0000   0.0000
     0.0000   0.0000   0.0000   0.0000   0.0000   0.0000   0.0000   0.0000

          k =-0.0042-0.0011 0.4844 ( 41045 PWs)   bands (ev):

   -67.9398 -61.6959 -39.2843 -39.2631 -39.2583 -35.5821 -35.5722 -35.5655
   -28.4849 -17.6632 -17.2495 -15.5688 -15.5137 -15.4314 -15.4214 -15.3643
   -15.2439 -11.9398 -11.9346 -11.9150  -5.8114  -5.7043  -5.3730  -5.0898
    -4.3422  -4.3110  -4.2068  -4.1627  -3.0161  -2.6763  -2.4791  -2.3681
    -2.2521  -2.1705  -1.9643  -1.8921  -1.8046  -1.7644  -1.7223  -1.4824
    -1.3293  -1.2020  -1.1508  -1.1215  -1.0516  -0.9545  -0.7783  -0.6311
     0.2216   0.8952   1.7203   1.7583   1.7655   4.0271   4.1292   4.1511
     6.3049   6.3563   6.4248   6.5815   6.6155   6.6826   6.8340   6.8765

     occupation numbers 
     1.0000   1.0000   1.0000   1.0000   1.0000   1.0000   1.0000   1.0000
     1.0000   1.0000   1.0000   1.0000   1.0000   1.0000   1.0000   1.0000
     1.0000   1.0000   1.0000   1.0000   1.0000   1.0000   1.0000   1.0000
     1.0000   1.0000   1.0000   1.0000   1.0000   1.0000   1.0000   1.0000
     1.0000   1.0000   1.0000   1.0000   1.0000   1.0000   1.0000   1.0000
     1.0000   1.0000   1.0000   1.0000   1.0000   1.0000   1.0000   1.0000
     1.0000   1.0000   1.0000   1.0000   1.0000   0.0000   0.0000   0.0000
     0.0000   0.0000   0.0000   0.0000   0.0000   0.0000   0.0000   0.0000

          k =-0.0015 0.1958-0.0677 ( 41019 PWs)   bands (ev):

   -67.9398 -61.6959 -39.2843 -39.2631 -39.2583 -35.5821 -35.5722 -35.5655
   -28.4849 -17.6691 -17.2414 -15.5918 -15.4985 -15.4386 -15.4134 -15.3601
   -15.2413 -11.9407 -11.9358 -11.9156  -6.1014  -5.6896  -5.2115  -4.6571
    -4.4322  -4.3286  -4.2356  -4.1555  -3.5286  -2.6328  -2.5477  -2.4269
    -2.1708  -2.1077  -1.8970  -1.7964  -1.7277  -1.5726  -1.5122  -1.4273
    -1.3121  -1.2683  -1.2229  -1.1088  -1.0628  -0.8746  -0.8004  -0.6797
     0.1764   0.9001   1.5193   1.5427   1.5660   4.2567   4.2911   4.3236
     6.0027   6.1262   6.1642   6.3718   6.4343   6.4673   6.8674   6.9712

     occupation numbers 
     1.0000   1.0000   1.0000   1.0000   1.0000   1.0000   1.0000   1.0000
     1.0000   1.0000   1.0000   1.0000   1.0000   1.0000   1.0000   1.0000
     1.0000   1.0000   1.0000   1.0000   1.0000   1.0000   1.0000   1.0000
     1.0000   1.0000   1.0000   1.0000   1.0000   1.0000   1.0000   1.0000
     1.0000   1.0000   1.0000   1.0000   1.0000   1.0000   1.0000   1.0000
     1.0000   1.0000   1.0000   1.0000   1.0000   1.0000   1.0000   1.0000
     1.0000   1.0000   1.0000   1.0000   1.0000   0.0000   0.0000   0.0000
     0.0000   0.0000   0.0000   0.0000   0.0000   0.0000   0.0000   0.0000

          k =-0.0036 0.1953 0.1745 ( 41032 PWs)   bands (ev):

   -67.9398 -61.6959 -39.2843 -39.2631 -39.2583 -35.5821 -35.5722 -35.5655
   -28.4849 -17.6666 -17.2451 -15.5841 -15.5012 -15.4402 -15.4138 -15.3619
   -15.2415 -11.9406 -11.9357 -11.9152  -6.0605  -5.7005  -5.2013  -4.8032
    -4.3820  -4.3100  -4.2347  -4.1638  -3.4309  -2.6110  -2.5109  -2.4613
    -2.1097  -2.0700  -2.0521  -1.7930  -1.7745  -1.6091  -1.5854  -1.4213
    -1.3999  -1.3632  -1.0854  -1.0569  -0.9914  -0.9043  -0.7583  -0.7061
     0.1963   0.8826   1.4892   1.6130   1.6402   4.2096   4.2625   4.3536
     6.0588   6.1208   6.1385   6.4459   6.4674   6.5435   6.8534   6.9461

     occupation numbers 
     1.0000   1.0000   1.0000   1.0000   1.0000   1.0000   1.0000   1.0000
     1.0000   1.0000   1.0000   1.0000   1.0000   1.0000   1.0000   1.0000
     1.0000   1.0000   1.0000   1.0000   1.0000   1.0000   1.0000   1.0000
     1.0000   1.0000   1.0000   1.0000   1.0000   1.0000   1.0000   1.0000
     1.0000   1.0000   1.0000   1.0000   1.0000   1.0000   1.0000   1.0000
     1.0000   1.0000   1.0000   1.0000   1.0000   1.0000   1.0000   1.0000
     1.0000   1.0000   1.0000   1.0000   1.0000   0.0000   0.0000   0.0000
     0.0000   0.0000   0.0000   0.0000   0.0000   0.0000   0.0000   0.0000

          k =-0.0058 0.1947 0.4167 ( 41071 PWs)   bands (ev):

   -67.9398 -61.6959 -39.2843 -39.2631 -39.2583 -35.5821 -35.5722 -35.5655
   -28.4849 -17.6621 -17.2513 -15.5645 -15.5099 -15.4385 -15.4211 -15.3651
   -15.2439 -11.9398 -11.9349 -11.9145  -5.8531  -5.7142  -5.2843  -5.0928
    -4.3503  -4.2929  -4.2237  -4.1658  -3.0689  -2.6077  -2.4831  -2.4236
    -2.2443  -2.1127  -2.0201  -1.8920  -1.8498  -1.7555  -1.7034  -1.5409
    -1.4202  -1.2931  -1.1020  -1.0134  -0.9591  -0.9113  -0.7679  -0.6491
     0.2387   0.8738   1.6126   1.7596   1.7970   4.1006   4.1828   4.2520
     6.1941   6.2650   6.4421   6.5443   6.6170   6.6795   6.8135   6.8907

     occupation numbers 
     1.0000   1.0000   1.0000   1.0000   1.0000   1.0000   1.0000   1.0000
     1.0000   1.0000   1.0000   1.0000   1.0000   1.0000   1.0000   1.0000
     1.0000   1.0000   1.0000   1.0000   1.0000   1.0000   1.0000   1.0000
     1.0000   1.0000   1.0000   1.0000   1.0000   1.0000   1.0000   1.0000
     1.0000   1.0000   1.0000   1.0000   1.0000   1.0000   1.0000   1.0000
     1.0000   1.0000   1.0000   1.0000   1.0000   1.0000   1.0000   1.0000
     1.0000   1.0000   1.0000   1.0000   1.0000   0.0000   0.0000   0.0000
     0.0000   0.0000   0.0000   0.0000   0.0000   0.0000   0.0000   0.0000

          k = 0.0027 0.1969-0.5522 ( 41065 PWs)   bands (ev):

   -67.9398 -61.6959 -39.2843 -39.2631 -39.2583 -35.5821 -35.5722 -35.5655
   -28.4849 -17.6619 -17.2513 -15.5616 -15.5107 -15.4322 -15.4291 -15.3654
   -15.2452 -11.9395 -11.9344 -11.9144  -5.7488  -5.6511  -5.4740  -5.1093
    -4.3339  -4.3096  -4.2215  -4.1600  -2.9041  -2.6776  -2.4739  -2.3619
    -2.3051  -2.2064  -1.9552  -1.9007  -1.8806  -1.7796  -1.7322  -1.5928
    -1.3714  -1.1872  -1.1553  -1.0741  -1.0094  -0.9536  -0.7396  -0.6159
     0.2463   0.8806   1.7543   1.7760   1.7943   4.0779   4.1268   4.2030
     6.3159   6.3739   6.4982   6.5279   6.6056   6.7580   6.8687   6.9062

     occupation numbers 
     1.0000   1.0000   1.0000   1.0000   1.0000   1.0000   1.0000   1.0000
     1.0000   1.0000   1.0000   1.0000   1.0000   1.0000   1.0000   1.0000
     1.0000   1.0000   1.0000   1.0000   1.0000   1.0000   1.0000   1.0000
     1.0000   1.0000   1.0000   1.0000   1.0000   1.0000   1.0000   1.0000
     1.0000   1.0000   1.0000   1.0000   1.0000   1.0000   1.0000   1.0000
     1.0000   1.0000   1.0000   1.0000   1.0000   1.0000   1.0000   1.0000
     1.0000   1.0000   1.0000   1.0000   1.0000   0.0000   0.0000   0.0000
     0.0000   0.0000   0.0000   0.0000   0.0000   0.0000   0.0000   0.0000

          k = 0.0006 0.1964-0.3100 ( 41085 PWs)   bands (ev):

   -67.9398 -61.6959 -39.2843 -39.2631 -39.2583 -35.5821 -35.5722 -35.5655
   -28.4849 -17.6663 -17.2451 -15.5811 -15.5007 -15.4363 -15.4202 -15.3627
   -15.2435 -11.9400 -11.9350 -11.9151  -5.9680  -5.6931  -5.2299  -4.9611
    -4.3739  -4.3282  -4.2344  -4.1531  -3.2267  -2.6249  -2.5001  -2.3839
    -2.2722  -2.2070  -1.8973  -1.8017  -1.7598  -1.6951  -1.6473  -1.4687
    -1.3844  -1.2060  -1.1619  -1.1169  -1.0646  -0.9371  -0.7699  -0.6318
     0.2073   0.8995   1.6039   1.6367   1.7422   4.1398   4.2020   4.2864
     6.1636   6.2097   6.3066   6.4818   6.5776   6.6075   6.7632   6.9433

     occupation numbers 
     1.0000   1.0000   1.0000   1.0000   1.0000   1.0000   1.0000   1.0000
     1.0000   1.0000   1.0000   1.0000   1.0000   1.0000   1.0000   1.0000
     1.0000   1.0000   1.0000   1.0000   1.0000   1.0000   1.0000   1.0000
     1.0000   1.0000   1.0000   1.0000   1.0000   1.0000   1.0000   1.0000
     1.0000   1.0000   1.0000   1.0000   1.0000   1.0000   1.0000   1.0000
     1.0000   1.0000   1.0000   1.0000   1.0000   1.0000   1.0000   1.0000
     1.0000   1.0000   1.0000   1.0000   1.0000   0.0000   0.0000   0.0000
     0.0000   0.0000   0.0000   0.0000   0.0000   0.0000   0.0000   0.0000

          k =-0.0030 0.3916-0.1355 ( 41068 PWs)   bands (ev):

   -67.9398 -61.6959 -39.2843 -39.2631 -39.2583 -35.5821 -35.5722 -35.5655
   -28.4849 -17.6665 -17.2447 -15.5731 -15.4988 -15.4432 -15.4236 -15.3623
   -15.2448 -11.9399 -11.9350 -11.9143  -5.9037  -5.6757  -5.2367  -5.0812
    -4.3971  -4.3037  -4.2448  -4.1448  -3.1289  -2.6170  -2.5275  -2.3764
    -2.2455  -2.1652  -1.9408  -1.8451  -1.7745  -1.7042  -1.6530  -1.4313
    -1.3859  -1.2835  -1.1885  -1.1328  -1.0694  -0.8923  -0.7824  -0.6497
     0.2362   0.8736   1.6870   1.7060   1.7175   4.0907   4.1779   4.2107
     6.2550   6.2696   6.3194   6.5760   6.6460   6.6765   6.8146   6.8799

     occupation numbers 
     1.0000   1.0000   1.0000   1.0000   1.0000   1.0000   1.0000   1.0000
     1.0000   1.0000   1.0000   1.0000   1.0000   1.0000   1.0000   1.0000
     1.0000   1.0000   1.0000   1.0000   1.0000   1.0000   1.0000   1.0000
     1.0000   1.0000   1.0000   1.0000   1.0000   1.0000   1.0000   1.0000
     1.0000   1.0000   1.0000   1.0000   1.0000   1.0000   1.0000   1.0000
     1.0000   1.0000   1.0000   1.0000   1.0000   1.0000   1.0000   1.0000
     1.0000   1.0000   1.0000   1.0000   1.0000   0.0000   0.0000   0.0000
     0.0000   0.0000   0.0000   0.0000   0.0000   0.0000   0.0000   0.0000

          k =-0.0051 0.3911 0.1068 ( 41052 PWs)   bands (ev):

   -67.9398 -61.6959 -39.2843 -39.2631 -39.2583 -35.5821 -35.5722 -35.5655
   -28.4849 -17.6640 -17.2485 -15.5675 -15.4987 -15.4475 -15.4222 -15.3641
   -15.2442 -11.9400 -11.9352 -11.9140  -5.9296  -5.6909  -5.2074  -5.0433
    -4.3894  -4.2882  -4.2493  -4.1600  -3.1668  -2.5737  -2.5066  -2.4260
    -2.2348  -2.0952  -2.0202  -1.8894  -1.8003  -1.7116  -1.6522  -1.5064
    -1.4668  -1.3878  -1.1237  -0.9894  -0.9243  -0.8338  -0.7674  -0.7184
     0.2546   0.8508   1.5271   1.7466   1.7691   4.1671   4.2110   4.3267
     6.1431   6.1623   6.3729   6.5376   6.5770   6.6810   6.7615   6.9493

     occupation numbers 
     1.0000   1.0000   1.0000   1.0000   1.0000   1.0000   1.0000   1.0000
     1.0000   1.0000   1.0000   1.0000   1.0000   1.0000   1.0000   1.0000
     1.0000   1.0000   1.0000   1.0000   1.0000   1.0000   1.0000   1.0000
     1.0000   1.0000   1.0000   1.0000   1.0000   1.0000   1.0000   1.0000
     1.0000   1.0000   1.0000   1.0000   1.0000   1.0000   1.0000   1.0000
     1.0000   1.0000   1.0000   1.0000   1.0000   1.0000   1.0000   1.0000
     1.0000   1.0000   1.0000   1.0000   1.0000   0.0000   0.0000   0.0000
     0.0000   0.0000   0.0000   0.0000   0.0000   0.0000   0.0000   0.0000

          k =-0.0073 0.3905 0.3490 ( 41054 PWs)   bands (ev):

   -67.9398 -61.6959 -39.2843 -39.2631 -39.2583 -35.5821 -35.5722 -35.5655
   -28.4849 -17.6597 -17.2548 -15.5517 -15.5026 -15.4478 -15.4289 -15.3672
   -15.2452 -11.9397 -11.9348 -11.9133  -5.8349  -5.7096  -5.2344  -5.1309
    -4.3628  -4.2680  -4.2526  -4.1702  -3.0167  -2.5413  -2.4853  -2.4198
    -2.3573  -2.0651  -2.0240  -1.9766  -1.8307  -1.8015  -1.7798  -1.5884
    -1.5262  -1.4070  -1.0757  -0.9005  -0.8754  -0.7934  -0.7539  -0.6617
     0.2870   0.8313   1.4817   1.8319   1.8638   4.2311   4.2869   4.3515
     6.1351   6.1771   6.4343   6.5761   6.6287   6.7019   6.7688   6.8876

     occupation numbers 
     1.0000   1.0000   1.0000   1.0000   1.0000   1.0000   1.0000   1.0000
     1.0000   1.0000   1.0000   1.0000   1.0000   1.0000   1.0000   1.0000
     1.0000   1.0000   1.0000   1.0000   1.0000   1.0000   1.0000   1.0000
     1.0000   1.0000   1.0000   1.0000   1.0000   1.0000   1.0000   1.0000
     1.0000   1.0000   1.0000   1.0000   1.0000   1.0000   1.0000   1.0000
     1.0000   1.0000   1.0000   1.0000   1.0000   1.0000   1.0000   1.0000
     1.0000   1.0000   1.0000   1.0000   1.0000   0.0000   0.0000   0.0000
     0.0000   0.0000   0.0000   0.0000   0.0000   0.0000   0.0000   0.0000

          k = 0.0012 0.3927-0.6199 ( 41044 PWs)   bands (ev):

   -67.9398 -61.6959 -39.2843 -39.2631 -39.2583 -35.5821 -35.5722 -35.5655
   -28.4849 -17.6595 -17.2547 -15.5477 -15.5044 -15.4416 -15.4372 -15.3670
   -15.2465 -11.9393 -11.9343 -11.9133  -5.7202  -5.6566  -5.4414  -5.1373
    -4.3347  -4.2923  -4.2463  -4.1605  -2.8415  -2.6195  -2.4688  -2.4419
    -2.3546  -2.1169  -2.0373  -1.9342  -1.9121  -1.8226  -1.7765  -1.6596
    -1.4714  -1.2863  -1.1390  -0.9966  -0.8903  -0.8753  -0.7053  -0.5982
     0.2918   0.8417   1.6392   1.8268   1.8612   4.2193   4.2274   4.3030
     6.2405   6.3160   6.4470   6.5572   6.5651   6.7582   6.8565   6.9229

     occupation numbers 
     1.0000   1.0000   1.0000   1.0000   1.0000   1.0000   1.0000   1.0000
     1.0000   1.0000   1.0000   1.0000   1.0000   1.0000   1.0000   1.0000
     1.0000   1.0000   1.0000   1.0000   1.0000   1.0000   1.0000   1.0000
     1.0000   1.0000   1.0000   1.0000   1.0000   1.0000   1.0000   1.0000
     1.0000   1.0000   1.0000   1.0000   1.0000   1.0000   1.0000   1.0000
     1.0000   1.0000   1.0000   1.0000   1.0000   1.0000   1.0000   1.0000
     1.0000   1.0000   1.0000   1.0000   1.0000   0.0000   0.0000   0.0000
     0.0000   0.0000   0.0000   0.0000   0.0000   0.0000   0.0000   0.0000

          k =-0.0009 0.3922-0.3777 ( 41074 PWs)   bands (ev):

   -67.9398 -61.6959 -39.2843 -39.2631 -39.2583 -35.5821 -35.5722 -35.5655
   -28.4849 -17.6637 -17.2485 -15.5632 -15.4998 -15.4405 -15.4319 -15.3643
   -15.2463 -11.9395 -11.9344 -11.9139  -5.7775  -5.6641  -5.3652  -5.1422
    -4.3578  -4.3067  -4.2497  -4.1454  -2.9495  -2.6084  -2.5058  -2.4030
    -2.2770  -2.2270  -1.9630  -1.8770  -1.8059  -1.7785  -1.7200  -1.6001
    -1.4013  -1.2233  -1.1632  -1.0738  -1.0358  -0.9297  -0.7250  -0.6205
     0.2607   0.8662   1.7375   1.7647   1.7886   4.0842   4.1735   4.2459
     6.2765   6.3665   6.4606   6.5000   6.6288   6.7860   6.8547   6.8943

     occupation numbers 
     1.0000   1.0000   1.0000   1.0000   1.0000   1.0000   1.0000   1.0000
     1.0000   1.0000   1.0000   1.0000   1.0000   1.0000   1.0000   1.0000
     1.0000   1.0000   1.0000   1.0000   1.0000   1.0000   1.0000   1.0000
     1.0000   1.0000   1.0000   1.0000   1.0000   1.0000   1.0000   1.0000
     1.0000   1.0000   1.0000   1.0000   1.0000   1.0000   1.0000   1.0000
     1.0000   1.0000   1.0000   1.0000   1.0000   1.0000   1.0000   1.0000
     1.0000   1.0000   1.0000   1.0000   1.0000   0.0000   0.0000   0.0000
     0.0000   0.0000   0.0000   0.0000   0.0000   0.0000   0.0000   0.0000

          k = 0.0045-0.5874 0.2032 ( 41088 PWs)   bands (ev):

   -67.9398 -61.6959 -39.2843 -39.2631 -39.2583 -35.5821 -35.5722 -35.5655
   -28.4849 -17.6652 -17.2464 -15.5600 -15.5038 -15.4404 -15.4329 -15.3630
   -15.2466 -11.9395 -11.9345 -11.9136  -5.7192  -5.6238  -5.4498  -5.1885
    -4.3757  -4.2918  -4.2513  -4.1394  -2.8939  -2.6837  -2.5081  -2.3720
    -2.2485  -2.1658  -1.9471  -1.9028  -1.8243  -1.7678  -1.7371  -1.4531
    -1.4040  -1.2714  -1.2148  -1.0923  -1.0568  -0.9288  -0.7747  -0.6338
     0.2650   0.8577   1.7743   1.7896   1.7990   4.0020   4.1170   4.1517
     6.4034   6.4190   6.4824   6.5608   6.5757   6.8019   6.9163   6.9308

     occupation numbers 
     1.0000   1.0000   1.0000   1.0000   1.0000   1.0000   1.0000   1.0000
     1.0000   1.0000   1.0000   1.0000   1.0000   1.0000   1.0000   1.0000
     1.0000   1.0000   1.0000   1.0000   1.0000   1.0000   1.0000   1.0000
     1.0000   1.0000   1.0000   1.0000   1.0000   1.0000   1.0000   1.0000
     1.0000   1.0000   1.0000   1.0000   1.0000   1.0000   1.0000   1.0000
     1.0000   1.0000   1.0000   1.0000   1.0000   1.0000   1.0000   1.0000
     1.0000   1.0000   1.0000   1.0000   1.0000   0.0000   0.0000   0.0000
     0.0000   0.0000   0.0000   0.0000   0.0000   0.0000   0.0000   0.0000

          k = 0.0024-0.5880 0.4454 ( 41058 PWs)   bands (ev):

   -67.9398 -61.6959 -39.2843 -39.2631 -39.2583 -35.5821 -35.5722 -35.5655
   -28.4849 -17.6626 -17.2502 -15.5537 -15.5018 -15.4456 -15.4332 -15.3649
   -15.2466 -11.9395 -11.9345 -11.9133  -5.7351  -5.6658  -5.3834  -5.1738
    -4.3623  -4.2863  -4.2565  -4.1497  -2.9031  -2.6243  -2.4980  -2.4069
    -2.2949  -2.1251  -2.0077  -1.9189  -1.8669  -1.7926  -1.7301  -1.6073
    -1.4346  -1.2884  -1.1755  -1.0462  -0.9260  -0.8721  -0.7337  -0.6577
     0.2858   0.8414   1.6757   1.8103   1.8330   4.1127   4.1932   4.2304
     6.2703   6.3593   6.4363   6.5828   6.6551   6.7871   6.8745   6.9395

     occupation numbers 
     1.0000   1.0000   1.0000   1.0000   1.0000   1.0000   1.0000   1.0000
     1.0000   1.0000   1.0000   1.0000   1.0000   1.0000   1.0000   1.0000
     1.0000   1.0000   1.0000   1.0000   1.0000   1.0000   1.0000   1.0000
     1.0000   1.0000   1.0000   1.0000   1.0000   1.0000   1.0000   1.0000
     1.0000   1.0000   1.0000   1.0000   1.0000   1.0000   1.0000   1.0000
     1.0000   1.0000   1.0000   1.0000   1.0000   1.0000   1.0000   1.0000
     1.0000   1.0000   1.0000   1.0000   1.0000   0.0000   0.0000   0.0000
     0.0000   0.0000   0.0000   0.0000   0.0000   0.0000   0.0000   0.0000

          k = 0.0003-0.5885 0.6876 ( 40994 PWs)   bands (ev):

   -67.9398 -61.6959 -39.2843 -39.2631 -39.2583 -35.5821 -35.5722 -35.5655
   -28.4849 -17.6584 -17.2565 -15.5416 -15.5005 -15.4497 -15.4379 -15.3680
   -15.2465 -11.9394 -11.9345 -11.9127  -5.7628  -5.7054  -5.2901  -5.1585
    -4.3580  -4.2728  -4.2531  -4.1675  -2.9025  -2.5905  -2.4424  -2.4146
    -2.4025  -2.0993  -2.0128  -1.9604  -1.9179  -1.8554  -1.7907  -1.6270
    -1.5373  -1.4151  -1.0973  -0.8993  -0.8298  -0.8011  -0.7442  -0.6054
     0.3164   0.8131   1.4937   1.8653   1.8960   4.2955   4.3319   4.3570
     6.1508   6.2405   6.3562   6.6005   6.6194   6.7227   6.7777   6.8325

     occupation numbers 
     1.0000   1.0000   1.0000   1.0000   1.0000   1.0000   1.0000   1.0000
     1.0000   1.0000   1.0000   1.0000   1.0000   1.0000   1.0000   1.0000
     1.0000   1.0000   1.0000   1.0000   1.0000   1.0000   1.0000   1.0000
     1.0000   1.0000   1.0000   1.0000   1.0000   1.0000   1.0000   1.0000
     1.0000   1.0000   1.0000   1.0000   1.0000   1.0000   1.0000   1.0000
     1.0000   1.0000   1.0000   1.0000   1.0000   1.0000   1.0000   1.0000
     1.0000   1.0000   1.0000   1.0000   1.0000   0.0000   0.0000   0.0000
     0.0000   0.0000   0.0000   0.0000   0.0000   0.0000   0.0000   0.0000

          k = 0.1684-0.0995-0.0685 ( 41019 PWs)   bands (ev):

   -67.9398 -61.6959 -39.2843 -39.2631 -39.2583 -35.5821 -35.5722 -35.5655
   -28.4849 -17.6691 -17.2414 -15.5918 -15.4985 -15.4386 -15.4134 -15.3602
   -15.2413 -11.9407 -11.9358 -11.9156  -6.1014  -5.6896  -5.2114  -4.6572
    -4.4322  -4.3286  -4.2356  -4.1555  -3.5286  -2.6328  -2.5476  -2.4269
    -2.1708  -2.1077  -1.8971  -1.7964  -1.7277  -1.5726  -1.5121  -1.4273
    -1.3121  -1.2684  -1.2230  -1.1088  -1.0628  -0.8745  -0.8004  -0.6797
     0.1764   0.9001   1.5193   1.5427   1.5660   4.2567   4.2912   4.3236
     6.0027   6.1262   6.1641   6.3718   6.4345   6.4672   6.8674   6.9712

     occupation numbers 
     1.0000   1.0000   1.0000   1.0000   1.0000   1.0000   1.0000   1.0000
     1.0000   1.0000   1.0000   1.0000   1.0000   1.0000   1.0000   1.0000
     1.0000   1.0000   1.0000   1.0000   1.0000   1.0000   1.0000   1.0000
     1.0000   1.0000   1.0000   1.0000   1.0000   1.0000   1.0000   1.0000
     1.0000   1.0000   1.0000   1.0000   1.0000   1.0000   1.0000   1.0000
     1.0000   1.0000   1.0000   1.0000   1.0000   1.0000   1.0000   1.0000
     1.0000   1.0000   1.0000   1.0000   1.0000   0.0000   0.0000   0.0000
     0.0000   0.0000   0.0000   0.0000   0.0000   0.0000   0.0000   0.0000

          k = 0.1662-0.1000 0.1737 ( 41027 PWs)   bands (ev):

   -67.9398 -61.6959 -39.2843 -39.2631 -39.2583 -35.5821 -35.5722 -35.5655
   -28.4849 -17.6684 -17.2422 -15.5859 -15.5037 -15.4360 -15.4205 -15.3578
   -15.2402 -11.9406 -11.9353 -11.9156  -6.0646  -5.7087  -5.2075  -4.7589
    -4.3778  -4.3147  -4.2397  -4.1657  -3.4433  -2.6316  -2.5239  -2.4201
    -2.2262  -2.1357  -1.8812  -1.7908  -1.7494  -1.6384  -1.5738  -1.4375
    -1.3402  -1.3113  -1.2039  -1.0740  -0.9822  -0.8996  -0.8158  -0.6304
     0.1889   0.9074   1.4620   1.6063   1.6484   4.2151   4.2518   4.3762
     6.0551   6.1403   6.1875   6.4477   6.4577   6.4746   6.7683   7.0362

     occupation numbers 
     1.0000   1.0000   1.0000   1.0000   1.0000   1.0000   1.0000   1.0000
     1.0000   1.0000   1.0000   1.0000   1.0000   1.0000   1.0000   1.0000
     1.0000   1.0000   1.0000   1.0000   1.0000   1.0000   1.0000   1.0000
     1.0000   1.0000   1.0000   1.0000   1.0000   1.0000   1.0000   1.0000
     1.0000   1.0000   1.0000   1.0000   1.0000   1.0000   1.0000   1.0000
     1.0000   1.0000   1.0000   1.0000   1.0000   1.0000   1.0000   1.0000
     1.0000   1.0000   1.0000   1.0000   1.0000   0.0000   0.0000   0.0000
     0.0000   0.0000   0.0000   0.0000   0.0000   0.0000   0.0000   0.0000

          k = 0.1641-0.1006 0.4159 ( 41057 PWs)   bands (ev):

   -67.9398 -61.6959 -39.2843 -39.2631 -39.2583 -35.5821 -35.5722 -35.5655
   -28.4849 -17.6644 -17.2476 -15.5667 -15.5117 -15.4334 -15.4306 -15.3602
   -15.2421 -11.9399 -11.9343 -11.9150  -5.8600  -5.7226  -5.3098  -5.0313
    -4.3417  -4.3046  -4.2221  -4.1703  -3.0793  -2.6458  -2.4828  -2.3656
    -2.2749  -2.2051  -1.9592  -1.8975  -1.8196  -1.7593  -1.6792  -1.4709
    -1.4000  -1.2476  -1.2104  -1.1025  -1.0020  -0.8645  -0.7630  -0.6052
     0.2324   0.8990   1.6047   1.7553   1.7891   4.1059   4.1759   4.2666
     6.2347   6.2650   6.4421   6.4981   6.6188   6.6712   6.7667   6.9479

     occupation numbers 
     1.0000   1.0000   1.0000   1.0000   1.0000   1.0000   1.0000   1.0000
     1.0000   1.0000   1.0000   1.0000   1.0000   1.0000   1.0000   1.0000
     1.0000   1.0000   1.0000   1.0000   1.0000   1.0000   1.0000   1.0000
     1.0000   1.0000   1.0000   1.0000   1.0000   1.0000   1.0000   1.0000
     1.0000   1.0000   1.0000   1.0000   1.0000   1.0000   1.0000   1.0000
     1.0000   1.0000   1.0000   1.0000   1.0000   1.0000   1.0000   1.0000
     1.0000   1.0000   1.0000   1.0000   1.0000   0.0000   0.0000   0.0000
     0.0000   0.0000   0.0000   0.0000   0.0000   0.0000   0.0000   0.0000

          k = 0.1726-0.0984-0.5529 ( 41064 PWs)   bands (ev):

   -67.9398 -61.6959 -39.2843 -39.2631 -39.2583 -35.5821 -35.5722 -35.5655
   -28.4849 -17.6626 -17.2502 -15.5627 -15.5077 -15.4444 -15.4217 -15.3637
   -15.2444 -11.9395 -11.9343 -11.9146  -5.7471  -5.6526  -5.4810  -5.0971
    -4.3433  -4.3050  -4.2193  -4.1630  -2.8988  -2.6841  -2.4735  -2.4225
    -2.2494  -2.1534  -2.0137  -1.9434  -1.8487  -1.7566  -1.7068  -1.5750
    -1.3704  -1.2185  -1.1823  -1.1028  -1.0401  -0.8862  -0.7330  -0.6228
     0.2481   0.8876   1.7573   1.7789   1.7907   4.0688   4.1396   4.1900
     6.2742   6.4143   6.4852   6.5240   6.5914   6.7608   6.8627   6.9137

     occupation numbers 
     1.0000   1.0000   1.0000   1.0000   1.0000   1.0000   1.0000   1.0000
     1.0000   1.0000   1.0000   1.0000   1.0000   1.0000   1.0000   1.0000
     1.0000   1.0000   1.0000   1.0000   1.0000   1.0000   1.0000   1.0000
     1.0000   1.0000   1.0000   1.0000   1.0000   1.0000   1.0000   1.0000
     1.0000   1.0000   1.0000   1.0000   1.0000   1.0000   1.0000   1.0000
     1.0000   1.0000   1.0000   1.0000   1.0000   1.0000   1.0000   1.0000
     1.0000   1.0000   1.0000   1.0000   1.0000   0.0000   0.0000   0.0000
     0.0000   0.0000   0.0000   0.0000   0.0000   0.0000   0.0000   0.0000

          k = 0.1705-0.0989-0.3107 ( 41070 PWs)   bands (ev):

   -67.9398 -61.6959 -39.2843 -39.2631 -39.2583 -35.5821 -35.5722 -35.5655
   -28.4849 -17.6655 -17.2463 -15.5805 -15.4970 -15.4443 -15.4141 -15.3642
   -15.2439 -11.9400 -11.9352 -11.9149  -5.9641  -5.6902  -5.2213  -4.9842
    -4.3855  -4.3198  -4.2334  -4.1538  -3.2169  -2.5998  -2.5222  -2.4327
    -2.2242  -2.1099  -1.9964  -1.7982  -1.7739  -1.7023  -1.6125  -1.4756
    -1.3954  -1.2705  -1.1697  -1.1235  -0.9776  -0.9020  -0.7783  -0.6712
     0.2138   0.8905   1.6099   1.6490   1.7386   4.1444   4.1949   4.2717
     6.1329   6.2176   6.2824   6.4664   6.5898   6.6655   6.8145   6.8892

     occupation numbers 
     1.0000   1.0000   1.0000   1.0000   1.0000   1.0000   1.0000   1.0000
     1.0000   1.0000   1.0000   1.0000   1.0000   1.0000   1.0000   1.0000
     1.0000   1.0000   1.0000   1.0000   1.0000   1.0000   1.0000   1.0000
     1.0000   1.0000   1.0000   1.0000   1.0000   1.0000   1.0000   1.0000
     1.0000   1.0000   1.0000   1.0000   1.0000   1.0000   1.0000   1.0000
     1.0000   1.0000   1.0000   1.0000   1.0000   1.0000   1.0000   1.0000
     1.0000   1.0000   1.0000   1.0000   1.0000   0.0000   0.0000   0.0000
     0.0000   0.0000   0.0000   0.0000   0.0000   0.0000   0.0000   0.0000

          k = 0.1668 0.0963-0.1362 ( 41070 PWs)   bands (ev):

   -67.9398 -61.6959 -39.2843 -39.2631 -39.2583 -35.5821 -35.5722 -35.5655
   -28.4849 -17.6685 -17.2421 -15.5952 -15.4962 -15.4357 -15.4097 -15.3639
   -15.2430 -11.9403 -11.9358 -11.9157  -6.0910  -5.6824  -5.2145  -4.6737
    -4.4400  -4.3441  -4.2348  -4.1637  -3.4744  -2.6377  -2.5449  -2.4017
    -2.2283  -2.1297  -1.8474  -1.7640  -1.7398  -1.5772  -1.5762  -1.4346
    -1.3479  -1.2800  -1.2236  -1.0744  -1.0184  -0.8580  -0.8483  -0.6619
     0.1675   0.9130   1.4342   1.6112   1.6302   4.2570   4.2873   4.3285
     6.0208   6.1043   6.1733   6.3918   6.4309   6.4724   6.8251   6.9894

     occupation numbers 
     1.0000   1.0000   1.0000   1.0000   1.0000   1.0000   1.0000   1.0000
     1.0000   1.0000   1.0000   1.0000   1.0000   1.0000   1.0000   1.0000
     1.0000   1.0000   1.0000   1.0000   1.0000   1.0000   1.0000   1.0000
     1.0000   1.0000   1.0000   1.0000   1.0000   1.0000   1.0000   1.0000
     1.0000   1.0000   1.0000   1.0000   1.0000   1.0000   1.0000   1.0000
     1.0000   1.0000   1.0000   1.0000   1.0000   1.0000   1.0000   1.0000
     1.0000   1.0000   1.0000   1.0000   1.0000   0.0000   0.0000   0.0000
     0.0000   0.0000   0.0000   0.0000   0.0000   0.0000   0.0000   0.0000

          k = 0.1647 0.0958 0.1060 ( 41026 PWs)   bands (ev):

   -67.9398 -61.6959 -39.2843 -39.2631 -39.2583 -35.5821 -35.5722 -35.5655
   -28.4849 -17.6680 -17.2430 -15.5905 -15.5037 -15.4348 -15.4130 -15.3602
   -15.2406 -11.9407 -11.9357 -11.9158  -6.0911  -5.7050  -5.2037  -4.7371
    -4.3526  -4.3342  -4.2229  -4.1622  -3.5164  -2.6401  -2.5159  -2.4502
    -2.1545  -2.1057  -1.9339  -1.7859  -1.7245  -1.6320  -1.5624  -1.3585
    -1.3252  -1.2814  -1.2019  -1.0683  -1.0427  -0.9321  -0.7861  -0.6636
     0.1698   0.9072   1.5402   1.5486   1.5670   4.2250   4.2908   4.3119
     6.0177   6.1198   6.1687   6.3807   6.4445   6.4951   6.8490   6.9674

     occupation numbers 
     1.0000   1.0000   1.0000   1.0000   1.0000   1.0000   1.0000   1.0000
     1.0000   1.0000   1.0000   1.0000   1.0000   1.0000   1.0000   1.0000
     1.0000   1.0000   1.0000   1.0000   1.0000   1.0000   1.0000   1.0000
     1.0000   1.0000   1.0000   1.0000   1.0000   1.0000   1.0000   1.0000
     1.0000   1.0000   1.0000   1.0000   1.0000   1.0000   1.0000   1.0000
     1.0000   1.0000   1.0000   1.0000   1.0000   1.0000   1.0000   1.0000
     1.0000   1.0000   1.0000   1.0000   1.0000   0.0000   0.0000   0.0000
     0.0000   0.0000   0.0000   0.0000   0.0000   0.0000   0.0000   0.0000

          k = 0.1626 0.0952 0.3482 ( 41077 PWs)   bands (ev):

   -67.9398 -61.6959 -39.2843 -39.2631 -39.2583 -35.5821 -35.5722 -35.5655
   -28.4849 -17.6640 -17.2485 -15.5715 -15.5150 -15.4296 -15.4219 -15.3627
   -15.2424 -11.9400 -11.9349 -11.9152  -5.9161  -5.7241  -5.2541  -5.0303
    -4.3444  -4.2859  -4.2047  -4.1862  -3.1747  -2.6292  -2.4965  -2.3950
    -2.1818  -2.1483  -2.0243  -1.8704  -1.7932  -1.7614  -1.6331  -1.4924
    -1.3761  -1.2623  -1.1397  -1.0966  -1.0216  -0.9041  -0.7570  -0.6155
     0.2094   0.8993   1.6629   1.6707   1.7224   4.0562   4.2158   4.2722
     6.1995   6.2376   6.3210   6.5202   6.6071   6.6681   6.7660   6.9135

     occupation numbers 
     1.0000   1.0000   1.0000   1.0000   1.0000   1.0000   1.0000   1.0000
     1.0000   1.0000   1.0000   1.0000   1.0000   1.0000   1.0000   1.0000
     1.0000   1.0000   1.0000   1.0000   1.0000   1.0000   1.0000   1.0000
     1.0000   1.0000   1.0000   1.0000   1.0000   1.0000   1.0000   1.0000
     1.0000   1.0000   1.0000   1.0000   1.0000   1.0000   1.0000   1.0000
     1.0000   1.0000   1.0000   1.0000   1.0000   1.0000   1.0000   1.0000
     1.0000   1.0000   1.0000   1.0000   1.0000   0.0000   0.0000   0.0000
     0.0000   0.0000   0.0000   0.0000   0.0000   0.0000   0.0000   0.0000

          k = 0.1711 0.0974-0.6207 ( 41078 PWs)   bands (ev):

   -67.9398 -61.6959 -39.2843 -39.2631 -39.2583 -35.5821 -35.5722 -35.5655
   -28.4849 -17.6620 -17.2510 -15.5652 -15.5129 -15.4324 -15.4203 -15.3673
   -15.2461 -11.9392 -11.9344 -11.9148  -5.7417  -5.6325  -5.5063  -5.1119
    -4.3358  -4.2936  -4.2040  -4.1847  -2.8885  -2.7016  -2.4816  -2.3742
    -2.2541  -2.1552  -2.0046  -1.9155  -1.8583  -1.7977  -1.7278  -1.5906
    -1.3746  -1.2202  -1.1768  -1.1347  -1.0352  -0.8346  -0.7495  -0.5917
     0.2324   0.8952   1.7192   1.8001   1.8106   4.0429   4.1540   4.1955
     6.3291   6.3719   6.4995   6.5320   6.5930   6.7870   6.8711   6.9149

     occupation numbers 
     1.0000   1.0000   1.0000   1.0000   1.0000   1.0000   1.0000   1.0000
     1.0000   1.0000   1.0000   1.0000   1.0000   1.0000   1.0000   1.0000
     1.0000   1.0000   1.0000   1.0000   1.0000   1.0000   1.0000   1.0000
     1.0000   1.0000   1.0000   1.0000   1.0000   1.0000   1.0000   1.0000
     1.0000   1.0000   1.0000   1.0000   1.0000   1.0000   1.0000   1.0000
     1.0000   1.0000   1.0000   1.0000   1.0000   1.0000   1.0000   1.0000
     1.0000   1.0000   1.0000   1.0000   1.0000   0.0000   0.0000   0.0000
     0.0000   0.0000   0.0000   0.0000   0.0000   0.0000   0.0000   0.0000

          k = 0.1690 0.0969-0.3784 ( 41075 PWs)   bands (ev):

   -67.9398 -61.6959 -39.2843 -39.2631 -39.2583 -35.5821 -35.5722 -35.5655
   -28.4849 -17.6648 -17.2470 -15.5829 -15.4976 -15.4365 -15.4127 -15.3685
   -15.2464 -11.9394 -11.9350 -11.9151  -5.9245  -5.6775  -5.2452  -5.0370
    -4.3718  -4.3287  -4.2247  -4.1660  -3.1273  -2.6252  -2.5069  -2.3791
    -2.3075  -2.1549  -1.9067  -1.8343  -1.7664  -1.7340  -1.6900  -1.5098
    -1.4017  -1.2876  -1.2296  -1.0685  -0.9714  -0.8870  -0.7763  -0.6139
     0.2071   0.9047   1.5386   1.7722   1.7771   4.1679   4.1906   4.2471
     6.1685   6.2165   6.4203   6.4948   6.5636   6.6745   6.7564   6.9275

     occupation numbers 
     1.0000   1.0000   1.0000   1.0000   1.0000   1.0000   1.0000   1.0000
     1.0000   1.0000   1.0000   1.0000   1.0000   1.0000   1.0000   1.0000
     1.0000   1.0000   1.0000   1.0000   1.0000   1.0000   1.0000   1.0000
     1.0000   1.0000   1.0000   1.0000   1.0000   1.0000   1.0000   1.0000
     1.0000   1.0000   1.0000   1.0000   1.0000   1.0000   1.0000   1.0000
     1.0000   1.0000   1.0000   1.0000   1.0000   1.0000   1.0000   1.0000
     1.0000   1.0000   1.0000   1.0000   1.0000   0.0000   0.0000   0.0000
     0.0000   0.0000   0.0000   0.0000   0.0000   0.0000   0.0000   0.0000

          k = 0.1653 0.2921-0.2040 ( 41083 PWs)   bands (ev):

   -67.9398 -61.6959 -39.2843 -39.2631 -39.2583 -35.5821 -35.5722 -35.5655
   -28.4849 -17.6662 -17.2450 -15.5850 -15.4921 -15.4410 -15.4133 -15.3675
   -15.2466 -11.9395 -11.9352 -11.9149  -5.9591  -5.6671  -5.2229  -4.9885
    -4.4163  -4.3157  -4.2396  -4.1567  -3.1818  -2.6071  -2.5380  -2.3795
    -2.2701  -2.1823  -1.8908  -1.8120  -1.7628  -1.7116  -1.6133  -1.5146
    -1.3851  -1.3278  -1.2496  -1.0860  -0.9370  -0.9040  -0.7871  -0.6216
     0.2077   0.8989   1.5161   1.7496   1.7547   4.1700   4.2260   4.2776
     6.1510   6.1838   6.3576   6.4938   6.5737   6.6067   6.7669   6.9486

     occupation numbers 
     1.0000   1.0000   1.0000   1.0000   1.0000   1.0000   1.0000   1.0000
     1.0000   1.0000   1.0000   1.0000   1.0000   1.0000   1.0000   1.0000
     1.0000   1.0000   1.0000   1.0000   1.0000   1.0000   1.0000   1.0000
     1.0000   1.0000   1.0000   1.0000   1.0000   1.0000   1.0000   1.0000
     1.0000   1.0000   1.0000   1.0000   1.0000   1.0000   1.0000   1.0000
     1.0000   1.0000   1.0000   1.0000   1.0000   1.0000   1.0000   1.0000
     1.0000   1.0000   1.0000   1.0000   1.0000   0.0000   0.0000   0.0000
     0.0000   0.0000   0.0000   0.0000   0.0000   0.0000   0.0000   0.0000

          k = 0.1632 0.2916 0.0383 ( 41050 PWs)   bands (ev):

   -67.9398 -61.6959 -39.2843 -39.2631 -39.2583 -35.5821 -35.5722 -35.5655
   -28.4849 -17.6659 -17.2459 -15.5816 -15.4983 -15.4430 -15.4141 -15.3634
   -15.2432 -11.9402 -11.9354 -11.9150  -5.9940  -5.6937  -5.2128  -4.9356
    -4.3853  -4.3205  -4.2338  -4.1541  -3.2766  -2.6032  -2.5182  -2.4405
    -2.1975  -2.1017  -2.0081  -1.7896  -1.7675  -1.6817  -1.6024  -1.4620
    -1.3833  -1.2944  -1.1479  -1.1120  -0.9852  -0.8927  -0.7834  -0.6841
     0.2086   0.8887   1.5997   1.6142   1.7120   4.1700   4.2012   4.2873
     6.1206   6.1900   6.2321   6.4495   6.5681   6.6383   6.8363   6.8895

     occupation numbers 
     1.0000   1.0000   1.0000   1.0000   1.0000   1.0000   1.0000   1.0000
     1.0000   1.0000   1.0000   1.0000   1.0000   1.0000   1.0000   1.0000
     1.0000   1.0000   1.0000   1.0000   1.0000   1.0000   1.0000   1.0000
     1.0000   1.0000   1.0000   1.0000   1.0000   1.0000   1.0000   1.0000
     1.0000   1.0000   1.0000   1.0000   1.0000   1.0000   1.0000   1.0000
     1.0000   1.0000   1.0000   1.0000   1.0000   1.0000   1.0000   1.0000
     1.0000   1.0000   1.0000   1.0000   1.0000   0.0000   0.0000   0.0000
     0.0000   0.0000   0.0000   0.0000   0.0000   0.0000   0.0000   0.0000

          k = 0.1611 0.2910 0.2805 ( 41064 PWs)   bands (ev):

   -67.9398 -61.6959 -39.2843 -39.2631 -39.2583 -35.5821 -35.5722 -35.5655
   -28.4849 -17.6620 -17.2515 -15.5650 -15.5106 -15.4369 -15.4210 -15.3655
   -15.2438 -11.9399 -11.9350 -11.9145  -5.8873  -5.7168  -5.2418  -5.0807
    -4.3507  -4.2812  -4.2258  -4.1756  -3.1180  -2.5871  -2.4935  -2.4211
    -2.2349  -2.0986  -2.0351  -1.8997  -1.8238  -1.7617  -1.6960  -1.5489
    -1.4427  -1.3210  -1.0615  -1.0166  -0.9474  -0.8931  -0.7567  -0.6451
     0.2355   0.8710   1.5612   1.7598   1.7870   4.1103   4.2233   4.2966
     6.1665   6.2059   6.4249   6.5450   6.5890   6.6562   6.7889   6.9163

     occupation numbers 
     1.0000   1.0000   1.0000   1.0000   1.0000   1.0000   1.0000   1.0000
     1.0000   1.0000   1.0000   1.0000   1.0000   1.0000   1.0000   1.0000
     1.0000   1.0000   1.0000   1.0000   1.0000   1.0000   1.0000   1.0000
     1.0000   1.0000   1.0000   1.0000   1.0000   1.0000   1.0000   1.0000
     1.0000   1.0000   1.0000   1.0000   1.0000   1.0000   1.0000   1.0000
     1.0000   1.0000   1.0000   1.0000   1.0000   1.0000   1.0000   1.0000
     1.0000   1.0000   1.0000   1.0000   1.0000   0.0000   0.0000   0.0000
     0.0000   0.0000   0.0000   0.0000   0.0000   0.0000   0.0000   0.0000

          k = 0.1696 0.2932-0.6884 ( 41065 PWs)   bands (ev):

   -67.9398 -61.6959 -39.2843 -39.2631 -39.2583 -35.5821 -35.5722 -35.5655
   -28.4849 -17.6600 -17.2540 -15.5580 -15.5109 -15.4311 -15.4258 -15.3704
   -15.2477 -11.9390 -11.9346 -11.9140  -5.7262  -5.6711  -5.4380  -5.1424
    -4.3291  -4.2714  -4.2270  -4.1897  -2.8844  -2.6262  -2.5005  -2.3733
    -2.3229  -2.1189  -2.0010  -1.9447  -1.9037  -1.8091  -1.7722  -1.6794
    -1.4252  -1.2419  -1.1438  -1.1205  -0.9358  -0.8213  -0.6952  -0.5803
     0.2530   0.8711   1.6862   1.7542   1.8710   4.1156   4.2232   4.2991
     6.2482   6.3263   6.4656   6.5688   6.5945   6.8196   6.8715   6.9039

     occupation numbers 
     1.0000   1.0000   1.0000   1.0000   1.0000   1.0000   1.0000   1.0000
     1.0000   1.0000   1.0000   1.0000   1.0000   1.0000   1.0000   1.0000
     1.0000   1.0000   1.0000   1.0000   1.0000   1.0000   1.0000   1.0000
     1.0000   1.0000   1.0000   1.0000   1.0000   1.0000   1.0000   1.0000
     1.0000   1.0000   1.0000   1.0000   1.0000   1.0000   1.0000   1.0000
     1.0000   1.0000   1.0000   1.0000   1.0000   1.0000   1.0000   1.0000
     1.0000   1.0000   1.0000   1.0000   1.0000   0.0000   0.0000   0.0000
     0.0000   0.0000   0.0000   0.0000   0.0000   0.0000   0.0000   0.0000

          k = 0.1674 0.2927-0.4462 ( 41090 PWs)   bands (ev):

   -67.9398 -61.6959 -39.2843 -39.2631 -39.2583 -35.5821 -35.5722 -35.5655
   -28.4849 -17.6626 -17.2500 -15.5733 -15.4962 -15.4367 -15.4179 -15.3720
   -15.2495 -11.9389 -11.9346 -11.9143  -5.8112  -5.6510  -5.3185  -5.1540
    -4.3542  -4.3102  -4.2330  -4.1689  -2.9501  -2.6156  -2.4906  -2.4051
    -2.3077  -2.1842  -1.9398  -1.8813  -1.8488  -1.7882  -1.7215  -1.6570
    -1.4080  -1.2596  -1.2444  -1.0934  -0.9691  -0.8180  -0.7170  -0.5736
     0.2372   0.8860   1.6015   1.8096   1.8482   4.1612   4.2069   4.2947
     6.2172   6.2995   6.4265   6.5634   6.6248   6.7919   6.8119   6.8726

     occupation numbers 
     1.0000   1.0000   1.0000   1.0000   1.0000   1.0000   1.0000   1.0000
     1.0000   1.0000   1.0000   1.0000   1.0000   1.0000   1.0000   1.0000
     1.0000   1.0000   1.0000   1.0000   1.0000   1.0000   1.0000   1.0000
     1.0000   1.0000   1.0000   1.0000   1.0000   1.0000   1.0000   1.0000
     1.0000   1.0000   1.0000   1.0000   1.0000   1.0000   1.0000   1.0000
     1.0000   1.0000   1.0000   1.0000   1.0000   1.0000   1.0000   1.0000
     1.0000   1.0000   1.0000   1.0000   1.0000   0.0000   0.0000   0.0000
     0.0000   0.0000   0.0000   0.0000   0.0000   0.0000   0.0000   0.0000

          k = 0.1729-0.6869 0.1347 ( 41074 PWs)   bands (ev):

   -67.9398 -61.6959 -39.2843 -39.2631 -39.2583 -35.5821 -35.5722 -35.5655
   -28.4849 -17.6646 -17.2471 -15.5674 -15.4951 -15.4470 -15.4224 -15.3666
   -15.2484 -11.9391 -11.9345 -11.9139  -5.7583  -5.6383  -5.3641  -5.1947
    -4.3835  -4.2825  -4.2483  -4.1555  -2.9089  -2.6445  -2.5163  -2.4060
    -2.2323  -2.1817  -1.9429  -1.9122  -1.8487  -1.7638  -1.7089  -1.5597
    -1.4226  -1.2826  -1.2440  -1.1312  -0.9625  -0.8888  -0.7336  -0.5967
     0.2551   0.8709   1.6867   1.8132   1.8230   4.0851   4.1742   4.2059
     6.2970   6.3659   6.4756   6.5213   6.6806   6.7961   6.8956   6.9153

     occupation numbers 
     1.0000   1.0000   1.0000   1.0000   1.0000   1.0000   1.0000   1.0000
     1.0000   1.0000   1.0000   1.0000   1.0000   1.0000   1.0000   1.0000
     1.0000   1.0000   1.0000   1.0000   1.0000   1.0000   1.0000   1.0000
     1.0000   1.0000   1.0000   1.0000   1.0000   1.0000   1.0000   1.0000
     1.0000   1.0000   1.0000   1.0000   1.0000   1.0000   1.0000   1.0000
     1.0000   1.0000   1.0000   1.0000   1.0000   1.0000   1.0000   1.0000
     1.0000   1.0000   1.0000   1.0000   1.0000   0.0000   0.0000   0.0000
     0.0000   0.0000   0.0000   0.0000   0.0000   0.0000   0.0000   0.0000

          k = 0.1708-0.6875 0.3769 ( 41074 PWs)   bands (ev):

   -67.9398 -61.6959 -39.2843 -39.2631 -39.2583 -35.5821 -35.5722 -35.5655
   -28.4849 -17.6641 -17.2480 -15.5648 -15.4933 -15.4563 -15.4228 -15.3633
   -15.2453 -11.9395 -11.9346 -11.9140  -5.7995  -5.6770  -5.3296  -5.1334
    -4.3753  -4.3001  -4.2478  -4.1458  -2.9800  -2.5864  -2.5398  -2.4290
    -2.2464  -2.1426  -2.0105  -1.8882  -1.8413  -1.7473  -1.6597  -1.5518
    -1.4179  -1.2528  -1.2298  -1.0640  -1.0265  -0.8593  -0.7425  -0.6569
     0.2615   0.8673   1.7223   1.7469   1.7958   4.0873   4.1568   4.2443
     6.2081   6.3400   6.4437   6.5444   6.6585   6.7560   6.8235   6.9052

     occupation numbers 
     1.0000   1.0000   1.0000   1.0000   1.0000   1.0000   1.0000   1.0000
     1.0000   1.0000   1.0000   1.0000   1.0000   1.0000   1.0000   1.0000
     1.0000   1.0000   1.0000   1.0000   1.0000   1.0000   1.0000   1.0000
     1.0000   1.0000   1.0000   1.0000   1.0000   1.0000   1.0000   1.0000
     1.0000   1.0000   1.0000   1.0000   1.0000   1.0000   1.0000   1.0000
     1.0000   1.0000   1.0000   1.0000   1.0000   1.0000   1.0000   1.0000
     1.0000   1.0000   1.0000   1.0000   1.0000   0.0000   0.0000   0.0000
     0.0000   0.0000   0.0000   0.0000   0.0000   0.0000   0.0000   0.0000

          k = 0.1687-0.6880 0.6191 ( 41044 PWs)   bands (ev):

   -67.9398 -61.6959 -39.2843 -39.2631 -39.2583 -35.5821 -35.5722 -35.5655
   -28.4849 -17.6603 -17.2537 -15.5518 -15.5008 -15.4521 -15.4293 -15.3652
   -15.2448 -11.9396 -11.9345 -11.9135  -5.7835  -5.7079  -5.3221  -5.1185
    -4.3577  -4.2846  -4.2487  -4.1575  -2.9566  -2.5630  -2.4947  -2.4404
    -2.3315  -2.1002  -2.0071  -1.9715  -1.8902  -1.7825  -1.7527  -1.5631
    -1.5015  -1.3419  -1.1398  -0.9255  -0.9001  -0.8357  -0.7502  -0.6569
     0.2868   0.8422   1.5723   1.8315   1.8453   4.2093   4.2292   4.2971
     6.1685   6.2663   6.4292   6.5549   6.6507   6.7521   6.8025   6.8748

     occupation numbers 
     1.0000   1.0000   1.0000   1.0000   1.0000   1.0000   1.0000   1.0000
     1.0000   1.0000   1.0000   1.0000   1.0000   1.0000   1.0000   1.0000
     1.0000   1.0000   1.0000   1.0000   1.0000   1.0000   1.0000   1.0000
     1.0000   1.0000   1.0000   1.0000   1.0000   1.0000   1.0000   1.0000
     1.0000   1.0000   1.0000   1.0000   1.0000   1.0000   1.0000   1.0000
     1.0000   1.0000   1.0000   1.0000   1.0000   1.0000   1.0000   1.0000
     1.0000   1.0000   1.0000   1.0000   1.0000   0.0000   0.0000   0.0000
     0.0000   0.0000   0.0000   0.0000   0.0000   0.0000   0.0000   0.0000

          k = 0.1771-0.6858-0.3497 ( 41040 PWs)   bands (ev):

   -67.9398 -61.6959 -39.2843 -39.2631 -39.2583 -35.5821 -35.5722 -35.5655
   -28.4849 -17.6585 -17.2563 -15.5462 -15.5051 -15.4386 -15.4368 -15.3697
   -15.2476 -11.9392 -11.9345 -11.9130  -5.7208  -5.7002  -5.3622  -5.1622
    -4.3354  -4.2789  -4.2419  -4.1767  -2.8646  -2.5975  -2.4816  -2.4198
    -2.3645  -2.0762  -2.0324  -1.9607  -1.9023  -1.8586  -1.8081  -1.6831
    -1.4961  -1.3381  -1.0991  -1.0033  -0.8748  -0.8085  -0.6907  -0.5835
     0.2955   0.8323   1.5649   1.8269   1.9014   4.2355   4.2896   4.3627
     6.1907   6.3133   6.3642   6.5836   6.6012   6.7472   6.8135   6.8740

     occupation numbers 
     1.0000   1.0000   1.0000   1.0000   1.0000   1.0000   1.0000   1.0000
     1.0000   1.0000   1.0000   1.0000   1.0000   1.0000   1.0000   1.0000
     1.0000   1.0000   1.0000   1.0000   1.0000   1.0000   1.0000   1.0000
     1.0000   1.0000   1.0000   1.0000   1.0000   1.0000   1.0000   1.0000
     1.0000   1.0000   1.0000   1.0000   1.0000   1.0000   1.0000   1.0000
     1.0000   1.0000   1.0000   1.0000   1.0000   1.0000   1.0000   1.0000
     1.0000   1.0000   1.0000   1.0000   1.0000   0.0000   0.0000   0.0000
     0.0000   0.0000   0.0000   0.0000   0.0000   0.0000   0.0000   0.0000

          k = 0.1750-0.6864-0.1075 ( 41073 PWs)   bands (ev):

   -67.9398 -61.6959 -39.2843 -39.2631 -39.2583 -35.5821 -35.5722 -35.5655
   -28.4849 -17.6611 -17.2522 -15.5579 -15.4988 -15.4410 -15.4275 -15.3708
   -15.2499 -11.9388 -11.9345 -11.9133  -5.7194  -5.6235  -5.4150  -5.2021
    -4.3459  -4.2870  -4.2337  -4.1794  -2.8348  -2.6315  -2.4825  -2.4271
    -2.3059  -2.1308  -2.0159  -1.9303  -1.8772  -1.7991  -1.7809  -1.7273
    -1.4373  -1.2536  -1.1984  -1.0931  -0.9571  -0.7986  -0.6769  -0.5796
     0.2781   0.8506   1.7126   1.7378   1.8866   4.1728   4.2163   4.3318
     6.2720   6.3118   6.4734   6.5377   6.6126   6.7772   6.8974   6.9222

     occupation numbers 
     1.0000   1.0000   1.0000   1.0000   1.0000   1.0000   1.0000   1.0000
     1.0000   1.0000   1.0000   1.0000   1.0000   1.0000   1.0000   1.0000
     1.0000   1.0000   1.0000   1.0000   1.0000   1.0000   1.0000   1.0000
     1.0000   1.0000   1.0000   1.0000   1.0000   1.0000   1.0000   1.0000
     1.0000   1.0000   1.0000   1.0000   1.0000   1.0000   1.0000   1.0000
     1.0000   1.0000   1.0000   1.0000   1.0000   1.0000   1.0000   1.0000
     1.0000   1.0000   1.0000   1.0000   1.0000   0.0000   0.0000   0.0000
     0.0000   0.0000   0.0000   0.0000   0.0000   0.0000   0.0000   0.0000

          k = 0.1714-0.4911 0.0670 ( 41053 PWs)   bands (ev):

   -67.9398 -61.6959 -39.2843 -39.2631 -39.2583 -35.5821 -35.5722 -35.5655
   -28.4849 -17.6652 -17.2463 -15.5604 -15.5044 -15.4403 -15.4317 -15.3634
   -15.2467 -11.9395 -11.9346 -11.9137  -5.7765  -5.6686  -5.3316  -5.1715
    -4.3784  -4.2739  -4.2482  -4.1662  -2.9682  -2.6235  -2.5154  -2.3808
    -2.2711  -2.1186  -1.9839  -1.9257  -1.8110  -1.7465  -1.7129  -1.5671
    -1.4225  -1.2857  -1.2102  -1.0718  -1.0069  -0.9223  -0.7225  -0.6094
     0.2666   0.8584   1.7386   1.7552   1.7770   4.0577   4.1657   4.2501
     6.2536   6.3886   6.4387   6.5629   6.6654   6.7686   6.8529   6.8999

     occupation numbers 
     1.0000   1.0000   1.0000   1.0000   1.0000   1.0000   1.0000   1.0000
     1.0000   1.0000   1.0000   1.0000   1.0000   1.0000   1.0000   1.0000
     1.0000   1.0000   1.0000   1.0000   1.0000   1.0000   1.0000   1.0000
     1.0000   1.0000   1.0000   1.0000   1.0000   1.0000   1.0000   1.0000
     1.0000   1.0000   1.0000   1.0000   1.0000   1.0000   1.0000   1.0000
     1.0000   1.0000   1.0000   1.0000   1.0000   1.0000   1.0000   1.0000
     1.0000   1.0000   1.0000   1.0000   1.0000   0.0000   0.0000   0.0000
     0.0000   0.0000   0.0000   0.0000   0.0000   0.0000   0.0000   0.0000

          k = 0.1693-0.4917 0.3092 ( 41078 PWs)   bands (ev):

   -67.9398 -61.6959 -39.2843 -39.2631 -39.2583 -35.5821 -35.5722 -35.5655
   -28.4849 -17.6645 -17.2472 -15.5559 -15.5003 -15.4517 -15.4335 -15.3608
   -15.2449 -11.9395 -11.9341 -11.9137  -5.7305  -5.6544  -5.4394  -5.1264
    -4.3555  -4.3013  -4.2549  -4.1479  -2.8945  -2.6372  -2.5153  -2.4109
    -2.2869  -2.1590  -2.0033  -1.9212  -1.8431  -1.7609  -1.7091  -1.5489
    -1.4035  -1.3048  -1.1873  -1.1470  -0.9848  -0.8574  -0.7345  -0.6132
     0.2769   0.8648   1.7073   1.8060   1.8156   4.0959   4.1874   4.2090
     6.3236   6.3422   6.4596   6.5483   6.6190   6.8115   6.8946   6.9468

     occupation numbers 
     1.0000   1.0000   1.0000   1.0000   1.0000   1.0000   1.0000   1.0000
     1.0000   1.0000   1.0000   1.0000   1.0000   1.0000   1.0000   1.0000
     1.0000   1.0000   1.0000   1.0000   1.0000   1.0000   1.0000   1.0000
     1.0000   1.0000   1.0000   1.0000   1.0000   1.0000   1.0000   1.0000
     1.0000   1.0000   1.0000   1.0000   1.0000   1.0000   1.0000   1.0000
     1.0000   1.0000   1.0000   1.0000   1.0000   1.0000   1.0000   1.0000
     1.0000   1.0000   1.0000   1.0000   1.0000   0.0000   0.0000   0.0000
     0.0000   0.0000   0.0000   0.0000   0.0000   0.0000   0.0000   0.0000

          k = 0.1671-0.4922 0.5514 ( 41046 PWs)   bands (ev):

   -67.9398 -61.6959 -39.2843 -39.2631 -39.2583 -35.5821 -35.5722 -35.5655
   -28.4849 -17.6607 -17.2529 -15.5441 -15.4961 -15.4604 -15.4380 -15.3625
   -15.2445 -11.9394 -11.9340 -11.9132  -5.7200  -5.6375  -5.4766  -5.1043
    -4.3416  -4.2978  -4.2598  -4.1487  -2.8290  -2.6097  -2.5085  -2.4102
    -2.3735  -2.1173  -2.0953  -1.9545  -1.9188  -1.8071  -1.6969  -1.6308
    -1.4488  -1.2537  -1.2291  -1.0398  -0.9069  -0.8360  -0.6890  -0.6234
     0.3062   0.8441   1.6915   1.7822   1.8646   4.2110   4.2504   4.3008
     6.2237   6.3204   6.4208   6.5378   6.5699   6.7173   6.8828   6.9365

     occupation numbers 
     1.0000   1.0000   1.0000   1.0000   1.0000   1.0000   1.0000   1.0000
     1.0000   1.0000   1.0000   1.0000   1.0000   1.0000   1.0000   1.0000
     1.0000   1.0000   1.0000   1.0000   1.0000   1.0000   1.0000   1.0000
     1.0000   1.0000   1.0000   1.0000   1.0000   1.0000   1.0000   1.0000
     1.0000   1.0000   1.0000   1.0000   1.0000   1.0000   1.0000   1.0000
     1.0000   1.0000   1.0000   1.0000   1.0000   1.0000   1.0000   1.0000
     1.0000   1.0000   1.0000   1.0000   1.0000   0.0000   0.0000   0.0000
     0.0000   0.0000   0.0000   0.0000   0.0000   0.0000   0.0000   0.0000

          k = 0.1756-0.4900-0.4175 ( 41018 PWs)   bands (ev):

   -67.9398 -61.6959 -39.2843 -39.2631 -39.2583 -35.5821 -35.5722 -35.5655
   -28.4849 -17.6590 -17.2555 -15.5422 -15.4992 -15.4529 -15.4380 -15.3663
   -15.2459 -11.9394 -11.9344 -11.9128  -5.7314  -5.7027  -5.3561  -5.1380
    -4.3536  -4.2801  -4.2575  -4.1577  -2.8717  -2.5964  -2.4727  -2.4138
    -2.3907  -2.0995  -2.0328  -1.9646  -1.9295  -1.8225  -1.7848  -1.6001
    -1.5314  -1.3634  -1.1368  -0.9193  -0.8584  -0.8158  -0.7408  -0.6121
     0.3134   0.8222   1.5550   1.8651   1.8706   4.2729   4.3054   4.3124
     6.1756   6.3022   6.3535   6.5810   6.6058   6.7208   6.8106   6.8868

     occupation numbers 
     1.0000   1.0000   1.0000   1.0000   1.0000   1.0000   1.0000   1.0000
     1.0000   1.0000   1.0000   1.0000   1.0000   1.0000   1.0000   1.0000
     1.0000   1.0000   1.0000   1.0000   1.0000   1.0000   1.0000   1.0000
     1.0000   1.0000   1.0000   1.0000   1.0000   1.0000   1.0000   1.0000
     1.0000   1.0000   1.0000   1.0000   1.0000   1.0000   1.0000   1.0000
     1.0000   1.0000   1.0000   1.0000   1.0000   1.0000   1.0000   1.0000
     1.0000   1.0000   1.0000   1.0000   1.0000   0.0000   0.0000   0.0000
     0.0000   0.0000   0.0000   0.0000   0.0000   0.0000   0.0000   0.0000

          k = 0.1735-0.4906-0.1752 ( 41047 PWs)   bands (ev):

   -67.9398 -61.6959 -39.2843 -39.2631 -39.2583 -35.5821 -35.5722 -35.5655
   -28.4849 -17.6618 -17.2514 -15.5531 -15.5030 -15.4424 -15.4324 -15.3672
   -15.2473 -11.9394 -11.9347 -11.9131  -5.7849  -5.6807  -5.2638  -5.2058
    -4.3670  -4.2696  -4.2496  -4.1737  -2.9582  -2.5906  -2.4933  -2.3899
    -2.3084  -2.1141  -2.0140  -1.9022  -1.8819  -1.7955  -1.7648  -1.6341
    -1.4634  -1.3410  -1.1476  -0.9979  -0.9163  -0.8174  -0.7171  -0.6497
     0.2904   0.8316   1.5869   1.8104   1.8509   4.1495   4.2458   4.3140
     6.1973   6.2831   6.4311   6.6262   6.6561   6.7644   6.7833   6.9132

     occupation numbers 
     1.0000   1.0000   1.0000   1.0000   1.0000   1.0000   1.0000   1.0000
     1.0000   1.0000   1.0000   1.0000   1.0000   1.0000   1.0000   1.0000
     1.0000   1.0000   1.0000   1.0000   1.0000   1.0000   1.0000   1.0000
     1.0000   1.0000   1.0000   1.0000   1.0000   1.0000   1.0000   1.0000
     1.0000   1.0000   1.0000   1.0000   1.0000   1.0000   1.0000   1.0000
     1.0000   1.0000   1.0000   1.0000   1.0000   1.0000   1.0000   1.0000
     1.0000   1.0000   1.0000   1.0000   1.0000   0.0000   0.0000   0.0000
     0.0000   0.0000   0.0000   0.0000   0.0000   0.0000   0.0000   0.0000

          k = 0.1699-0.2953-0.0008 ( 41080 PWs)   bands (ev):

   -67.9398 -61.6959 -39.2843 -39.2631 -39.2583 -35.5821 -35.5722 -35.5655
   -28.4849 -17.6675 -17.2434 -15.5761 -15.5011 -15.4411 -15.4235 -15.3604
   -15.2431 -11.9403 -11.9352 -11.9145  -5.9862  -5.6853  -5.2205  -4.9308
    -4.4073  -4.2939  -4.2426  -4.1652  -3.2700  -2.5998  -2.5412  -2.3823
    -2.2626  -2.0639  -1.9761  -1.8740  -1.7427  -1.6241  -1.6080  -1.4618
    -1.4367  -1.3026  -1.1631  -1.1168  -1.0099  -0.8899  -0.7800  -0.6445
     0.2282   0.8741   1.6065   1.6233   1.6905   4.1352   4.2368   4.3086
     6.1464   6.2167   6.2344   6.5071   6.5752   6.6083   6.7912   6.9381

     occupation numbers 
     1.0000   1.0000   1.0000   1.0000   1.0000   1.0000   1.0000   1.0000
     1.0000   1.0000   1.0000   1.0000   1.0000   1.0000   1.0000   1.0000
     1.0000   1.0000   1.0000   1.0000   1.0000   1.0000   1.0000   1.0000
     1.0000   1.0000   1.0000   1.0000   1.0000   1.0000   1.0000   1.0000
     1.0000   1.0000   1.0000   1.0000   1.0000   1.0000   1.0000   1.0000
     1.0000   1.0000   1.0000   1.0000   1.0000   1.0000   1.0000   1.0000
     1.0000   1.0000   1.0000   1.0000   1.0000   0.0000   0.0000   0.0000
     0.0000   0.0000   0.0000   0.0000   0.0000   0.0000   0.0000   0.0000

          k = 0.1678-0.2958 0.2415 ( 41056 PWs)   bands (ev):

   -67.9398 -61.6959 -39.2843 -39.2631 -39.2583 -35.5821 -35.5722 -35.5655
   -28.4849 -17.6667 -17.2443 -15.5696 -15.5020 -15.4403 -15.4336 -15.3584
   -15.2424 -11.9400 -11.9345 -11.9145  -5.9195  -5.7014  -5.2501  -4.9871
    -4.3758  -4.3047  -4.2528  -4.1583  -3.1517  -2.6070  -2.5089  -2.3756
    -2.3318  -2.1600  -1.9440  -1.8522  -1.7536  -1.7116  -1.6806  -1.4861
    -1.3977  -1.3313  -1.2267  -1.0935  -0.9261  -0.8946  -0.7805  -0.6072
     0.2421   0.8861   1.5409   1.7388   1.7720   4.1588   4.1981   4.3204
     6.1942   6.2090   6.3956   6.5095   6.5759   6.6345   6.7465   6.9702

     occupation numbers 
     1.0000   1.0000   1.0000   1.0000   1.0000   1.0000   1.0000   1.0000
     1.0000   1.0000   1.0000   1.0000   1.0000   1.0000   1.0000   1.0000
     1.0000   1.0000   1.0000   1.0000   1.0000   1.0000   1.0000   1.0000
     1.0000   1.0000   1.0000   1.0000   1.0000   1.0000   1.0000   1.0000
     1.0000   1.0000   1.0000   1.0000   1.0000   1.0000   1.0000   1.0000
     1.0000   1.0000   1.0000   1.0000   1.0000   1.0000   1.0000   1.0000
     1.0000   1.0000   1.0000   1.0000   1.0000   0.0000   0.0000   0.0000
     0.0000   0.0000   0.0000   0.0000   0.0000   0.0000   0.0000   0.0000

          k = 0.1656-0.2964 0.4837 ( 41047 PWs)   bands (ev):

   -67.9398 -61.6959 -39.2843 -39.2631 -39.2583 -35.5821 -35.5722 -35.5655
   -28.4849 -17.6627 -17.2498 -15.5532 -15.5032 -15.4491 -15.4371 -15.3602
   -15.2431 -11.9396 -11.9339 -11.9140  -5.7498  -5.6946  -5.4191  -5.0690
    -4.3306  -4.3159  -4.2471  -4.1547  -2.9134  -2.6274  -2.4738  -2.4086
    -2.3317  -2.2068  -2.0373  -1.9222  -1.8583  -1.7973  -1.7124  -1.5523
    -1.4038  -1.2673  -1.1740  -1.1391  -0.9493  -0.8560  -0.6992  -0.6086
     0.2781   0.8727   1.6621   1.8020   1.8266   4.1674   4.2129   4.2799
     6.2533   6.3153   6.4167   6.5421   6.6028   6.7646   6.8324   6.8769

     occupation numbers 
     1.0000   1.0000   1.0000   1.0000   1.0000   1.0000   1.0000   1.0000
     1.0000   1.0000   1.0000   1.0000   1.0000   1.0000   1.0000   1.0000
     1.0000   1.0000   1.0000   1.0000   1.0000   1.0000   1.0000   1.0000
     1.0000   1.0000   1.0000   1.0000   1.0000   1.0000   1.0000   1.0000
     1.0000   1.0000   1.0000   1.0000   1.0000   1.0000   1.0000   1.0000
     1.0000   1.0000   1.0000   1.0000   1.0000   1.0000   1.0000   1.0000
     1.0000   1.0000   1.0000   1.0000   1.0000   0.0000   0.0000   0.0000
     0.0000   0.0000   0.0000   0.0000   0.0000   0.0000   0.0000   0.0000

          k = 0.1741-0.2942-0.4852 ( 41033 PWs)   bands (ev):

   -67.9398 -61.6959 -39.2843 -39.2631 -39.2583 -35.5821 -35.5722 -35.5655
   -28.4849 -17.6611 -17.2524 -15.5520 -15.4988 -15.4567 -15.4296 -15.3634
   -15.2444 -11.9395 -11.9343 -11.9136  -5.7397  -5.6900  -5.4104  -5.1062
    -4.3513  -4.2946  -4.2473  -4.1522  -2.8993  -2.5961  -2.5005  -2.4425
    -2.3127  -2.1294  -2.0403  -1.9509  -1.9017  -1.7768  -1.7127  -1.5979
    -1.4384  -1.2742  -1.2031  -1.0048  -0.9145  -0.8699  -0.7141  -0.6493
     0.2861   0.8540   1.6655   1.8093   1.8312   4.1683   4.2101   4.2685
     6.1994   6.3395   6.4232   6.5353   6.6383   6.7779   6.8238   6.9035

     occupation numbers 
     1.0000   1.0000   1.0000   1.0000   1.0000   1.0000   1.0000   1.0000
     1.0000   1.0000   1.0000   1.0000   1.0000   1.0000   1.0000   1.0000
     1.0000   1.0000   1.0000   1.0000   1.0000   1.0000   1.0000   1.0000
     1.0000   1.0000   1.0000   1.0000   1.0000   1.0000   1.0000   1.0000
     1.0000   1.0000   1.0000   1.0000   1.0000   1.0000   1.0000   1.0000
     1.0000   1.0000   1.0000   1.0000   1.0000   1.0000   1.0000   1.0000
     1.0000   1.0000   1.0000   1.0000   1.0000   0.0000   0.0000   0.0000
     0.0000   0.0000   0.0000   0.0000   0.0000   0.0000   0.0000   0.0000

          k = 0.1720-0.2947-0.2430 ( 41070 PWs)   bands (ev):

   -67.9398 -61.6959 -39.2843 -39.2631 -39.2583 -35.5821 -35.5722 -35.5655
   -28.4849 -17.6640 -17.2485 -15.5672 -15.4980 -15.4487 -15.4223 -15.3640
   -15.2443 -11.9400 -11.9351 -11.9140  -5.9122  -5.6900  -5.2147  -5.0675
    -4.3874  -4.2922  -4.2490  -4.1551  -3.1395  -2.5746  -2.5095  -2.4287
    -2.2358  -2.0995  -2.0233  -1.8873  -1.7974  -1.7285  -1.6518  -1.5043
    -1.4581  -1.3686  -1.1400  -1.0014  -0.9364  -0.8392  -0.7653  -0.7160
     0.2555   0.8533   1.5562   1.7465   1.7767   4.1597   4.1904   4.3071
     6.1554   6.1889   6.3871   6.5436   6.5902   6.7009   6.7707   6.9321

     occupation numbers 
     1.0000   1.0000   1.0000   1.0000   1.0000   1.0000   1.0000   1.0000
     1.0000   1.0000   1.0000   1.0000   1.0000   1.0000   1.0000   1.0000
     1.0000   1.0000   1.0000   1.0000   1.0000   1.0000   1.0000   1.0000
     1.0000   1.0000   1.0000   1.0000   1.0000   1.0000   1.0000   1.0000
     1.0000   1.0000   1.0000   1.0000   1.0000   1.0000   1.0000   1.0000
     1.0000   1.0000   1.0000   1.0000   1.0000   1.0000   1.0000   1.0000
     1.0000   1.0000   1.0000   1.0000   1.0000   0.0000   0.0000   0.0000
     0.0000   0.0000   0.0000   0.0000   0.0000   0.0000   0.0000   0.0000

          k = 0.3367-0.1990-0.1370 ( 41067 PWs)   bands (ev):

   -67.9398 -61.6959 -39.2843 -39.2631 -39.2583 -35.5821 -35.5722 -35.5655
   -28.4849 -17.6665 -17.2447 -15.5731 -15.4988 -15.4432 -15.4235 -15.3624
   -15.2448 -11.9399 -11.9350 -11.9143  -5.9037  -5.6757  -5.2366  -5.0814
    -4.3971  -4.3037  -4.2447  -4.1447  -3.1289  -2.6170  -2.5274  -2.3765
    -2.2457  -2.1652  -1.9410  -1.8450  -1.7743  -1.7042  -1.6530  -1.4311
    -1.3860  -1.2836  -1.1886  -1.1328  -1.0694  -0.8923  -0.7824  -0.6497
     0.2362   0.8736   1.6870   1.7060   1.7175   4.0906   4.1780   4.2107
     6.2551   6.2697   6.3192   6.5759   6.6454   6.6770   6.8143   6.8801

     occupation numbers 
     1.0000   1.0000   1.0000   1.0000   1.0000   1.0000   1.0000   1.0000
     1.0000   1.0000   1.0000   1.0000   1.0000   1.0000   1.0000   1.0000
     1.0000   1.0000   1.0000   1.0000   1.0000   1.0000   1.0000   1.0000
     1.0000   1.0000   1.0000   1.0000   1.0000   1.0000   1.0000   1.0000
     1.0000   1.0000   1.0000   1.0000   1.0000   1.0000   1.0000   1.0000
     1.0000   1.0000   1.0000   1.0000   1.0000   1.0000   1.0000   1.0000
     1.0000   1.0000   1.0000   1.0000   1.0000   0.0000   0.0000   0.0000
     0.0000   0.0000   0.0000   0.0000   0.0000   0.0000   0.0000   0.0000

          k = 0.3346-0.1995 0.1052 ( 41049 PWs)   bands (ev):

   -67.9398 -61.6959 -39.2843 -39.2631 -39.2583 -35.5821 -35.5722 -35.5655
   -28.4849 -17.6670 -17.2438 -15.5704 -15.5023 -15.4403 -15.4336 -15.3578
   -15.2419 -11.9401 -11.9345 -11.9146  -5.9369  -5.7040  -5.2418  -4.9576
    -4.3788  -4.2996  -4.2559  -4.1633  -3.1790  -2.6050  -2.5146  -2.3800
    -2.3285  -2.1481  -1.9399  -1.8530  -1.7481  -1.6991  -1.6726  -1.4982
    -1.4087  -1.3388  -1.2375  -1.0763  -0.9023  -0.8868  -0.7941  -0.6016
     0.2402   0.8883   1.5099   1.7387   1.7638   4.1703   4.2131   4.3418
     6.1670   6.1991   6.3832   6.4952   6.5730   6.6101   6.7303   6.9918

     occupation numbers 
     1.0000   1.0000   1.0000   1.0000   1.0000   1.0000   1.0000   1.0000
     1.0000   1.0000   1.0000   1.0000   1.0000   1.0000   1.0000   1.0000
     1.0000   1.0000   1.0000   1.0000   1.0000   1.0000   1.0000   1.0000
     1.0000   1.0000   1.0000   1.0000   1.0000   1.0000   1.0000   1.0000
     1.0000   1.0000   1.0000   1.0000   1.0000   1.0000   1.0000   1.0000
     1.0000   1.0000   1.0000   1.0000   1.0000   1.0000   1.0000   1.0000
     1.0000   1.0000   1.0000   1.0000   1.0000   0.0000   0.0000   0.0000
     0.0000   0.0000   0.0000   0.0000   0.0000   0.0000   0.0000   0.0000

          k = 0.3325-0.2001 0.3475 ( 41044 PWs)   bands (ev):

   -67.9398 -61.6959 -39.2843 -39.2631 -39.2583 -35.5821 -35.5722 -35.5655
   -28.4849 -17.6650 -17.2464 -15.5574 -15.5034 -15.4518 -15.4369 -15.3565
   -15.2409 -11.9397 -11.9336 -11.9145  -5.8473  -5.7301  -5.3019  -4.9813
    -4.3463  -4.2905  -4.2623  -4.1764  -3.0336  -2.6247  -2.5143  -2.3944
    -2.2751  -2.1923  -2.0426  -1.8974  -1.8067  -1.7757  -1.7454  -1.5252
    -1.4348  -1.3626  -1.2983  -1.0136  -0.8986  -0.8101  -0.6959  -0.5723
     0.2685   0.8933   1.4675   1.8264   1.8456   4.2326   4.2868   4.3697
     6.1816   6.1962   6.3691   6.5717   6.6324   6.6745   6.6998   6.8547

     occupation numbers 
     1.0000   1.0000   1.0000   1.0000   1.0000   1.0000   1.0000   1.0000
     1.0000   1.0000   1.0000   1.0000   1.0000   1.0000   1.0000   1.0000
     1.0000   1.0000   1.0000   1.0000   1.0000   1.0000   1.0000   1.0000
     1.0000   1.0000   1.0000   1.0000   1.0000   1.0000   1.0000   1.0000
     1.0000   1.0000   1.0000   1.0000   1.0000   1.0000   1.0000   1.0000
     1.0000   1.0000   1.0000   1.0000   1.0000   1.0000   1.0000   1.0000
     1.0000   1.0000   1.0000   1.0000   1.0000   0.0000   0.0000   0.0000
     0.0000   0.0000   0.0000   0.0000   0.0000   0.0000   0.0000   0.0000

          k = 0.3409-0.1979-0.6214 ( 41032 PWs)   bands (ev):

   -67.9398 -61.6959 -39.2843 -39.2631 -39.2583 -35.5821 -35.5722 -35.5655
   -28.4849 -17.6631 -17.2490 -15.5531 -15.4946 -15.4664 -15.4301 -15.3595
   -15.2432 -11.9393 -11.9336 -11.9141  -5.7316  -5.6649  -5.4686  -5.0605
    -4.3318  -4.3071  -4.2447  -4.1676  -2.8503  -2.6567  -2.5214  -2.4316
    -2.2309  -2.1732  -2.0892  -1.9892  -1.8479  -1.7850  -1.7389  -1.5512
    -1.4538  -1.2983  -1.2335  -1.1234  -0.9692  -0.7955  -0.6494  -0.5828
     0.2826   0.8831   1.6374   1.8294   1.8462   4.2145   4.2336   4.2978
     6.2470   6.2796   6.4696   6.5127   6.5451   6.7559   6.8512   6.9490

     occupation numbers 
     1.0000   1.0000   1.0000   1.0000   1.0000   1.0000   1.0000   1.0000
     1.0000   1.0000   1.0000   1.0000   1.0000   1.0000   1.0000   1.0000
     1.0000   1.0000   1.0000   1.0000   1.0000   1.0000   1.0000   1.0000
     1.0000   1.0000   1.0000   1.0000   1.0000   1.0000   1.0000   1.0000
     1.0000   1.0000   1.0000   1.0000   1.0000   1.0000   1.0000   1.0000
     1.0000   1.0000   1.0000   1.0000   1.0000   1.0000   1.0000   1.0000
     1.0000   1.0000   1.0000   1.0000   1.0000   0.0000   0.0000   0.0000
     0.0000   0.0000   0.0000   0.0000   0.0000   0.0000   0.0000   0.0000

          k = 0.3388-0.1984-0.3792 ( 41070 PWs)   bands (ev):

   -67.9398 -61.6959 -39.2843 -39.2631 -39.2583 -35.5821 -35.5722 -35.5655
   -28.4849 -17.6641 -17.2479 -15.5641 -15.4919 -15.4584 -15.4229 -15.3633
   -15.2456 -11.9394 -11.9344 -11.9140  -5.7720  -5.6675  -5.3715  -5.1351
    -4.3721  -4.2994  -4.2470  -4.1480  -2.9406  -2.5966  -2.5411  -2.4342
    -2.2450  -2.1475  -2.0105  -1.9096  -1.8395  -1.7456  -1.6683  -1.5669
    -1.4223  -1.2562  -1.2234  -1.0945  -1.0316  -0.8504  -0.7320  -0.6357
     0.2634   0.8709   1.7424   1.7659   1.7902   4.0876   4.1561   4.2439
     6.2191   6.3682   6.4589   6.5135   6.6805   6.7674   6.8324   6.9135

     occupation numbers 
     1.0000   1.0000   1.0000   1.0000   1.0000   1.0000   1.0000   1.0000
     1.0000   1.0000   1.0000   1.0000   1.0000   1.0000   1.0000   1.0000
     1.0000   1.0000   1.0000   1.0000   1.0000   1.0000   1.0000   1.0000
     1.0000   1.0000   1.0000   1.0000   1.0000   1.0000   1.0000   1.0000
     1.0000   1.0000   1.0000   1.0000   1.0000   1.0000   1.0000   1.0000
     1.0000   1.0000   1.0000   1.0000   1.0000   1.0000   1.0000   1.0000
     1.0000   1.0000   1.0000   1.0000   1.0000   0.0000   0.0000   0.0000
     0.0000   0.0000   0.0000   0.0000   0.0000   0.0000   0.0000   0.0000

          k = 0.3352-0.0032-0.2047 ( 41082 PWs)   bands (ev):

   -67.9398 -61.6959 -39.2843 -39.2631 -39.2583 -35.5821 -35.5722 -35.5655
   -28.4849 -17.6662 -17.2450 -15.5850 -15.4921 -15.4410 -15.4132 -15.3676
   -15.2466 -11.9395 -11.9352 -11.9149  -5.9591  -5.6671  -5.2228  -4.9885
    -4.4163  -4.3157  -4.2396  -4.1567  -3.1819  -2.6071  -2.5379  -2.3796
    -2.2700  -2.1824  -1.8909  -1.8119  -1.7627  -1.7116  -1.6131  -1.5147
    -1.3851  -1.3279  -1.2496  -1.0860  -0.9371  -0.9041  -0.7870  -0.6217
     0.2077   0.8989   1.5161   1.7495   1.7548   4.1700   4.2260   4.2776
     6.1511   6.1838   6.3576   6.4938   6.5735   6.6069   6.7668   6.9486

     occupation numbers 
     1.0000   1.0000   1.0000   1.0000   1.0000   1.0000   1.0000   1.0000
     1.0000   1.0000   1.0000   1.0000   1.0000   1.0000   1.0000   1.0000
     1.0000   1.0000   1.0000   1.0000   1.0000   1.0000   1.0000   1.0000
     1.0000   1.0000   1.0000   1.0000   1.0000   1.0000   1.0000   1.0000
     1.0000   1.0000   1.0000   1.0000   1.0000   1.0000   1.0000   1.0000
     1.0000   1.0000   1.0000   1.0000   1.0000   1.0000   1.0000   1.0000
     1.0000   1.0000   1.0000   1.0000   1.0000   0.0000   0.0000   0.0000
     0.0000   0.0000   0.0000   0.0000   0.0000   0.0000   0.0000   0.0000

          k = 0.3331-0.0037 0.0375 ( 41070 PWs)   bands (ev):

   -67.9398 -61.6959 -39.2843 -39.2631 -39.2583 -35.5821 -35.5722 -35.5655
   -28.4849 -17.6669 -17.2442 -15.5826 -15.5016 -15.4362 -15.4204 -15.3612
   -15.2425 -11.9402 -11.9351 -11.9153  -5.9979  -5.6983  -5.2216  -4.9061
    -4.3757  -4.3286  -4.2345  -4.1542  -3.2871  -2.6280  -2.5043  -2.3952
    -2.2600  -2.1883  -1.8935  -1.7958  -1.7549  -1.6772  -1.6264  -1.4369
    -1.3799  -1.2315  -1.1675  -1.1095  -1.0656  -0.9220  -0.7805  -0.6353
     0.2016   0.9021   1.5849   1.6064   1.7171   4.1640   4.2076   4.3042
     6.1415   6.1912   6.2589   6.4649   6.5629   6.5690   6.7648   6.9644

     occupation numbers 
     1.0000   1.0000   1.0000   1.0000   1.0000   1.0000   1.0000   1.0000
     1.0000   1.0000   1.0000   1.0000   1.0000   1.0000   1.0000   1.0000
     1.0000   1.0000   1.0000   1.0000   1.0000   1.0000   1.0000   1.0000
     1.0000   1.0000   1.0000   1.0000   1.0000   1.0000   1.0000   1.0000
     1.0000   1.0000   1.0000   1.0000   1.0000   1.0000   1.0000   1.0000
     1.0000   1.0000   1.0000   1.0000   1.0000   1.0000   1.0000   1.0000
     1.0000   1.0000   1.0000   1.0000   1.0000   0.0000   0.0000   0.0000
     0.0000   0.0000   0.0000   0.0000   0.0000   0.0000   0.0000   0.0000

          k = 0.3310-0.0043 0.2797 ( 41060 PWs)   bands (ev):

   -67.9398 -61.6959 -39.2843 -39.2631 -39.2583 -35.5821 -35.5722 -35.5655
   -28.4849 -17.6649 -17.2468 -15.5679 -15.5121 -15.4333 -15.4309 -15.3591
   -15.2414 -11.9399 -11.9344 -11.9151  -5.8943  -5.7280  -5.2777  -4.9988
    -4.3443  -4.2905  -4.2282  -4.1798  -3.1289  -2.6359  -2.4982  -2.3669
    -2.2640  -2.1902  -1.9564  -1.9007  -1.8133  -1.7511  -1.6702  -1.4468
    -1.4372  -1.2881  -1.2215  -1.0781  -0.9848  -0.8299  -0.7653  -0.5967
     0.2290   0.9035   1.5510   1.7553   1.7771   4.1134   4.2201   4.3108
     6.2026   6.2161   6.4175   6.4829   6.6096   6.6525   6.7257   6.9691

     occupation numbers 
     1.0000   1.0000   1.0000   1.0000   1.0000   1.0000   1.0000   1.0000
     1.0000   1.0000   1.0000   1.0000   1.0000   1.0000   1.0000   1.0000
     1.0000   1.0000   1.0000   1.0000   1.0000   1.0000   1.0000   1.0000
     1.0000   1.0000   1.0000   1.0000   1.0000   1.0000   1.0000   1.0000
     1.0000   1.0000   1.0000   1.0000   1.0000   1.0000   1.0000   1.0000
     1.0000   1.0000   1.0000   1.0000   1.0000   1.0000   1.0000   1.0000
     1.0000   1.0000   1.0000   1.0000   1.0000   0.0000   0.0000   0.0000
     0.0000   0.0000   0.0000   0.0000   0.0000   0.0000   0.0000   0.0000

          k = 0.3394-0.0021-0.6892 ( 41062 PWs)   bands (ev):

   -67.9398 -61.6959 -39.2843 -39.2631 -39.2583 -35.5821 -35.5722 -35.5655
   -28.4849 -17.6630 -17.2493 -15.5618 -15.5073 -15.4470 -15.4218 -15.3632
   -15.2449 -11.9391 -11.9339 -11.9147  -5.7348  -5.6766  -5.4646  -5.0764
    -4.3339  -4.2801  -4.2317  -4.1866  -2.8866  -2.6698  -2.5168  -2.4093
    -2.1827  -2.1571  -2.0690  -1.9688  -1.8784  -1.7586  -1.7342  -1.5688
    -1.4807  -1.2475  -1.2054  -1.1242  -1.0767  -0.7160  -0.6999  -0.5722
     0.2512   0.9009   1.6922   1.7576   1.8521   4.1088   4.2251   4.3003
     6.2576   6.3070   6.4429   6.5485   6.6072   6.7845   6.8455   6.9061

     occupation numbers 
     1.0000   1.0000   1.0000   1.0000   1.0000   1.0000   1.0000   1.0000
     1.0000   1.0000   1.0000   1.0000   1.0000   1.0000   1.0000   1.0000
     1.0000   1.0000   1.0000   1.0000   1.0000   1.0000   1.0000   1.0000
     1.0000   1.0000   1.0000   1.0000   1.0000   1.0000   1.0000   1.0000
     1.0000   1.0000   1.0000   1.0000   1.0000   1.0000   1.0000   1.0000
     1.0000   1.0000   1.0000   1.0000   1.0000   1.0000   1.0000   1.0000
     1.0000   1.0000   1.0000   1.0000   1.0000   0.0000   0.0000   0.0000
     0.0000   0.0000   0.0000   0.0000   0.0000   0.0000   0.0000   0.0000

          k = 0.3373-0.0026-0.4469 ( 41095 PWs)   bands (ev):

   -67.9398 -61.6959 -39.2843 -39.2631 -39.2583 -35.5821 -35.5722 -35.5655
   -28.4849 -17.6638 -17.2482 -15.5746 -15.4904 -15.4509 -15.4140 -15.3685
   -15.2481 -11.9388 -11.9344 -11.9145  -5.8087  -5.6573  -5.3382  -5.1192
    -4.3747  -4.3037  -4.2299  -4.1697  -2.9436  -2.6032  -2.5343  -2.4603
    -2.2394  -2.1252  -1.9627  -1.9304  -1.8668  -1.7418  -1.7012  -1.5585
    -1.4827  -1.2850  -1.2759  -1.1123  -1.0046  -0.7621  -0.7090  -0.5831
     0.2391   0.8976   1.6074   1.8177   1.8379   4.1588   4.2001   4.2901
     6.1782   6.3064   6.4275   6.5377   6.6384   6.7732   6.8195   6.9018

     occupation numbers 
     1.0000   1.0000   1.0000   1.0000   1.0000   1.0000   1.0000   1.0000
     1.0000   1.0000   1.0000   1.0000   1.0000   1.0000   1.0000   1.0000
     1.0000   1.0000   1.0000   1.0000   1.0000   1.0000   1.0000   1.0000
     1.0000   1.0000   1.0000   1.0000   1.0000   1.0000   1.0000   1.0000
     1.0000   1.0000   1.0000   1.0000   1.0000   1.0000   1.0000   1.0000
     1.0000   1.0000   1.0000   1.0000   1.0000   1.0000   1.0000   1.0000
     1.0000   1.0000   1.0000   1.0000   1.0000   0.0000   0.0000   0.0000
     0.0000   0.0000   0.0000   0.0000   0.0000   0.0000   0.0000   0.0000

          k = 0.3337 0.1927-0.2724 ( 41107 PWs)   bands (ev):

   -67.9398 -61.6959 -39.2843 -39.2631 -39.2583 -35.5821 -35.5722 -35.5655
   -28.4849 -17.6647 -17.2470 -15.5868 -15.4884 -15.4363 -15.4091 -15.3753
   -15.2503 -11.9387 -11.9350 -11.9149  -5.9262  -5.6506  -5.2279  -5.0278
    -4.4195  -4.3169  -4.2385  -4.1688  -3.0848  -2.5995  -2.5379  -2.4107
    -2.2774  -2.1574  -1.9194  -1.8521  -1.7976  -1.7077  -1.6421  -1.6369
    -1.4520  -1.3661  -1.3406  -0.9687  -0.9621  -0.7849  -0.7325  -0.5733
     0.2100   0.9088   1.4286   1.8269   1.8338   4.2549   4.2793   4.3309
     6.1044   6.1655   6.4253   6.5262   6.5529   6.6292   6.7248   7.0134

     occupation numbers 
     1.0000   1.0000   1.0000   1.0000   1.0000   1.0000   1.0000   1.0000
     1.0000   1.0000   1.0000   1.0000   1.0000   1.0000   1.0000   1.0000
     1.0000   1.0000   1.0000   1.0000   1.0000   1.0000   1.0000   1.0000
     1.0000   1.0000   1.0000   1.0000   1.0000   1.0000   1.0000   1.0000
     1.0000   1.0000   1.0000   1.0000   1.0000   1.0000   1.0000   1.0000
     1.0000   1.0000   1.0000   1.0000   1.0000   1.0000   1.0000   1.0000
     1.0000   1.0000   1.0000   1.0000   1.0000   0.0000   0.0000   0.0000
     0.0000   0.0000   0.0000   0.0000   0.0000   0.0000   0.0000   0.0000

          k = 0.3316 0.1921-0.0302 ( 41062 PWs)   bands (ev):

   -67.9398 -61.6959 -39.2843 -39.2631 -39.2583 -35.5821 -35.5722 -35.5655
   -28.4849 -17.6655 -17.2462 -15.5844 -15.4988 -15.4361 -15.4129 -15.3667
   -15.2452 -11.9397 -11.9351 -11.9152  -5.9588  -5.6843  -5.2319  -4.9895
    -4.3728  -4.3329  -4.2248  -4.1632  -3.1936  -2.6275  -2.5086  -2.3817
    -2.2946  -2.1503  -1.9104  -1.8103  -1.7486  -1.7063  -1.6758  -1.4784
    -1.3831  -1.2718  -1.2116  -1.0888  -0.9584  -0.9362  -0.7853  -0.6292
     0.2000   0.9056   1.5394   1.7351   1.7423   4.1699   4.1924   4.2473
     6.1588   6.1981   6.3457   6.4798   6.5630   6.6487   6.7662   6.9260

     occupation numbers 
     1.0000   1.0000   1.0000   1.0000   1.0000   1.0000   1.0000   1.0000
     1.0000   1.0000   1.0000   1.0000   1.0000   1.0000   1.0000   1.0000
     1.0000   1.0000   1.0000   1.0000   1.0000   1.0000   1.0000   1.0000
     1.0000   1.0000   1.0000   1.0000   1.0000   1.0000   1.0000   1.0000
     1.0000   1.0000   1.0000   1.0000   1.0000   1.0000   1.0000   1.0000
     1.0000   1.0000   1.0000   1.0000   1.0000   1.0000   1.0000   1.0000
     1.0000   1.0000   1.0000   1.0000   1.0000   0.0000   0.0000   0.0000
     0.0000   0.0000   0.0000   0.0000   0.0000   0.0000   0.0000   0.0000

          k = 0.3294 0.1915 0.2120 ( 41052 PWs)   bands (ev):

   -67.9398 -61.6959 -39.2843 -39.2631 -39.2583 -35.5821 -35.5722 -35.5655
   -28.4849 -17.6636 -17.2490 -15.5702 -15.5143 -15.4304 -15.4218 -15.3633
   -15.2431 -11.9399 -11.9348 -11.9151  -5.8658  -5.7176  -5.3045  -5.0664
    -4.3433  -4.3041  -4.2065  -4.1687  -3.0963  -2.6522  -2.4842  -2.3823
    -2.2210  -2.1662  -1.9839  -1.8817  -1.7954  -1.7600  -1.6834  -1.4769
    -1.3468  -1.2283  -1.1402  -1.0986  -1.0714  -0.9171  -0.7786  -0.6261
     0.2155   0.8971   1.7115   1.7181   1.7253   4.0440   4.1608   4.1996
     6.2588   6.3021   6.3672   6.5581   6.6182   6.6797   6.8168   6.8724

     occupation numbers 
     1.0000   1.0000   1.0000   1.0000   1.0000   1.0000   1.0000   1.0000
     1.0000   1.0000   1.0000   1.0000   1.0000   1.0000   1.0000   1.0000
     1.0000   1.0000   1.0000   1.0000   1.0000   1.0000   1.0000   1.0000
     1.0000   1.0000   1.0000   1.0000   1.0000   1.0000   1.0000   1.0000
     1.0000   1.0000   1.0000   1.0000   1.0000   1.0000   1.0000   1.0000
     1.0000   1.0000   1.0000   1.0000   1.0000   1.0000   1.0000   1.0000
     1.0000   1.0000   1.0000   1.0000   1.0000   0.0000   0.0000   0.0000
     0.0000   0.0000   0.0000   0.0000   0.0000   0.0000   0.0000   0.0000

          k = 0.3379 0.1938-0.7569 ( 41095 PWs)   bands (ev):

   -67.9398 -61.6959 -39.2843 -39.2631 -39.2583 -35.5821 -35.5722 -35.5655
   -28.4849 -17.6617 -17.2514 -15.5642 -15.5130 -15.4323 -15.4197 -15.3684
   -15.2468 -11.9390 -11.9344 -11.9147  -5.7338  -5.6680  -5.4671  -5.1127
    -4.3332  -4.2659  -4.2153  -4.2017  -2.9015  -2.6631  -2.5033  -2.3804
    -2.2102  -2.1586  -2.0564  -1.9234  -1.8654  -1.8125  -1.7062  -1.6380
    -1.4172  -1.2335  -1.1764  -1.1655  -1.0030  -0.8022  -0.6961  -0.5704
     0.2342   0.8973   1.7187   1.7876   1.8023   4.0573   4.2064   4.2708
     6.2694   6.3461   6.4733   6.5372   6.6038   6.8196   6.8677   6.8946

     occupation numbers 
     1.0000   1.0000   1.0000   1.0000   1.0000   1.0000   1.0000   1.0000
     1.0000   1.0000   1.0000   1.0000   1.0000   1.0000   1.0000   1.0000
     1.0000   1.0000   1.0000   1.0000   1.0000   1.0000   1.0000   1.0000
     1.0000   1.0000   1.0000   1.0000   1.0000   1.0000   1.0000   1.0000
     1.0000   1.0000   1.0000   1.0000   1.0000   1.0000   1.0000   1.0000
     1.0000   1.0000   1.0000   1.0000   1.0000   1.0000   1.0000   1.0000
     1.0000   1.0000   1.0000   1.0000   1.0000   0.0000   0.0000   0.0000
     0.0000   0.0000   0.0000   0.0000   0.0000   0.0000   0.0000   0.0000

          k = 0.3358 0.1932-0.5147 ( 41110 PWs)   bands (ev):

   -67.9398 -61.6959 -39.2843 -39.2631 -39.2583 -35.5821 -35.5722 -35.5655
   -28.4849 -17.6623 -17.2502 -15.5768 -15.4935 -15.4374 -15.4112 -15.3760
   -15.2513 -11.9383 -11.9345 -11.9145  -5.8037  -5.6389  -5.3355  -5.1414
    -4.3534  -4.3124  -4.2248  -4.1837  -2.9014  -2.6338  -2.5089  -2.4531
    -2.2277  -2.1297  -1.9821  -1.9342  -1.8817  -1.8199  -1.7317  -1.5975
    -1.4750  -1.3622  -1.3098  -1.0625  -0.9434  -0.7549  -0.6407  -0.5449
     0.2319   0.9031   1.5354   1.8566   1.8740   4.2271   4.2881   4.3061
     6.1891   6.2963   6.3541   6.5647   6.6406   6.7858   6.8301   6.9041

     occupation numbers 
     1.0000   1.0000   1.0000   1.0000   1.0000   1.0000   1.0000   1.0000
     1.0000   1.0000   1.0000   1.0000   1.0000   1.0000   1.0000   1.0000
     1.0000   1.0000   1.0000   1.0000   1.0000   1.0000   1.0000   1.0000
     1.0000   1.0000   1.0000   1.0000   1.0000   1.0000   1.0000   1.0000
     1.0000   1.0000   1.0000   1.0000   1.0000   1.0000   1.0000   1.0000
     1.0000   1.0000   1.0000   1.0000   1.0000   1.0000   1.0000   1.0000
     1.0000   1.0000   1.0000   1.0000   1.0000   0.0000   0.0000   0.0000
     0.0000   0.0000   0.0000   0.0000   0.0000   0.0000   0.0000   0.0000

          k = 0.3413-0.7864 0.0662 ( 41124 PWs)   bands (ev):

   -67.9398 -61.6959 -39.2843 -39.2631 -39.2583 -35.5821 -35.5722 -35.5655
   -28.4849 -17.6634 -17.2486 -15.5782 -15.4858 -15.4437 -15.4117 -15.3757
   -15.2522 -11.9382 -11.9345 -11.9143  -5.8218  -5.6343  -5.2485  -5.1907
    -4.3989  -4.2838  -4.2445  -4.1744  -2.9210  -2.6161  -2.5241  -2.4550
    -2.2192  -2.1395  -1.9801  -1.9301  -1.8679  -1.7902  -1.7265  -1.5776
    -1.4365  -1.4180  -1.3544  -1.0681  -0.8943  -0.7981  -0.6303  -0.5475
     0.2375   0.8955   1.5126   1.8593   1.8757   4.2574   4.2895   4.3200
     6.1744   6.2665   6.3524   6.5987   6.6452   6.7695   6.8259   6.8624

     occupation numbers 
     1.0000   1.0000   1.0000   1.0000   1.0000   1.0000   1.0000   1.0000
     1.0000   1.0000   1.0000   1.0000   1.0000   1.0000   1.0000   1.0000
     1.0000   1.0000   1.0000   1.0000   1.0000   1.0000   1.0000   1.0000
     1.0000   1.0000   1.0000   1.0000   1.0000   1.0000   1.0000   1.0000
     1.0000   1.0000   1.0000   1.0000   1.0000   1.0000   1.0000   1.0000
     1.0000   1.0000   1.0000   1.0000   1.0000   1.0000   1.0000   1.0000
     1.0000   1.0000   1.0000   1.0000   1.0000   0.0000   0.0000   0.0000
     0.0000   0.0000   0.0000   0.0000   0.0000   0.0000   0.0000   0.0000

          k = 0.3391-0.7870 0.3084 ( 41082 PWs)   bands (ev):

   -67.9398 -61.6959 -39.2843 -39.2631 -39.2583 -35.5821 -35.5722 -35.5655
   -28.4849 -17.6641 -17.2478 -15.5756 -15.4915 -15.4497 -15.4142 -15.3676
   -15.2473 -11.9390 -11.9346 -11.9146  -5.8340  -5.6662  -5.3094  -5.1096
    -4.3778  -4.3074  -4.2308  -4.1648  -2.9881  -2.5981  -2.5310  -2.4497
    -2.2545  -2.1256  -1.9598  -1.9074  -1.8407  -1.7420  -1.6767  -1.5441
    -1.4665  -1.2730  -1.2574  -1.1136  -0.9993  -0.8036  -0.7269  -0.5995
     0.2348   0.8963   1.6079   1.8098   1.8140   4.1360   4.1935   4.2726
     6.1722   6.2929   6.4587   6.5164   6.6200   6.7421   6.8156   6.9046

     occupation numbers 
     1.0000   1.0000   1.0000   1.0000   1.0000   1.0000   1.0000   1.0000
     1.0000   1.0000   1.0000   1.0000   1.0000   1.0000   1.0000   1.0000
     1.0000   1.0000   1.0000   1.0000   1.0000   1.0000   1.0000   1.0000
     1.0000   1.0000   1.0000   1.0000   1.0000   1.0000   1.0000   1.0000
     1.0000   1.0000   1.0000   1.0000   1.0000   1.0000   1.0000   1.0000
     1.0000   1.0000   1.0000   1.0000   1.0000   1.0000   1.0000   1.0000
     1.0000   1.0000   1.0000   1.0000   1.0000   0.0000   0.0000   0.0000
     0.0000   0.0000   0.0000   0.0000   0.0000   0.0000   0.0000   0.0000

          k = 0.3370-0.7875 0.5507 ( 41055 PWs)   bands (ev):

   -67.9398 -61.6959 -39.2843 -39.2631 -39.2583 -35.5821 -35.5722 -35.5655
   -28.4849 -17.6624 -17.2507 -15.5634 -15.5085 -15.4421 -15.4216 -15.3641
   -15.2442 -11.9396 -11.9345 -11.9145  -5.7757  -5.6952  -5.4009  -5.1006
    -4.3476  -4.3042  -4.2210  -4.1585  -2.9609  -2.6541  -2.4765  -2.4179
    -2.2584  -2.1408  -2.0006  -1.9197  -1.8566  -1.7508  -1.7109  -1.5539
    -1.3681  -1.2314  -1.1802  -1.0393  -1.0022  -0.9382  -0.7520  -0.6434
     0.2449   0.8814   1.7243   1.7591   1.8003   4.0687   4.1393   4.1920
     6.2475   6.3828   6.4698   6.5311   6.6317   6.7136   6.8394   6.9037

     occupation numbers 
     1.0000   1.0000   1.0000   1.0000   1.0000   1.0000   1.0000   1.0000
     1.0000   1.0000   1.0000   1.0000   1.0000   1.0000   1.0000   1.0000
     1.0000   1.0000   1.0000   1.0000   1.0000   1.0000   1.0000   1.0000
     1.0000   1.0000   1.0000   1.0000   1.0000   1.0000   1.0000   1.0000
     1.0000   1.0000   1.0000   1.0000   1.0000   1.0000   1.0000   1.0000
     1.0000   1.0000   1.0000   1.0000   1.0000   1.0000   1.0000   1.0000
     1.0000   1.0000   1.0000   1.0000   1.0000   0.0000   0.0000   0.0000
     0.0000   0.0000   0.0000   0.0000   0.0000   0.0000   0.0000   0.0000

          k = 0.3455-0.7853-0.4182 ( 41062 PWs)   bands (ev):

   -67.9398 -61.6959 -39.2843 -39.2631 -39.2583 -35.5821 -35.5722 -35.5655
   -28.4849 -17.6605 -17.2533 -15.5589 -15.5108 -15.4312 -15.4272 -15.3689
   -15.2470 -11.9392 -11.9345 -11.9141  -5.7313  -5.6424  -5.4766  -5.1334
    -4.3308  -4.2889  -4.2234  -4.1760  -2.8739  -2.6578  -2.4817  -2.3695
    -2.3309  -2.1421  -1.9742  -1.9256  -1.9120  -1.8027  -1.7556  -1.6591
    -1.4083  -1.2239  -1.1278  -1.1204  -0.9664  -0.8490  -0.7207  -0.5929
     0.2515   0.8731   1.7179   1.7544   1.8560   4.1066   4.1803   4.2536
     6.2931   6.3325   6.5044   6.5533   6.5809   6.8064   6.8926   6.9078

     occupation numbers 
     1.0000   1.0000   1.0000   1.0000   1.0000   1.0000   1.0000   1.0000
     1.0000   1.0000   1.0000   1.0000   1.0000   1.0000   1.0000   1.0000
     1.0000   1.0000   1.0000   1.0000   1.0000   1.0000   1.0000   1.0000
     1.0000   1.0000   1.0000   1.0000   1.0000   1.0000   1.0000   1.0000
     1.0000   1.0000   1.0000   1.0000   1.0000   1.0000   1.0000   1.0000
     1.0000   1.0000   1.0000   1.0000   1.0000   1.0000   1.0000   1.0000
     1.0000   1.0000   1.0000   1.0000   1.0000   0.0000   0.0000   0.0000
     0.0000   0.0000   0.0000   0.0000   0.0000   0.0000   0.0000   0.0000

          k = 0.3434-0.7859-0.1760 ( 41102 PWs)   bands (ev):

   -67.9398 -61.6959 -39.2843 -39.2631 -39.2583 -35.5821 -35.5722 -35.5655
   -28.4849 -17.6611 -17.2520 -15.5701 -15.4947 -15.4369 -15.4159 -15.3765
   -15.2520 -11.9383 -11.9345 -11.9140  -5.7632  -5.6249  -5.3638  -5.1889
    -4.3396  -4.3000  -4.2244  -4.1922  -2.8560  -2.6322  -2.4725  -2.4464
    -2.2984  -2.1064  -2.0012  -1.9592  -1.8784  -1.8514  -1.7490  -1.6816
    -1.4277  -1.3118  -1.2690  -1.1245  -0.8964  -0.7908  -0.6303  -0.5396
     0.2483   0.8827   1.6003   1.8008   1.9028   4.2191   4.2542   4.3687
     6.2231   6.2851   6.3994   6.5774   6.6038   6.7496   6.8348   6.9291

     occupation numbers 
     1.0000   1.0000   1.0000   1.0000   1.0000   1.0000   1.0000   1.0000
     1.0000   1.0000   1.0000   1.0000   1.0000   1.0000   1.0000   1.0000
     1.0000   1.0000   1.0000   1.0000   1.0000   1.0000   1.0000   1.0000
     1.0000   1.0000   1.0000   1.0000   1.0000   1.0000   1.0000   1.0000
     1.0000   1.0000   1.0000   1.0000   1.0000   1.0000   1.0000   1.0000
     1.0000   1.0000   1.0000   1.0000   1.0000   1.0000   1.0000   1.0000
     1.0000   1.0000   1.0000   1.0000   1.0000   0.0000   0.0000   0.0000
     0.0000   0.0000   0.0000   0.0000   0.0000   0.0000   0.0000   0.0000

          k = 0.3397-0.5906-0.0015 ( 41085 PWs)   bands (ev):

   -67.9398 -61.6959 -39.2843 -39.2631 -39.2583 -35.5821 -35.5722 -35.5655
   -28.4849 -17.6636 -17.2483 -15.5648 -15.4938 -15.4484 -15.4210 -15.3693
   -15.2503 -11.9386 -11.9344 -11.9137  -5.7229  -5.6190  -5.4049  -5.2027
    -4.3771  -4.2566  -4.2394  -4.1919  -2.8412  -2.6452  -2.5019  -2.4547
    -2.1893  -2.1479  -2.0406  -1.9294  -1.8907  -1.7702  -1.7327  -1.6410
    -1.4537  -1.3306  -1.2502  -1.1313  -0.9358  -0.8485  -0.6369  -0.5615
     0.2654   0.8708   1.6859   1.8156   1.8360   4.1380   4.2262   4.3067
     6.2718   6.3077   6.5118   6.5388   6.6279   6.8044   6.8848   6.9298

     occupation numbers 
     1.0000   1.0000   1.0000   1.0000   1.0000   1.0000   1.0000   1.0000
     1.0000   1.0000   1.0000   1.0000   1.0000   1.0000   1.0000   1.0000
     1.0000   1.0000   1.0000   1.0000   1.0000   1.0000   1.0000   1.0000
     1.0000   1.0000   1.0000   1.0000   1.0000   1.0000   1.0000   1.0000
     1.0000   1.0000   1.0000   1.0000   1.0000   1.0000   1.0000   1.0000
     1.0000   1.0000   1.0000   1.0000   1.0000   1.0000   1.0000   1.0000
     1.0000   1.0000   1.0000   1.0000   1.0000   0.0000   0.0000   0.0000
     0.0000   0.0000   0.0000   0.0000   0.0000   0.0000   0.0000   0.0000

          k = 0.3376-0.5911 0.2407 ( 41067 PWs)   bands (ev):

   -67.9398 -61.6959 -39.2843 -39.2631 -39.2583 -35.5821 -35.5722 -35.5655
   -28.4849 -17.6642 -17.2474 -15.5621 -15.4877 -15.4650 -15.4229 -15.3633
   -15.2467 -11.9389 -11.9339 -11.9140  -5.7276  -5.6236  -5.4647  -5.1226
    -4.3611  -4.2904  -4.2420  -4.1703  -2.8458  -2.6253  -2.5479  -2.4650
    -2.2038  -2.1388  -2.0284  -1.9715  -1.8679  -1.7365  -1.7196  -1.6137
    -1.4764  -1.2760  -1.2528  -1.1441  -1.0423  -0.7449  -0.6813  -0.5674
     0.2697   0.8826   1.7324   1.7439   1.8590   4.1586   4.1907   4.3113
     6.2386   6.3156   6.4738   6.5277   6.6323   6.7764   6.8858   6.9323

     occupation numbers 
     1.0000   1.0000   1.0000   1.0000   1.0000   1.0000   1.0000   1.0000
     1.0000   1.0000   1.0000   1.0000   1.0000   1.0000   1.0000   1.0000
     1.0000   1.0000   1.0000   1.0000   1.0000   1.0000   1.0000   1.0000
     1.0000   1.0000   1.0000   1.0000   1.0000   1.0000   1.0000   1.0000
     1.0000   1.0000   1.0000   1.0000   1.0000   1.0000   1.0000   1.0000
     1.0000   1.0000   1.0000   1.0000   1.0000   1.0000   1.0000   1.0000
     1.0000   1.0000   1.0000   1.0000   1.0000   0.0000   0.0000   0.0000
     0.0000   0.0000   0.0000   0.0000   0.0000   0.0000   0.0000   0.0000

          k = 0.3355-0.5917 0.4829 ( 41041 PWs)   bands (ev):

   -67.9398 -61.6959 -39.2843 -39.2631 -39.2583 -35.5821 -35.5722 -35.5655
   -28.4849 -17.6624 -17.2503 -15.5526 -15.4959 -15.4634 -15.4300 -15.3607
   -15.2436 -11.9394 -11.9338 -11.9139  -5.7296  -5.6284  -5.5042  -5.0812
    -4.3389  -4.3050  -4.2447  -4.1576  -2.8446  -2.6464  -2.5025  -2.4439
    -2.2687  -2.1651  -2.0802  -1.9726  -1.8660  -1.7809  -1.6876  -1.6092
    -1.4043  -1.2793  -1.1732  -1.1546  -0.9556  -0.8429  -0.6690  -0.6131
     0.2840   0.8727   1.7129   1.7923   1.8305   4.1763   4.2066   4.2679
     6.2359   6.3331   6.4698   6.5216   6.5639   6.7707   6.8617   6.9409

     occupation numbers 
     1.0000   1.0000   1.0000   1.0000   1.0000   1.0000   1.0000   1.0000
     1.0000   1.0000   1.0000   1.0000   1.0000   1.0000   1.0000   1.0000
     1.0000   1.0000   1.0000   1.0000   1.0000   1.0000   1.0000   1.0000
     1.0000   1.0000   1.0000   1.0000   1.0000   1.0000   1.0000   1.0000
     1.0000   1.0000   1.0000   1.0000   1.0000   1.0000   1.0000   1.0000
     1.0000   1.0000   1.0000   1.0000   1.0000   1.0000   1.0000   1.0000
     1.0000   1.0000   1.0000   1.0000   1.0000   0.0000   0.0000   0.0000
     0.0000   0.0000   0.0000   0.0000   0.0000   0.0000   0.0000   0.0000

          k = 0.3440-0.5895-0.4859 ( 41057 PWs)   bands (ev):

   -67.9398 -61.6959 -39.2843 -39.2631 -39.2583 -35.5821 -35.5722 -35.5655
   -28.4849 -17.6607 -17.2529 -15.5496 -15.5038 -15.4449 -15.4372 -15.3643
   -15.2453 -11.9394 -11.9341 -11.9135  -5.7260  -5.6269  -5.4898  -5.1142
    -4.3324  -4.3044  -4.2475  -4.1524  -2.8461  -2.6263  -2.4747  -2.4370
    -2.3406  -2.1680  -2.0353  -1.9211  -1.9029  -1.8120  -1.7081  -1.6556
    -1.4336  -1.2324  -1.1871  -1.0149  -0.9548  -0.8836  -0.7035  -0.6108
     0.2869   0.8531   1.7123   1.8003   1.8268   4.1731   4.2090   4.2766
     6.2788   6.3078   6.4956   6.5265   6.5561   6.7654   6.8767   6.9175

     occupation numbers 
     1.0000   1.0000   1.0000   1.0000   1.0000   1.0000   1.0000   1.0000
     1.0000   1.0000   1.0000   1.0000   1.0000   1.0000   1.0000   1.0000
     1.0000   1.0000   1.0000   1.0000   1.0000   1.0000   1.0000   1.0000
     1.0000   1.0000   1.0000   1.0000   1.0000   1.0000   1.0000   1.0000
     1.0000   1.0000   1.0000   1.0000   1.0000   1.0000   1.0000   1.0000
     1.0000   1.0000   1.0000   1.0000   1.0000   1.0000   1.0000   1.0000
     1.0000   1.0000   1.0000   1.0000   1.0000   0.0000   0.0000   0.0000
     0.0000   0.0000   0.0000   0.0000   0.0000   0.0000   0.0000   0.0000

          k = 0.3419-0.5900-0.2437 ( 41068 PWs)   bands (ev):

   -67.9398 -61.6959 -39.2843 -39.2631 -39.2583 -35.5821 -35.5722 -35.5655
   -28.4849 -17.6615 -17.2517 -15.5586 -15.4989 -15.4410 -15.4282 -15.3699
   -15.2494 -11.9389 -11.9345 -11.9134  -5.7229  -5.6211  -5.4232  -5.1946
    -4.3477  -4.2898  -4.2399  -4.1699  -2.8436  -2.6285  -2.4889  -2.4259
    -2.3011  -2.1485  -2.0032  -1.9224  -1.8693  -1.7899  -1.7705  -1.7196
    -1.4321  -1.2494  -1.1858  -1.0905  -0.9741  -0.8107  -0.6919  -0.5863
     0.2758   0.8523   1.7261   1.7385   1.8752   4.1603   4.2014   4.3092
     6.2934   6.3121   6.4782   6.5319   6.6120   6.8013   6.9001   6.9223

     occupation numbers 
     1.0000   1.0000   1.0000   1.0000   1.0000   1.0000   1.0000   1.0000
     1.0000   1.0000   1.0000   1.0000   1.0000   1.0000   1.0000   1.0000
     1.0000   1.0000   1.0000   1.0000   1.0000   1.0000   1.0000   1.0000
     1.0000   1.0000   1.0000   1.0000   1.0000   1.0000   1.0000   1.0000
     1.0000   1.0000   1.0000   1.0000   1.0000   1.0000   1.0000   1.0000
     1.0000   1.0000   1.0000   1.0000   1.0000   1.0000   1.0000   1.0000
     1.0000   1.0000   1.0000   1.0000   1.0000   0.0000   0.0000   0.0000
     0.0000   0.0000   0.0000   0.0000   0.0000   0.0000   0.0000   0.0000

          k = 0.3382-0.3948-0.0692 ( 41053 PWs)   bands (ev):

   -67.9398 -61.6959 -39.2843 -39.2631 -39.2583 -35.5821 -35.5722 -35.5655
   -28.4849 -17.6652 -17.2463 -15.5604 -15.5044 -15.4403 -15.4317 -15.3635
   -15.2466 -11.9395 -11.9346 -11.9137  -5.7765  -5.6686  -5.3315  -5.1716
    -4.3784  -4.2740  -4.2480  -4.1661  -2.9682  -2.6235  -2.5154  -2.3808
    -2.2711  -2.1185  -1.9841  -1.9257  -1.8108  -1.7464  -1.7129  -1.5671
    -1.4224  -1.2858  -1.2102  -1.0718  -1.0069  -0.9223  -0.7225  -0.6094
     0.2666   0.8583   1.7387   1.7552   1.7770   4.0576   4.1657   4.2501
     6.2537   6.3887   6.4385   6.5629   6.6653   6.7685   6.8526   6.9003

     occupation numbers 
     1.0000   1.0000   1.0000   1.0000   1.0000   1.0000   1.0000   1.0000
     1.0000   1.0000   1.0000   1.0000   1.0000   1.0000   1.0000   1.0000
     1.0000   1.0000   1.0000   1.0000   1.0000   1.0000   1.0000   1.0000
     1.0000   1.0000   1.0000   1.0000   1.0000   1.0000   1.0000   1.0000
     1.0000   1.0000   1.0000   1.0000   1.0000   1.0000   1.0000   1.0000
     1.0000   1.0000   1.0000   1.0000   1.0000   1.0000   1.0000   1.0000
     1.0000   1.0000   1.0000   1.0000   1.0000   0.0000   0.0000   0.0000
     0.0000   0.0000   0.0000   0.0000   0.0000   0.0000   0.0000   0.0000

          k = 0.3361-0.3953 0.1730 ( 41025 PWs)   bands (ev):

   -67.9398 -61.6959 -39.2843 -39.2631 -39.2583 -35.5821 -35.5722 -35.5655
   -28.4849 -17.6656 -17.2454 -15.5578 -15.5004 -15.4537 -15.4332 -15.3589
   -15.2440 -11.9395 -11.9339 -11.9140  -5.7934  -5.6963  -5.3413  -5.0705
    -4.3593  -4.2814  -4.2617  -4.1741  -2.9697  -2.5982  -2.5076  -2.4761
    -2.2556  -2.1296  -1.9874  -1.9467  -1.8146  -1.7498  -1.7263  -1.5814
    -1.4242  -1.3678  -1.2452  -1.1063  -0.9672  -0.7717  -0.7270  -0.5661
     0.2732   0.8779   1.5824   1.8089   1.8347   4.1469   4.2514   4.3187
     6.2026   6.3079   6.4251   6.5367   6.6434   6.7627   6.8064   6.8868

     occupation numbers 
     1.0000   1.0000   1.0000   1.0000   1.0000   1.0000   1.0000   1.0000
     1.0000   1.0000   1.0000   1.0000   1.0000   1.0000   1.0000   1.0000
     1.0000   1.0000   1.0000   1.0000   1.0000   1.0000   1.0000   1.0000
     1.0000   1.0000   1.0000   1.0000   1.0000   1.0000   1.0000   1.0000
     1.0000   1.0000   1.0000   1.0000   1.0000   1.0000   1.0000   1.0000
     1.0000   1.0000   1.0000   1.0000   1.0000   1.0000   1.0000   1.0000
     1.0000   1.0000   1.0000   1.0000   1.0000   0.0000   0.0000   0.0000
     0.0000   0.0000   0.0000   0.0000   0.0000   0.0000   0.0000   0.0000

          k = 0.3340-0.3959 0.4152 ( 41037 PWs)   bands (ev):

   -67.9398 -61.6959 -39.2843 -39.2631 -39.2583 -35.5821 -35.5722 -35.5655
   -28.4849 -17.6637 -17.2481 -15.5485 -15.4916 -15.4705 -15.4379 -15.3572
   -15.2420 -11.9394 -11.9334 -11.9139  -5.7453  -5.7191  -5.3936  -5.0306
    -4.3298  -4.3145  -4.2581  -4.1660  -2.8927  -2.6310  -2.5304  -2.4096
    -2.2830  -2.1721  -2.0874  -1.9803  -1.8361  -1.7926  -1.7702  -1.5026
    -1.4553  -1.3531  -1.2941  -1.0758  -0.8874  -0.8162  -0.6465  -0.5683
     0.2945   0.8782   1.5472   1.8532   1.8639   4.2754   4.3050   4.3192
     6.2240   6.2600   6.3469   6.5396   6.5732   6.7129   6.8097   6.8746

     occupation numbers 
     1.0000   1.0000   1.0000   1.0000   1.0000   1.0000   1.0000   1.0000
     1.0000   1.0000   1.0000   1.0000   1.0000   1.0000   1.0000   1.0000
     1.0000   1.0000   1.0000   1.0000   1.0000   1.0000   1.0000   1.0000
     1.0000   1.0000   1.0000   1.0000   1.0000   1.0000   1.0000   1.0000
     1.0000   1.0000   1.0000   1.0000   1.0000   1.0000   1.0000   1.0000
     1.0000   1.0000   1.0000   1.0000   1.0000   1.0000   1.0000   1.0000
     1.0000   1.0000   1.0000   1.0000   1.0000   0.0000   0.0000   0.0000
     0.0000   0.0000   0.0000   0.0000   0.0000   0.0000   0.0000   0.0000

          k = 0.3425-0.3937-0.5537 ( 41038 PWs)   bands (ev):

   -67.9398 -61.6959 -39.2843 -39.2631 -39.2583 -35.5821 -35.5722 -35.5655
   -28.4849 -17.6620 -17.2508 -15.5459 -15.4939 -15.4653 -15.4380 -15.3600
   -15.2434 -11.9394 -11.9337 -11.9135  -5.7252  -5.6422  -5.4826  -5.0780
    -4.3321  -4.3103  -4.2586  -4.1517  -2.8375  -2.6209  -2.5153  -2.3989
    -2.3584  -2.1540  -2.0939  -1.9676  -1.8835  -1.8039  -1.7061  -1.5862
    -1.4111  -1.2977  -1.1757  -1.1544  -0.9165  -0.8294  -0.6631  -0.6120
     0.3008   0.8597   1.6911   1.7756   1.8642   4.2119   4.2524   4.3001
     6.2459   6.2892   6.4424   6.5186   6.5557   6.7166   6.8738   6.9371

     occupation numbers 
     1.0000   1.0000   1.0000   1.0000   1.0000   1.0000   1.0000   1.0000
     1.0000   1.0000   1.0000   1.0000   1.0000   1.0000   1.0000   1.0000
     1.0000   1.0000   1.0000   1.0000   1.0000   1.0000   1.0000   1.0000
     1.0000   1.0000   1.0000   1.0000   1.0000   1.0000   1.0000   1.0000
     1.0000   1.0000   1.0000   1.0000   1.0000   1.0000   1.0000   1.0000
     1.0000   1.0000   1.0000   1.0000   1.0000   1.0000   1.0000   1.0000
     1.0000   1.0000   1.0000   1.0000   1.0000   0.0000   0.0000   0.0000
     0.0000   0.0000   0.0000   0.0000   0.0000   0.0000   0.0000   0.0000

          k = 0.3403-0.3942-0.3115 ( 41069 PWs)   bands (ev):

   -67.9398 -61.6959 -39.2843 -39.2631 -39.2583 -35.5821 -35.5722 -35.5655
   -28.4849 -17.6629 -17.2497 -15.5540 -15.5014 -15.4469 -15.4333 -15.3641
   -15.2463 -11.9395 -11.9345 -11.9134  -5.7244  -5.6506  -5.4223  -5.1660
    -4.3604  -4.2916  -4.2569  -4.1449  -2.8867  -2.6348  -2.5027  -2.4081
    -2.2898  -2.1380  -2.0071  -1.9119  -1.8681  -1.7862  -1.7199  -1.5992
    -1.4191  -1.2683  -1.1967  -1.0525  -0.9557  -0.8787  -0.7343  -0.6562
     0.2839   0.8457   1.7092   1.8102   1.8188   4.0953   4.1861   4.2083
     6.2936   6.3804   6.4383   6.5721   6.6395   6.7985   6.8980   6.9352

     occupation numbers 
     1.0000   1.0000   1.0000   1.0000   1.0000   1.0000   1.0000   1.0000
     1.0000   1.0000   1.0000   1.0000   1.0000   1.0000   1.0000   1.0000
     1.0000   1.0000   1.0000   1.0000   1.0000   1.0000   1.0000   1.0000
     1.0000   1.0000   1.0000   1.0000   1.0000   1.0000   1.0000   1.0000
     1.0000   1.0000   1.0000   1.0000   1.0000   1.0000   1.0000   1.0000
     1.0000   1.0000   1.0000   1.0000   1.0000   1.0000   1.0000   1.0000
     1.0000   1.0000   1.0000   1.0000   1.0000   0.0000   0.0000   0.0000
     0.0000   0.0000   0.0000   0.0000   0.0000   0.0000   0.0000   0.0000

          k =-0.5051 0.2985 0.2055 ( 41088 PWs)   bands (ev):

   -67.9398 -61.6959 -39.2843 -39.2631 -39.2583 -35.5821 -35.5722 -35.5655
   -28.4849 -17.6652 -17.2464 -15.5600 -15.5039 -15.4405 -15.4328 -15.3631
   -15.2466 -11.9395 -11.9345 -11.9136  -5.7193  -5.6238  -5.4496  -5.1887
    -4.3757  -4.2919  -4.2512  -4.1393  -2.8940  -2.6838  -2.5080  -2.3721
    -2.2487  -2.1658  -1.9472  -1.9027  -1.8240  -1.7679  -1.7370  -1.4532
    -1.4038  -1.2715  -1.2148  -1.0923  -1.0568  -0.9288  -0.7747  -0.6339
     0.2650   0.8576   1.7743   1.7896   1.7990   4.0019   4.1171   4.1516
     6.4038   6.4191   6.4821   6.5607   6.5756   6.8019   6.9164   6.9307

     occupation numbers 
     1.0000   1.0000   1.0000   1.0000   1.0000   1.0000   1.0000   1.0000
     1.0000   1.0000   1.0000   1.0000   1.0000   1.0000   1.0000   1.0000
     1.0000   1.0000   1.0000   1.0000   1.0000   1.0000   1.0000   1.0000
     1.0000   1.0000   1.0000   1.0000   1.0000   1.0000   1.0000   1.0000
     1.0000   1.0000   1.0000   1.0000   1.0000   1.0000   1.0000   1.0000
     1.0000   1.0000   1.0000   1.0000   1.0000   1.0000   1.0000   1.0000
     1.0000   1.0000   1.0000   1.0000   1.0000   0.0000   0.0000   0.0000
     0.0000   0.0000   0.0000   0.0000   0.0000   0.0000   0.0000   0.0000

          k =-0.5072 0.2979 0.4477 ( 41048 PWs)   bands (ev):

   -67.9398 -61.6959 -39.2843 -39.2631 -39.2583 -35.5821 -35.5722 -35.5655
   -28.4849 -17.6649 -17.2466 -15.5565 -15.5003 -15.4524 -15.4334 -15.3602
   -15.2446 -11.9395 -11.9341 -11.9138  -5.7428  -5.6726  -5.4107  -5.1135
    -4.3559  -4.2995  -4.2545  -4.1533  -2.9131  -2.6285  -2.5156  -2.4213
    -2.2822  -2.1536  -1.9995  -1.9298  -1.8342  -1.7562  -1.7148  -1.5378
    -1.4239  -1.3153  -1.1938  -1.1580  -0.9709  -0.8423  -0.7322  -0.5992
     0.2756   0.8688   1.6726   1.8083   1.8248   4.1129   4.1952   4.2322
     6.2937   6.3361   6.4542   6.5445   6.6299   6.8015   6.8749   6.9575

     occupation numbers 
     1.0000   1.0000   1.0000   1.0000   1.0000   1.0000   1.0000   1.0000
     1.0000   1.0000   1.0000   1.0000   1.0000   1.0000   1.0000   1.0000
     1.0000   1.0000   1.0000   1.0000   1.0000   1.0000   1.0000   1.0000
     1.0000   1.0000   1.0000   1.0000   1.0000   1.0000   1.0000   1.0000
     1.0000   1.0000   1.0000   1.0000   1.0000   1.0000   1.0000   1.0000
     1.0000   1.0000   1.0000   1.0000   1.0000   1.0000   1.0000   1.0000
     1.0000   1.0000   1.0000   1.0000   1.0000   0.0000   0.0000   0.0000
     0.0000   0.0000   0.0000   0.0000   0.0000   0.0000   0.0000   0.0000

          k =-0.5093 0.2974 0.6899 ( 41034 PWs)   bands (ev):

   -67.9398 -61.6959 -39.2843 -39.2631 -39.2583 -35.5821 -35.5722 -35.5655
   -28.4849 -17.6643 -17.2471 -15.5495 -15.4910 -15.4720 -15.4379 -15.3563
   -15.2415 -11.9394 -11.9332 -11.9140  -5.7767  -5.7285  -5.3549  -5.0037
    -4.3352  -4.3089  -4.2602  -4.1744  -2.9241  -2.6315  -2.5436  -2.4170
    -2.2371  -2.1720  -2.0869  -1.9817  -1.8189  -1.8007  -1.7698  -1.5389
    -1.4594  -1.3823  -1.3190  -1.0256  -0.8902  -0.7958  -0.6363  -0.5496
     0.2922   0.8850   1.4834   1.8633   1.8743   4.2918   4.3403   4.3646
     6.1930   6.2493   6.2939   6.5477   6.5879   6.7079   6.7799   6.8119

     occupation numbers 
     1.0000   1.0000   1.0000   1.0000   1.0000   1.0000   1.0000   1.0000
     1.0000   1.0000   1.0000   1.0000   1.0000   1.0000   1.0000   1.0000
     1.0000   1.0000   1.0000   1.0000   1.0000   1.0000   1.0000   1.0000
     1.0000   1.0000   1.0000   1.0000   1.0000   1.0000   1.0000   1.0000
     1.0000   1.0000   1.0000   1.0000   1.0000   1.0000   1.0000   1.0000
     1.0000   1.0000   1.0000   1.0000   1.0000   1.0000   1.0000   1.0000
     1.0000   1.0000   1.0000   1.0000   1.0000   0.0000   0.0000   0.0000
     0.0000   0.0000   0.0000   0.0000   0.0000   0.0000   0.0000   0.0000

          k =-0.5066 0.4943 0.1377 ( 41074 PWs)   bands (ev):

   -67.9398 -61.6959 -39.2843 -39.2631 -39.2583 -35.5821 -35.5722 -35.5655
   -28.4849 -17.6646 -17.2471 -15.5674 -15.4951 -15.4470 -15.4223 -15.3667
   -15.2484 -11.9391 -11.9345 -11.9139  -5.7583  -5.6383  -5.3640  -5.1949
    -4.3836  -4.2825  -4.2483  -4.1554  -2.9090  -2.6445  -2.5162  -2.4061
    -2.2323  -2.1818  -1.9431  -1.9120  -1.8486  -1.7638  -1.7088  -1.5598
    -1.4224  -1.2827  -1.2441  -1.1311  -0.9626  -0.8888  -0.7335  -0.5967
     0.2552   0.8709   1.6867   1.8132   1.8230   4.0851   4.1743   4.2059
     6.2970   6.3661   6.4755   6.5213   6.6805   6.7960   6.8957   6.9152

     occupation numbers 
     1.0000   1.0000   1.0000   1.0000   1.0000   1.0000   1.0000   1.0000
     1.0000   1.0000   1.0000   1.0000   1.0000   1.0000   1.0000   1.0000
     1.0000   1.0000   1.0000   1.0000   1.0000   1.0000   1.0000   1.0000
     1.0000   1.0000   1.0000   1.0000   1.0000   1.0000   1.0000   1.0000
     1.0000   1.0000   1.0000   1.0000   1.0000   1.0000   1.0000   1.0000
     1.0000   1.0000   1.0000   1.0000   1.0000   1.0000   1.0000   1.0000
     1.0000   1.0000   1.0000   1.0000   1.0000   0.0000   0.0000   0.0000
     0.0000   0.0000   0.0000   0.0000   0.0000   0.0000   0.0000   0.0000

          k =-0.5087 0.4937 0.3800 ( 41061 PWs)   bands (ev):

   -67.9398 -61.6959 -39.2843 -39.2631 -39.2583 -35.5821 -35.5722 -35.5655
   -28.4849 -17.6644 -17.2475 -15.5646 -15.5002 -15.4405 -15.4325 -15.3629
   -15.2454 -11.9396 -11.9344 -11.9140  -5.8060  -5.6766  -5.3338  -5.1203
    -4.3609  -4.3098  -4.2496  -4.1443  -2.9904  -2.6078  -2.5032  -2.3932
    -2.2921  -2.2209  -1.9587  -1.8661  -1.7917  -1.7701  -1.7110  -1.5597
    -1.3952  -1.2352  -1.1643  -1.0782  -1.0463  -0.9330  -0.7320  -0.6241
     0.2562   0.8707   1.7206   1.7387   1.7938   4.0840   4.1738   4.2478
     6.2630   6.3434   6.4445   6.5198   6.6201   6.7526   6.8355   6.9003

     occupation numbers 
     1.0000   1.0000   1.0000   1.0000   1.0000   1.0000   1.0000   1.0000
     1.0000   1.0000   1.0000   1.0000   1.0000   1.0000   1.0000   1.0000
     1.0000   1.0000   1.0000   1.0000   1.0000   1.0000   1.0000   1.0000
     1.0000   1.0000   1.0000   1.0000   1.0000   1.0000   1.0000   1.0000
     1.0000   1.0000   1.0000   1.0000   1.0000   1.0000   1.0000   1.0000
     1.0000   1.0000   1.0000   1.0000   1.0000   1.0000   1.0000   1.0000
     1.0000   1.0000   1.0000   1.0000   1.0000   0.0000   0.0000   0.0000
     0.0000   0.0000   0.0000   0.0000   0.0000   0.0000   0.0000   0.0000

          k =-0.5108 0.4932 0.6222 ( 41062 PWs)   bands (ev):

   -67.9398 -61.6959 -39.2843 -39.2631 -39.2583 -35.5821 -35.5722 -35.5655
   -28.4849 -17.6639 -17.2480 -15.5554 -15.5032 -15.4507 -15.4370 -15.3581
   -15.2419 -11.9397 -11.9337 -11.9143  -5.7955  -5.7209  -5.3542  -5.0301
    -4.3383  -4.3087  -4.2493  -4.1639  -2.9734  -2.6280  -2.4868  -2.3947
    -2.3159  -2.2010  -2.0384  -1.9165  -1.8297  -1.7898  -1.7329  -1.4920
    -1.4264  -1.3115  -1.2650  -1.0813  -0.9160  -0.8352  -0.7012  -0.5914
     0.2728   0.8839   1.5630   1.8263   1.8326   4.2127   4.2270   4.3123
     6.2199   6.2719   6.3839   6.5557   6.6215   6.7367   6.7708   6.8599

     occupation numbers 
     1.0000   1.0000   1.0000   1.0000   1.0000   1.0000   1.0000   1.0000
     1.0000   1.0000   1.0000   1.0000   1.0000   1.0000   1.0000   1.0000
     1.0000   1.0000   1.0000   1.0000   1.0000   1.0000   1.0000   1.0000
     1.0000   1.0000   1.0000   1.0000   1.0000   1.0000   1.0000   1.0000
     1.0000   1.0000   1.0000   1.0000   1.0000   1.0000   1.0000   1.0000
     1.0000   1.0000   1.0000   1.0000   1.0000   1.0000   1.0000   1.0000
     1.0000   1.0000   1.0000   1.0000   1.0000   0.0000   0.0000   0.0000
     0.0000   0.0000   0.0000   0.0000   0.0000   0.0000   0.0000   0.0000

          k =-0.5023 0.4954-0.3467 ( 41032 PWs)   bands (ev):

   -67.9398 -61.6959 -39.2843 -39.2631 -39.2583 -35.5821 -35.5722 -35.5655
   -28.4849 -17.6638 -17.2479 -15.5537 -15.4940 -15.4684 -15.4303 -15.3585
   -15.2429 -11.9392 -11.9334 -11.9142  -5.7359  -5.7153  -5.4126  -5.0357
    -4.3269  -4.3028  -4.2500  -4.1793  -2.8788  -2.6491  -2.5516  -2.4165
    -2.1950  -2.1675  -2.0838  -1.9971  -1.8442  -1.8028  -1.7661  -1.5541
    -1.4693  -1.3432  -1.2783  -1.0633  -0.9950  -0.7332  -0.6308  -0.5583
     0.2813   0.8918   1.5621   1.8293   1.8788   4.2268   4.2986   4.3637
     6.2163   6.2547   6.3764   6.5242   6.5768   6.7337   6.8197   6.8807

     occupation numbers 
     1.0000   1.0000   1.0000   1.0000   1.0000   1.0000   1.0000   1.0000
     1.0000   1.0000   1.0000   1.0000   1.0000   1.0000   1.0000   1.0000
     1.0000   1.0000   1.0000   1.0000   1.0000   1.0000   1.0000   1.0000
     1.0000   1.0000   1.0000   1.0000   1.0000   1.0000   1.0000   1.0000
     1.0000   1.0000   1.0000   1.0000   1.0000   1.0000   1.0000   1.0000
     1.0000   1.0000   1.0000   1.0000   1.0000   1.0000   1.0000   1.0000
     1.0000   1.0000   1.0000   1.0000   1.0000   0.0000   0.0000   0.0000
     0.0000   0.0000   0.0000   0.0000   0.0000   0.0000   0.0000   0.0000

          k =-0.5045 0.4948-0.1045 ( 41066 PWs)   bands (ev):

   -67.9398 -61.6959 -39.2843 -39.2631 -39.2583 -35.5821 -35.5722 -35.5655
   -28.4849 -17.6642 -17.2473 -15.5619 -15.4872 -15.4659 -15.4228 -15.3634
   -15.2468 -11.9389 -11.9339 -11.9140  -5.7261  -5.6260  -5.4629  -5.1187
    -4.3595  -4.2878  -4.2407  -4.1763  -2.8398  -2.6220  -2.5576  -2.4657
    -2.1952  -2.1315  -2.0342  -1.9759  -1.8769  -1.7526  -1.7148  -1.6259
    -1.4815  -1.2916  -1.2521  -1.1414  -1.0475  -0.7231  -0.6697  -0.5583
     0.2707   0.8843   1.7198   1.7433   1.8677   4.1655   4.2117   4.3348
     6.2359   6.2945   6.4794   6.5305   6.6112   6.7597   6.8905   6.9296

     occupation numbers 
     1.0000   1.0000   1.0000   1.0000   1.0000   1.0000   1.0000   1.0000
     1.0000   1.0000   1.0000   1.0000   1.0000   1.0000   1.0000   1.0000
     1.0000   1.0000   1.0000   1.0000   1.0000   1.0000   1.0000   1.0000
     1.0000   1.0000   1.0000   1.0000   1.0000   1.0000   1.0000   1.0000
     1.0000   1.0000   1.0000   1.0000   1.0000   1.0000   1.0000   1.0000
     1.0000   1.0000   1.0000   1.0000   1.0000   1.0000   1.0000   1.0000
     1.0000   1.0000   1.0000   1.0000   1.0000   0.0000   0.0000   0.0000
     0.0000   0.0000   0.0000   0.0000   0.0000   0.0000   0.0000   0.0000

          k =-0.5081 0.6901 0.0700 ( 41124 PWs)   bands (ev):

   -67.9398 -61.6959 -39.2843 -39.2631 -39.2583 -35.5821 -35.5722 -35.5655
   -28.4849 -17.6634 -17.2486 -15.5782 -15.4858 -15.4437 -15.4117 -15.3758
   -15.2522 -11.9382 -11.9345 -11.9143  -5.8218  -5.6343  -5.2484  -5.1908
    -4.3989  -4.2838  -4.2444  -4.1744  -2.9211  -2.6160  -2.5241  -2.4551
    -2.2191  -2.1396  -1.9802  -1.9301  -1.8678  -1.7902  -1.7264  -1.5776
    -1.4365  -1.4180  -1.3544  -1.0681  -0.8943  -0.7980  -0.6303  -0.5475
     0.2375   0.8955   1.5126   1.8593   1.8757   4.2574   4.2896   4.3200
     6.1744   6.2665   6.3524   6.5988   6.6452   6.7694   6.8259   6.8624

     occupation numbers 
     1.0000   1.0000   1.0000   1.0000   1.0000   1.0000   1.0000   1.0000
     1.0000   1.0000   1.0000   1.0000   1.0000   1.0000   1.0000   1.0000
     1.0000   1.0000   1.0000   1.0000   1.0000   1.0000   1.0000   1.0000
     1.0000   1.0000   1.0000   1.0000   1.0000   1.0000   1.0000   1.0000
     1.0000   1.0000   1.0000   1.0000   1.0000   1.0000   1.0000   1.0000
     1.0000   1.0000   1.0000   1.0000   1.0000   1.0000   1.0000   1.0000
     1.0000   1.0000   1.0000   1.0000   1.0000   0.0000   0.0000   0.0000
     0.0000   0.0000   0.0000   0.0000   0.0000   0.0000   0.0000   0.0000

          k =-0.5102 0.6895 0.3122 ( 41077 PWs)   bands (ev):

   -67.9398 -61.6959 -39.2843 -39.2631 -39.2583 -35.5821 -35.5722 -35.5655
   -28.4849 -17.6633 -17.2491 -15.5747 -15.4970 -15.4366 -15.4185 -15.3702
   -15.2484 -11.9391 -11.9346 -11.9144  -5.8370  -5.6612  -5.2963  -5.1326
    -4.3593  -4.3144  -4.2340  -4.1631  -2.9954  -2.6134  -2.4955  -2.3851
    -2.3107  -2.2044  -1.9240  -1.8608  -1.8259  -1.7705  -1.7112  -1.6314
    -1.4009  -1.2406  -1.2303  -1.0857  -0.9884  -0.8556  -0.7340  -0.5872
     0.2320   0.8881   1.6020   1.8065   1.8179   4.1371   4.1998   4.2800
     6.2122   6.2833   6.4591   6.5432   6.6015   6.7494   6.7993   6.8869

     occupation numbers 
     1.0000   1.0000   1.0000   1.0000   1.0000   1.0000   1.0000   1.0000
     1.0000   1.0000   1.0000   1.0000   1.0000   1.0000   1.0000   1.0000
     1.0000   1.0000   1.0000   1.0000   1.0000   1.0000   1.0000   1.0000
     1.0000   1.0000   1.0000   1.0000   1.0000   1.0000   1.0000   1.0000
     1.0000   1.0000   1.0000   1.0000   1.0000   1.0000   1.0000   1.0000
     1.0000   1.0000   1.0000   1.0000   1.0000   1.0000   1.0000   1.0000
     1.0000   1.0000   1.0000   1.0000   1.0000   0.0000   0.0000   0.0000
     0.0000   0.0000   0.0000   0.0000   0.0000   0.0000   0.0000   0.0000

          k =-0.5123 0.6890 0.5544 ( 41046 PWs)   bands (ev):

   -67.9398 -61.6959 -39.2843 -39.2631 -39.2583 -35.5821 -35.5722 -35.5655
   -28.4849 -17.6630 -17.2497 -15.5637 -15.5110 -15.4325 -15.4304 -15.3629
   -15.2438 -11.9397 -11.9343 -11.9147  -5.7817  -5.6961  -5.4045  -5.0847
    -4.3362  -4.3147  -4.2206  -4.1586  -2.9691  -2.6659  -2.4717  -2.3644
    -2.2738  -2.2377  -1.9590  -1.8949  -1.8474  -1.7693  -1.7085  -1.5391
    -1.3611  -1.1909  -1.1570  -1.1032  -1.0380  -0.9409  -0.7482  -0.6193
     0.2407   0.8881   1.7229   1.7552   1.7958   4.0777   4.1261   4.2072
     6.2893   6.3610   6.4875   6.5037   6.6300   6.7167   6.8344   6.9082

     occupation numbers 
     1.0000   1.0000   1.0000   1.0000   1.0000   1.0000   1.0000   1.0000
     1.0000   1.0000   1.0000   1.0000   1.0000   1.0000   1.0000   1.0000
     1.0000   1.0000   1.0000   1.0000   1.0000   1.0000   1.0000   1.0000
     1.0000   1.0000   1.0000   1.0000   1.0000   1.0000   1.0000   1.0000
     1.0000   1.0000   1.0000   1.0000   1.0000   1.0000   1.0000   1.0000
     1.0000   1.0000   1.0000   1.0000   1.0000   1.0000   1.0000   1.0000
     1.0000   1.0000   1.0000   1.0000   1.0000   0.0000   0.0000   0.0000
     0.0000   0.0000   0.0000   0.0000   0.0000   0.0000   0.0000   0.0000

          k =-0.5039 0.6912-0.4144 ( 41071 PWs)   bands (ev):

   -67.9398 -61.6959 -39.2843 -39.2631 -39.2583 -35.5821 -35.5722 -35.5655
   -28.4849 -17.6629 -17.2496 -15.5620 -15.5073 -15.4464 -15.4219 -15.3632
   -15.2447 -11.9392 -11.9340 -11.9147  -5.7371  -5.6459  -5.4968  -5.0846
    -4.3363  -4.2942  -4.2216  -4.1790  -2.8738  -2.6877  -2.4922  -2.4220
    -2.2094  -2.1540  -2.0565  -1.9600  -1.8641  -1.7604  -1.7158  -1.5833
    -1.4375  -1.2279  -1.1908  -1.1423  -1.0665  -0.7726  -0.7098  -0.5855
     0.2505   0.8969   1.7221   1.7581   1.8417   4.0992   4.1854   4.2501
     6.2827   6.3340   6.4845   6.5307   6.5928   6.7957   6.8663   6.9178

     occupation numbers 
     1.0000   1.0000   1.0000   1.0000   1.0000   1.0000   1.0000   1.0000
     1.0000   1.0000   1.0000   1.0000   1.0000   1.0000   1.0000   1.0000
     1.0000   1.0000   1.0000   1.0000   1.0000   1.0000   1.0000   1.0000
     1.0000   1.0000   1.0000   1.0000   1.0000   1.0000   1.0000   1.0000
     1.0000   1.0000   1.0000   1.0000   1.0000   1.0000   1.0000   1.0000
     1.0000   1.0000   1.0000   1.0000   1.0000   1.0000   1.0000   1.0000
     1.0000   1.0000   1.0000   1.0000   1.0000   0.0000   0.0000   0.0000
     0.0000   0.0000   0.0000   0.0000   0.0000   0.0000   0.0000   0.0000

          k =-0.5060 0.6906-0.1722 ( 41096 PWs)   bands (ev):

   -67.9398 -61.6959 -39.2843 -39.2631 -39.2583 -35.5821 -35.5722 -35.5655
   -28.4849 -17.6631 -17.2489 -15.5722 -15.4879 -15.4533 -15.4136 -15.3704
   -15.2499 -11.9383 -11.9341 -11.9144  -5.7635  -5.6318  -5.3987  -5.1280
    -4.3660  -4.2935  -4.2275  -4.1847  -2.8512  -2.6164  -2.5773  -2.4485
    -2.1814  -2.1314  -1.9882  -1.9617  -1.9373  -1.7785  -1.7296  -1.5891
    -1.5262  -1.3336  -1.2953  -1.1097  -1.0105  -0.7014  -0.6191  -0.5506
     0.2483   0.9011   1.6061   1.8168   1.8815   4.2105   4.2480   4.3732
     6.1866   6.2934   6.3813   6.5748   6.5833   6.7556   6.8457   6.9068

     occupation numbers 
     1.0000   1.0000   1.0000   1.0000   1.0000   1.0000   1.0000   1.0000
     1.0000   1.0000   1.0000   1.0000   1.0000   1.0000   1.0000   1.0000
     1.0000   1.0000   1.0000   1.0000   1.0000   1.0000   1.0000   1.0000
     1.0000   1.0000   1.0000   1.0000   1.0000   1.0000   1.0000   1.0000
     1.0000   1.0000   1.0000   1.0000   1.0000   1.0000   1.0000   1.0000
     1.0000   1.0000   1.0000   1.0000   1.0000   1.0000   1.0000   1.0000
     1.0000   1.0000   1.0000   1.0000   1.0000   0.0000   0.0000   0.0000
     0.0000   0.0000   0.0000   0.0000   0.0000   0.0000   0.0000   0.0000

          k =-0.5005-0.2890 0.4087 ( 41084 PWs)   bands (ev):

   -67.9398 -61.6959 -39.2843 -39.2631 -39.2583 -35.5821 -35.5722 -35.5655
   -28.4849 -17.6628 -17.2494 -15.5825 -15.4845 -15.4365 -15.4079 -15.3819
   -15.2541 -11.9378 -11.9345 -11.9144  -5.8475  -5.6293  -5.2352  -5.1476
    -4.4071  -4.3031  -4.2413  -4.1717  -2.9229  -2.6173  -2.5467  -2.4567
    -2.1856  -2.0951  -2.0364  -1.9460  -1.8738  -1.8311  -1.6685  -1.5880
    -1.4891  -1.4824  -1.3959  -0.9876  -0.9099  -0.7598  -0.5710  -0.5297
     0.2295   0.9071   1.4259   1.8823   1.9025   4.3320   4.3656   4.3810
     6.1256   6.2072   6.2961   6.5588   6.6418   6.7451   6.7724   6.8059

     occupation numbers 
     1.0000   1.0000   1.0000   1.0000   1.0000   1.0000   1.0000   1.0000
     1.0000   1.0000   1.0000   1.0000   1.0000   1.0000   1.0000   1.0000
     1.0000   1.0000   1.0000   1.0000   1.0000   1.0000   1.0000   1.0000
     1.0000   1.0000   1.0000   1.0000   1.0000   1.0000   1.0000   1.0000
     1.0000   1.0000   1.0000   1.0000   1.0000   1.0000   1.0000   1.0000
     1.0000   1.0000   1.0000   1.0000   1.0000   1.0000   1.0000   1.0000
     1.0000   1.0000   1.0000   1.0000   1.0000   0.0000   0.0000   0.0000
     0.0000   0.0000   0.0000   0.0000   0.0000   0.0000   0.0000   0.0000

          k =-0.5026-0.2895 0.6509 ( 41113 PWs)   bands (ev):

   -67.9398 -61.6959 -39.2843 -39.2631 -39.2583 -35.5821 -35.5722 -35.5655
   -28.4849 -17.6626 -17.2498 -15.5776 -15.4940 -15.4373 -15.4116 -15.3749
   -15.2507 -11.9384 -11.9345 -11.9146  -5.8173  -5.6452  -5.3217  -5.1342
    -4.3571  -4.3145  -4.2246  -4.1806  -2.9283  -2.6307  -2.5023  -2.4497
    -2.2448  -2.1368  -1.9629  -1.9096  -1.8790  -1.8027  -1.7305  -1.5886
    -1.4640  -1.3510  -1.3003  -1.0584  -0.9541  -0.7589  -0.6725  -0.5543
     0.2289   0.9031   1.5358   1.8507   1.8655   4.2205   4.2697   4.2800
     6.1875   6.2876   6.3753   6.5603   6.6648   6.7808   6.7977   6.9095

     occupation numbers 
     1.0000   1.0000   1.0000   1.0000   1.0000   1.0000   1.0000   1.0000
     1.0000   1.0000   1.0000   1.0000   1.0000   1.0000   1.0000   1.0000
     1.0000   1.0000   1.0000   1.0000   1.0000   1.0000   1.0000   1.0000
     1.0000   1.0000   1.0000   1.0000   1.0000   1.0000   1.0000   1.0000
     1.0000   1.0000   1.0000   1.0000   1.0000   1.0000   1.0000   1.0000
     1.0000   1.0000   1.0000   1.0000   1.0000   1.0000   1.0000   1.0000
     1.0000   1.0000   1.0000   1.0000   1.0000   0.0000   0.0000   0.0000
     0.0000   0.0000   0.0000   0.0000   0.0000   0.0000   0.0000   0.0000

          k =-0.5048-0.2901 0.8931 ( 41058 PWs)   bands (ev):

   -67.9398 -61.6959 -39.2843 -39.2631 -39.2583 -35.5821 -35.5722 -35.5655
   -28.4849 -17.6625 -17.2505 -15.5664 -15.5131 -15.4321 -15.4210 -15.3660
   -15.2453 -11.9395 -11.9345 -11.9149  -5.7544  -5.6488  -5.4848  -5.1078
    -4.3388  -4.3061  -4.2056  -4.1696  -2.9118  -2.7085  -2.4775  -2.3614
    -2.2722  -2.1636  -1.9661  -1.9131  -1.8393  -1.7816  -1.7397  -1.5407
    -1.3426  -1.1996  -1.1807  -1.1171  -1.0428  -0.9084  -0.7667  -0.6138
     0.2293   0.8943   1.7197   1.7992   1.8068   4.0253   4.1268   4.1481
     6.3384   6.4067   6.4871   6.5395   6.5998   6.7410   6.8500   6.9157

     occupation numbers 
     1.0000   1.0000   1.0000   1.0000   1.0000   1.0000   1.0000   1.0000
     1.0000   1.0000   1.0000   1.0000   1.0000   1.0000   1.0000   1.0000
     1.0000   1.0000   1.0000   1.0000   1.0000   1.0000   1.0000   1.0000
     1.0000   1.0000   1.0000   1.0000   1.0000   1.0000   1.0000   1.0000
     1.0000   1.0000   1.0000   1.0000   1.0000   1.0000   1.0000   1.0000
     1.0000   1.0000   1.0000   1.0000   1.0000   1.0000   1.0000   1.0000
     1.0000   1.0000   1.0000   1.0000   1.0000   0.0000   0.0000   0.0000
     0.0000   0.0000   0.0000   0.0000   0.0000   0.0000   0.0000   0.0000

     the Fermi energy is     2.9318 ev
     (compare with:     2.9322 eV, computed in scf)

     Writing all to output data dir /tmp/scratch/KVCr_2H2O_LCM/KVCr_2H2O_LCM.save/ :
     XML data file, pseudopotentials, collected wavefunctions

     init_run     :      4.69s CPU      4.91s WALL (       1 calls)
     electrons    :    303.44s CPU    316.14s WALL (       1 calls)

     Called by init_run:
     wfcinit      :      1.88s CPU      2.00s WALL (       1 calls)
     wfcinit:atom :      0.17s CPU      0.17s WALL (       6 calls)
     wfcinit:wfcr :      7.28s CPU      7.52s WALL (       6 calls)
     potinit      :      0.84s CPU      0.89s WALL (       1 calls)
     hinit0       :      1.71s CPU      1.76s WALL (       1 calls)

     Called by electrons:
     c_bands      :    303.16s CPU    315.84s WALL (       1 calls)
     v_of_rho     :      0.75s CPU      0.80s WALL (       1 calls)
     v_h          :      0.01s CPU      0.01s WALL (       1 calls)
     v_xc         :      0.74s CPU      0.79s WALL (       1 calls)

     Called by c_bands:
     init_us_2    :      0.54s CPU      0.58s WALL (      12 calls)
     cegterg      :    255.95s CPU    266.38s WALL (      28 calls)

     Called by sum_band:

     Called by *egterg:
     cdiaghg      :      1.63s CPU      1.84s WALL (     523 calls)
     cegterg:over :     24.55s CPU     25.65s WALL (     517 calls)
     cegterg:upda :     14.71s CPU     15.49s WALL (     517 calls)
     cegterg:last :     26.08s CPU     27.21s WALL (     264 calls)
     h_psi        :    189.58s CPU    196.85s WALL (     551 calls)
     g_psi        :      2.83s CPU      2.94s WALL (     517 calls)

     Called by h_psi:
     h_psi:calbec :     23.09s CPU     24.17s WALL (     551 calls)
     vloc_psi     :    140.15s CPU    145.12s WALL (     551 calls)
                                        0.00s GPU  (     551 calls)
     add_vuspsi   :     21.68s CPU     22.71s WALL (     551 calls)
     vhpsi        :      3.59s CPU      3.73s WALL (     551 calls)

     General routines
     calbec       :     25.71s CPU     26.96s WALL (    1108 calls)
     fft          :      0.64s CPU      0.65s WALL (      19 calls)
     fftw         :    122.66s CPU    127.74s WALL (   31926 calls)

     Parallel routines

     Hubbard U routines
     vhpsi        :      3.59s CPU      3.73s WALL (     551 calls)

     PWSCF        :   5m 8.94s CPU   5m22.98s WALL


   This run was terminated on:  13:40:14   3Oct2026            

=------------------------------------------------------------------------------=
   JOB DONE.
=------------------------------------------------------------------------------=
