
     Program PWSCF v.7.5 starts on  2Oct2026 at  7:41:30 

     This program is part of the open-source Quantum ESPRESSO suite
     for quantum simulation of materials; please cite
         "P. Giannozzi et al., J. Phys.:Condens. Matter 21 395502 (2009);
         "P. Giannozzi et al., J. Phys.:Condens. Matter 29 465901 (2017);
         "P. Giannozzi et al., J. Chem. Phys. 152 154105 (2020);
          URL http://www.quantum-espresso.org", 
     in publications or presentations arising from this work. More details at
     http://www.quantum-espresso.org/quote

     Parallel version (MPI & OpenMP), running on      32 processor cores
     Number of MPI processes:                32
     Threads/MPI process:                     1

     MPI processes distributed on     1 nodes
     695483 MiB available memory on the printing compute node when the environment starts

     Reading input from single.in

     Current dimensions of program PWSCF are:
     Max number of different atomic species (ntypx) = 10
     Max number of k-points (npk) =  40000
     Max angular momentum in pseudopotentials (lmaxx) =  4
     Message from routine setup:
     using ibrav=0 with symmetry is DISCOURAGED, use correct ibrav instead

     K-points division:     npool     =      16
     R & G space division:  proc/nbgrp/npool/nimage =       2
     Subspace diagonalization in iterative solution of the eigenvalue problem:
     a serial algorithm will be used


     Parallelization info
     --------------------
     sticks:   dense  smooth     PW     G-vecs:    dense   smooth      PW
     Min        1648    1648    442               192138   192138   27394
     Max        1649    1649    443               192141   192141   27405
     Sum        3297    3297    885               384279   384279   54799

     Using Slab Decomposition



     bravais-lattice index     =            0
     lattice parameter (alat)  =      10.7051  a.u.
     unit-cell volume          =    3330.2042 (a.u.)^3
     number of atoms/cell      =           36
     number of atomic types    =            7
     number of electrons       =       328.00
     number of Kohn-Sham states=          197
     kinetic-energy cutoff     =      90.0000  Ry
     charge density cutoff     =     360.0000  Ry
     scf convergence threshold =      3.6E-07
     mixing beta               =       0.3000
     number of iterations used =            8  local-TF  mixing
     Exchange-correlation= PBE
                           (   1   4   3   4   0   0   0)

     celldm(1)=  10.705124  celldm(2)=   0.000000  celldm(3)=   0.000000
     celldm(4)=   0.000000  celldm(5)=   0.000000  celldm(6)=   0.000000

     crystal axes: (cart. coord. in units of alat)
               a(1) = (   1.000000   0.000000   0.000000 )  
               a(2) = (   0.000000   1.000000   0.000000 )  
               a(3) = (   0.000000   0.000000   2.714537 )  

     reciprocal axes: (cart. coord. in units 2 pi/alat)
               b(1) = (  1.000000  0.000000  0.000000 )  
               b(2) = (  0.000000  1.000000  0.000000 )  
               b(3) = (  0.000000  0.000000  0.368387 )  


     PseudoPot. # 1 for Ba read from file:
     /data/pseudo/dojo_sr/Ba.upf
     MD5 check sum: d1993ebf099ea5c29fdb9ecc5bd2bc91
     Pseudo is Norm-conserving + core correction, Zval = 10.0
     Generated using ONCVPSP code by D. R. Hamann
     Using radial grid of 1958 points,  6 beta functions with: 
                l(1) =   0
                l(2) =   0
                l(3) =   1
                l(4) =   1
                l(5) =   2
                l(6) =   2

     PseudoPot. # 2 for Y  read from file:
     /data/pseudo/dojo_sr/Y.upf
     MD5 check sum: 28b7a77fe5d3539441de961898735449
     Pseudo is Norm-conserving + core correction, Zval = 11.0
     Generated using ONCVPSP code by D. R. Hamann
     Using radial grid of 1766 points,  6 beta functions with: 
                l(1) =   0
                l(2) =   0
                l(3) =   1
                l(4) =   1
                l(5) =   2
                l(6) =   2

     PseudoPot. # 3 for Mn read from file:
     /data/pseudo/dojo_sr/Mn.upf
     MD5 check sum: ae71e1481ef25a952ba54bed1e0db183
     Pseudo is Norm-conserving + core correction, Zval = 15.0
     Generated using ONCVPSP code by D. R. Hamann
     Using radial grid of 1464 points,  6 beta functions with: 
                l(1) =   0
                l(2) =   0
                l(3) =   1
                l(4) =   1
                l(5) =   2
                l(6) =   2

     PseudoPot. # 4 for Mn read from file:
     /data/pseudo/dojo_sr/Mn.upf
     MD5 check sum: ae71e1481ef25a952ba54bed1e0db183
     Pseudo is Norm-conserving + core correction, Zval = 15.0
     Generated using ONCVPSP code by D. R. Hamann
     Using radial grid of 1464 points,  6 beta functions with: 
                l(1) =   0
                l(2) =   0
                l(3) =   1
                l(4) =   1
                l(5) =   2
                l(6) =   2

     PseudoPot. # 5 for Fe read from file:
     /data/pseudo/dojo_sr/Fe.upf
     MD5 check sum: a5f07f5dca5be6cacb81ceb54992e4ae
     Pseudo is Norm-conserving + core correction, Zval = 16.0
     Generated using ONCVPSP code by D. R. Hamann
     Using radial grid of 1426 points,  6 beta functions with: 
                l(1) =   0
                l(2) =   0
                l(3) =   1
                l(4) =   1
                l(5) =   2
                l(6) =   2

     PseudoPot. # 6 for Fe read from file:
     /data/pseudo/dojo_sr/Fe.upf
     MD5 check sum: a5f07f5dca5be6cacb81ceb54992e4ae
     Pseudo is Norm-conserving + core correction, Zval = 16.0
     Generated using ONCVPSP code by D. R. Hamann
     Using radial grid of 1426 points,  6 beta functions with: 
                l(1) =   0
                l(2) =   0
                l(3) =   1
                l(4) =   1
                l(5) =   2
                l(6) =   2

     PseudoPot. # 7 for O  read from file:
     /data/pseudo/dojo_sr/O.upf
     MD5 check sum: 3e3f909f7470e8921608ab6b1f57bbae
     Pseudo is Norm-conserving + core correction, Zval =  6.0
     Generated using ONCVPSP code by D. R. Hamann
     Using radial grid of  936 points,  5 beta functions with: 
                l(1) =   0
                l(2) =   0
                l(3) =   1
                l(4) =   1
                l(5) =   2

     atomic species   valence    mass     pseudopotential
     Ba               10.00   137.32700     Ba( 1.00)
     Y                11.00    88.90580     Y ( 1.00)
     Mn               15.00    54.93800     Mn( 1.00)
     Mn1              15.00    54.93800     Mn( 1.00)
     Fe               16.00    55.84500     Fe( 1.00)
     Fe1              16.00    55.84500     Fe( 1.00)
     O                 6.00    15.99900     O ( 1.00)

     Starting magnetic structure 
     atomic species   magnetization
     Ba              0.000
     Y               0.000
     Mn              0.300
     Mn1            -0.300
     Fe             -0.263
     Fe1             0.263
     O               0.000

      8 Sym. Ops., with inversion, found ( 4 have fractional translation)


                                    s                        frac. trans.

      isym =  1     identity                                     

 cryst.   s( 1) = (     1          0          0      )
                  (     0          1          0      )
                  (     0          0          1      )

 cart.    s( 1) = (  1.0000000  0.0000000  0.0000000 )
                  (  0.0000000  1.0000000  0.0000000 )
                  (  0.0000000  0.0000000  1.0000000 )


      isym =  2     180 deg rotation - cart. axis [0,0,1]        

 cryst.   s( 2) = (    -1          0          0      )
                  (     0         -1          0      )
                  (     0          0          1      )

 cart.    s( 2) = ( -1.0000000  0.0000000  0.0000000 )
                  (  0.0000000 -1.0000000  0.0000000 )
                  (  0.0000000  0.0000000  1.0000000 )


      isym =  3      90 deg rotation - cart. axis [0,0,-1]       

 cryst.   s( 3) = (     0         -1          0      )    f =( -0.5000000 )
                  (     1          0          0      )       (  0.5000000 )
                  (     0          0          1      )       (  0.0000000 )

 cart.    s( 3) = (  0.0000000  1.0000000  0.0000000 )    f =( -0.5000000 )
                  ( -1.0000000  0.0000000  0.0000000 )       (  0.5000000 )
                  (  0.0000000  0.0000000  1.0000000 )       (  0.0000000 )


      isym =  4      90 deg rotation - cart. axis [0,0,1]        

 cryst.   s( 4) = (     0          1          0      )    f =(  0.5000000 )
                  (    -1          0          0      )       ( -0.5000000 )
                  (     0          0          1      )       (  0.0000000 )

 cart.    s( 4) = (  0.0000000 -1.0000000  0.0000000 )    f =(  0.5000000 )
                  (  1.0000000  0.0000000  0.0000000 )       ( -0.5000000 )
                  (  0.0000000  0.0000000  1.0000000 )       (  0.0000000 )


      isym =  5     inversion                                    

 cryst.   s( 5) = (    -1          0          0      )    f =(  0.5000000 )
                  (     0         -1          0      )       (  0.5000000 )
                  (     0          0         -1      )       (  0.0000000 )

 cart.    s( 5) = ( -1.0000000  0.0000000  0.0000000 )    f =(  0.5000000 )
                  (  0.0000000 -1.0000000  0.0000000 )       (  0.5000000 )
                  (  0.0000000  0.0000000 -1.0000000 )       (  0.0000000 )


      isym =  6     inv. 180 deg rotation - cart. axis [0,0,1]   

 cryst.   s( 6) = (     1          0          0      )    f =( -0.5000000 )
                  (     0          1          0      )       ( -0.5000000 )
                  (     0          0         -1      )       (  0.0000000 )

 cart.    s( 6) = (  1.0000000  0.0000000  0.0000000 )    f =( -0.5000000 )
                  (  0.0000000  1.0000000  0.0000000 )       ( -0.5000000 )
                  (  0.0000000  0.0000000 -1.0000000 )       (  0.0000000 )


      isym =  7     inv.  90 deg rotation - cart. axis [0,0,-1]  

 cryst.   s( 7) = (     0          1          0      )
                  (    -1          0          0      )
                  (     0          0         -1      )

 cart.    s( 7) = (  0.0000000 -1.0000000  0.0000000 )
                  (  1.0000000  0.0000000  0.0000000 )
                  (  0.0000000  0.0000000 -1.0000000 )


      isym =  8     inv.  90 deg rotation - cart. axis [0,0,1]   

 cryst.   s( 8) = (     0         -1          0      )
                  (     1          0          0      )
                  (     0          0         -1      )

 cart.    s( 8) = (  0.0000000  1.0000000  0.0000000 )
                  ( -1.0000000  0.0000000  0.0000000 )
                  (  0.0000000  0.0000000 -1.0000000 )


   Cartesian axes

     site n.     atom                  positions (alat units)
         1        Ba     tau(   1) = (   0.0000000   0.0000000   0.0000000  )
         2        Ba     tau(   2) = (   0.0000000   0.0000000   1.3572685  )
         3        Ba     tau(   3) = (   0.5000000   0.5000000   0.0000000  )
         4        Ba     tau(   4) = (   0.5000000   0.5000000   1.3572685  )
         5        Y      tau(   5) = (   0.0000000   0.0000000   0.6786343  )
         6        Y      tau(   6) = (   0.0000000   0.0000000   2.0359028  )
         7        Y      tau(   7) = (   0.5000000   0.5000000   0.6786343  )
         8        Y      tau(   8) = (   0.5000000   0.5000000   2.0359028  )
         9        Mn     tau(   9) = (   0.0000000   0.5000000   0.3541496  )
        10        Mn1    tau(  10) = (   0.0000000   0.5000000   1.7114181  )
        11        Mn1    tau(  11) = (   0.5000000   0.0000000   1.0031189  )
        12        Mn     tau(  12) = (   0.5000000   0.0000000   2.3603874  )
        13        Fe     tau(  13) = (   0.5000000   0.0000000   0.3505554  )
        14        Fe1    tau(  14) = (   0.5000000   0.0000000   1.7078239  )
        15        Fe1    tau(  15) = (   0.0000000   0.5000000   1.0067131  )
        16        Fe     tau(  16) = (   0.0000000   0.5000000   2.3639816  )
        17        O      tau(  17) = (   0.5000000   0.0000000   0.0118988  )
        18        O      tau(  18) = (   0.5000000   0.0000000   1.3691674  )
        19        O      tau(  19) = (   0.0000000   0.5000000   1.3453697  )
        20        O      tau(  20) = (   0.0000000   0.5000000   2.7026382  )
        21        O      tau(  21) = (   0.2144487   0.2287493   0.9307969  )
        22        O      tau(  22) = (   0.2144487   0.2287493   2.2880654  )
        23        O      tau(  23) = (   0.7855513   0.7712507   0.9307969  )
        24        O      tau(  24) = (   0.7855513   0.7712507   2.2880654  )
        25        O      tau(  25) = (   0.2712507   0.7144487   0.9307969  )
        26        O      tau(  26) = (   0.2712507   0.7144487   2.2880654  )
        27        O      tau(  27) = (   0.7287493   0.2855513   0.9307969  )
        28        O      tau(  28) = (   0.7287493   0.2855513   2.2880654  )
        29        O      tau(  29) = (   0.2855513   0.2712507   0.4264716  )
        30        O      tau(  30) = (   0.2855513   0.2712507   1.7837401  )
        31        O      tau(  31) = (   0.7144487   0.7287493   0.4264716  )
        32        O      tau(  32) = (   0.7144487   0.7287493   1.7837401  )
        33        O      tau(  33) = (   0.2287493   0.7855513   0.4264716  )
        34        O      tau(  34) = (   0.2287493   0.7855513   1.7837401  )
        35        O      tau(  35) = (   0.7712507   0.2144487   0.4264716  )
        36        O      tau(  36) = (   0.7712507   0.2144487   1.7837401  )

   Crystallographic axes

     site n.     atom                  positions (cryst. coord.)
         1        Ba     tau(   1) = (  0.0000000  0.0000000  0.0000000  )
         2        Ba     tau(   2) = (  0.0000000  0.0000000  0.5000000  )
         3        Ba     tau(   3) = (  0.5000000  0.5000000  0.0000000  )
         4        Ba     tau(   4) = (  0.5000000  0.5000000  0.5000000  )
         5        Y      tau(   5) = (  0.0000000  0.0000000  0.2500000  )
         6        Y      tau(   6) = (  0.0000000  0.0000000  0.7500000  )
         7        Y      tau(   7) = (  0.5000000  0.5000000  0.2500000  )
         8        Y      tau(   8) = (  0.5000000  0.5000000  0.7500000  )
         9        Mn     tau(   9) = (  0.0000000  0.5000000  0.1304641  )
        10        Mn1    tau(  10) = (  0.0000000  0.5000000  0.6304641  )
        11        Mn1    tau(  11) = (  0.5000000  0.0000000  0.3695359  )
        12        Mn     tau(  12) = (  0.5000000  0.0000000  0.8695359  )
        13        Fe     tau(  13) = (  0.5000000  0.0000000  0.1291400  )
        14        Fe1    tau(  14) = (  0.5000000  0.0000000  0.6291400  )
        15        Fe1    tau(  15) = (  0.0000000  0.5000000  0.3708600  )
        16        Fe     tau(  16) = (  0.0000000  0.5000000  0.8708600  )
        17        O      tau(  17) = (  0.5000000  0.0000000  0.0043834  )
        18        O      tau(  18) = (  0.5000000  0.0000000  0.5043834  )
        19        O      tau(  19) = (  0.0000000  0.5000000  0.4956166  )
        20        O      tau(  20) = (  0.0000000  0.5000000  0.9956166  )
        21        O      tau(  21) = (  0.2144487  0.2287493  0.3428934  )
        22        O      tau(  22) = (  0.2144487  0.2287493  0.8428934  )
        23        O      tau(  23) = (  0.7855513  0.7712507  0.3428934  )
        24        O      tau(  24) = (  0.7855513  0.7712507  0.8428934  )
        25        O      tau(  25) = (  0.2712507  0.7144487  0.3428934  )
        26        O      tau(  26) = (  0.2712507  0.7144487  0.8428934  )
        27        O      tau(  27) = (  0.7287493  0.2855513  0.3428934  )
        28        O      tau(  28) = (  0.7287493  0.2855513  0.8428934  )
        29        O      tau(  29) = (  0.2855513  0.2712507  0.1571066  )
        30        O      tau(  30) = (  0.2855513  0.2712507  0.6571066  )
        31        O      tau(  31) = (  0.7144487  0.7287493  0.1571066  )
        32        O      tau(  32) = (  0.7144487  0.7287493  0.6571066  )
        33        O      tau(  33) = (  0.2287493  0.7855513  0.1571066  )
        34        O      tau(  34) = (  0.2287493  0.7855513  0.6571066  )
        35        O      tau(  35) = (  0.7712507  0.2144487  0.1571066  )
        36        O      tau(  36) = (  0.7712507  0.2144487  0.6571066  )

     number of k points=    12  Gaussian smearing, width (Ry)=  0.0050
                       cart. coord. in units 2pi/alat
        k(    1) = (   0.0000000   0.0000000   0.0000000), wk =   0.0312500
        k(    2) = (   0.0000000   0.0000000  -0.1841935), wk =   0.0312500
        k(    3) = (   0.0000000   0.2500000   0.0000000), wk =   0.1250000
        k(    4) = (   0.0000000   0.2500000  -0.1841935), wk =   0.1250000
        k(    5) = (   0.0000000  -0.5000000   0.0000000), wk =   0.0625000
        k(    6) = (   0.0000000  -0.5000000  -0.1841935), wk =   0.0625000
        k(    7) = (   0.2500000   0.2500000   0.0000000), wk =   0.1250000
        k(    8) = (   0.2500000   0.2500000  -0.1841935), wk =   0.1250000
        k(    9) = (   0.2500000  -0.5000000   0.0000000), wk =   0.1250000
        k(   10) = (   0.2500000  -0.5000000  -0.1841935), wk =   0.1250000
        k(   11) = (  -0.5000000  -0.5000000   0.0000000), wk =   0.0312500
        k(   12) = (  -0.5000000  -0.5000000  -0.1841935), wk =   0.0312500

                       cryst. coord.
        k(    1) = (   0.0000000   0.0000000   0.0000000), wk =   0.0312500
        k(    2) = (   0.0000000   0.0000000  -0.5000000), wk =   0.0312500
        k(    3) = (   0.0000000   0.2500000   0.0000000), wk =   0.1250000
        k(    4) = (   0.0000000   0.2500000  -0.5000000), wk =   0.1250000
        k(    5) = (   0.0000000  -0.5000000   0.0000000), wk =   0.0625000
        k(    6) = (   0.0000000  -0.5000000  -0.5000000), wk =   0.0625000
        k(    7) = (   0.2500000   0.2500000   0.0000000), wk =   0.1250000
        k(    8) = (   0.2500000   0.2500000  -0.5000000), wk =   0.1250000
        k(    9) = (   0.2500000  -0.5000000   0.0000000), wk =   0.1250000
        k(   10) = (   0.2500000  -0.5000000  -0.5000000), wk =   0.1250000
        k(   11) = (  -0.5000000  -0.5000000   0.0000000), wk =   0.0312500
        k(   12) = (  -0.5000000  -0.5000000  -0.5000000), wk =   0.0312500

     Dense  grid:   384279 G-vectors     FFT dimensions: (  72,  72, 180)

     Dynamical RAM for                 wfc:      72.17 MB

     Dynamical RAM for     wfc (w. buffer):     216.50 MB

     Dynamical RAM for           str. fact:      20.52 MB

     Dynamical RAM for           local pot:       0.00 MB

     Dynamical RAM for          nlocal pot:     200.75 MB

     Dynamical RAM for                qrad:      10.66 MB

     Dynamical RAM for          rho,v,vnew:      38.95 MB

     Dynamical RAM for               rhoin:      12.98 MB

     Dynamical RAM for            rho*nmix:      93.82 MB

     Dynamical RAM for           G-vectors:      12.46 MB

     Dynamical RAM for          h,s,v(r/c):       7.11 MB

     Dynamical RAM for          <psi|beta>:       1.65 MB

     Dynamical RAM for                 psi:     144.34 MB

     Dynamical RAM for                hpsi:     144.34 MB

     Dynamical RAM for      wfcinit/wfcrot:     145.22 MB

     Estimated static dynamical RAM per process >     557.64 MB

     Estimated max dynamical RAM per process >     948.88 MB

     Estimated total dynamical RAM >      26.90 GB
     Generating pointlists ...
     new r_m :   0.2063 (alat units)  2.2086 (a.u.) for type    1
     new r_m :   0.1660 (alat units)  1.7768 (a.u.) for type    2
     new r_m :   0.1510 (alat units)  1.6164 (a.u.) for type    3
     new r_m :   0.1510 (alat units)  1.6164 (a.u.) for type    4
     new r_m :   0.1397 (alat units)  1.4955 (a.u.) for type    5
     new r_m :   0.1397 (alat units)  1.4955 (a.u.) for type    6
     new r_m :   0.1397 (alat units)  1.4955 (a.u.) for type    7

     Initial potential from superposition of free atoms

     starting charge     327.9122, renormalised to     328.0000
     Starting wfcs are  220 randomized atomic wfcs

     total cpu time spent up to now is       14.9 secs

     per-process dynamical memory:   603.7 Mb

     Self-consistent Calculation

     iteration #  1     ecut=    90.00 Ry     beta= 0.30
     Davidson diagonalization with overlap

---- Real-time Memory Report at c_bands before calling an iterative solver
           808 MiB given to the printing process from OS
           589 MiB allocation reported by mallinfo(arena+hblkhd)
        679637 MiB available memory on the node where the printing process lives
------------------
     ethr =  1.00E-02,  avg # of iterations =  4.7

     total cpu time spent up to now is       50.9 secs

     total energy              =   -3089.86359906 Ry
     estimated scf accuracy    <      10.61001059 Ry

     total magnetization       =    -0.00 Bohr mag/cell
     absolute magnetization    =    36.52 Bohr mag/cell

     iteration #  2     ecut=    90.00 Ry     beta= 0.30
     Davidson diagonalization with overlap

---- Real-time Memory Report at c_bands before calling an iterative solver
          1010 MiB given to the printing process from OS
           694 MiB allocation reported by mallinfo(arena+hblkhd)
        677278 MiB available memory on the node where the printing process lives
------------------
     ethr =  3.23E-03,  avg # of iterations =  1.0

     total cpu time spent up to now is       74.5 secs

     total energy              =   -3089.06026209 Ry
     estimated scf accuracy    <       3.66672647 Ry

     total magnetization       =     0.00 Bohr mag/cell
     absolute magnetization    =    35.39 Bohr mag/cell

     iteration #  3     ecut=    90.00 Ry     beta= 0.30
     Davidson diagonalization with overlap

---- Real-time Memory Report at c_bands before calling an iterative solver
          1116 MiB given to the printing process from OS
           711 MiB allocation reported by mallinfo(arena+hblkhd)
        676800 MiB available memory on the node where the printing process lives
------------------
     ethr =  1.12E-03,  avg # of iterations =  3.2

     total cpu time spent up to now is      100.7 secs

     total energy              =   -3089.63960861 Ry
     estimated scf accuracy    <       0.54607130 Ry

     total magnetization       =     0.00 Bohr mag/cell
     absolute magnetization    =    33.38 Bohr mag/cell

     iteration #  4     ecut=    90.00 Ry     beta= 0.30
     Davidson diagonalization with overlap

---- Real-time Memory Report at c_bands before calling an iterative solver
          1133 MiB given to the printing process from OS
           723 MiB allocation reported by mallinfo(arena+hblkhd)
        677036 MiB available memory on the node where the printing process lives
------------------
     ethr =  1.66E-04,  avg # of iterations =  8.8

     total cpu time spent up to now is      126.5 secs

     total energy              =   -3089.65160095 Ry
     estimated scf accuracy    <       0.17989451 Ry

     total magnetization       =     0.00 Bohr mag/cell
     absolute magnetization    =    34.20 Bohr mag/cell

     iteration #  5     ecut=    90.00 Ry     beta= 0.30
     Davidson diagonalization with overlap

---- Real-time Memory Report at c_bands before calling an iterative solver
          1145 MiB given to the printing process from OS
           735 MiB allocation reported by mallinfo(arena+hblkhd)
        676894 MiB available memory on the node where the printing process lives
------------------
     ethr =  5.48E-05,  avg # of iterations =  3.9

     total cpu time spent up to now is      154.3 secs

     total energy              =   -3089.63915061 Ry
     estimated scf accuracy    <       0.16802569 Ry

     total magnetization       =     0.00 Bohr mag/cell
     absolute magnetization    =    34.59 Bohr mag/cell

     iteration #  6     ecut=    90.00 Ry     beta= 0.30
     Davidson diagonalization with overlap

---- Real-time Memory Report at c_bands before calling an iterative solver
          1157 MiB given to the printing process from OS
           746 MiB allocation reported by mallinfo(arena+hblkhd)
        676925 MiB available memory on the node where the printing process lives
------------------
     ethr =  5.12E-05,  avg # of iterations =  2.6

     total cpu time spent up to now is      179.1 secs

     total energy              =   -3089.65189209 Ry
     estimated scf accuracy    <       0.01905576 Ry

     total magnetization       =     0.00 Bohr mag/cell
     absolute magnetization    =    34.31 Bohr mag/cell

     iteration #  7     ecut=    90.00 Ry     beta= 0.30
     Davidson diagonalization with overlap

---- Real-time Memory Report at c_bands before calling an iterative solver
          1167 MiB given to the printing process from OS
           758 MiB allocation reported by mallinfo(arena+hblkhd)
        676939 MiB available memory on the node where the printing process lives
------------------
     ethr =  5.81E-06,  avg # of iterations = 14.1

     total cpu time spent up to now is      213.7 secs

     total energy              =   -3089.65468792 Ry
     estimated scf accuracy    <       0.00244083 Ry

     total magnetization       =     0.00 Bohr mag/cell
     absolute magnetization    =    34.26 Bohr mag/cell

     iteration #  8     ecut=    90.00 Ry     beta= 0.30
     Davidson diagonalization with overlap

---- Real-time Memory Report at c_bands before calling an iterative solver
          1178 MiB given to the printing process from OS
           770 MiB allocation reported by mallinfo(arena+hblkhd)
        676909 MiB available memory on the node where the printing process lives
------------------
     ethr =  7.44E-07,  avg # of iterations =  3.7

     total cpu time spent up to now is      242.6 secs

     total energy              =   -3089.65391551 Ry
     estimated scf accuracy    <       0.00777471 Ry

     total magnetization       =     0.00 Bohr mag/cell
     absolute magnetization    =    34.41 Bohr mag/cell

     iteration #  9     ecut=    90.00 Ry     beta= 0.30
     Davidson diagonalization with overlap

---- Real-time Memory Report at c_bands before calling an iterative solver
          1192 MiB given to the printing process from OS
           782 MiB allocation reported by mallinfo(arena+hblkhd)
        676879 MiB available memory on the node where the printing process lives
------------------
     ethr =  7.44E-07,  avg # of iterations =  2.6

     total cpu time spent up to now is      271.1 secs

     total energy              =   -3089.65470176 Ry
     estimated scf accuracy    <       0.00066762 Ry

     total magnetization       =    -0.00 Bohr mag/cell
     absolute magnetization    =    34.34 Bohr mag/cell

     iteration # 10     ecut=    90.00 Ry     beta= 0.30
     Davidson diagonalization with overlap

---- Real-time Memory Report at c_bands before calling an iterative solver
          1204 MiB given to the printing process from OS
           793 MiB allocation reported by mallinfo(arena+hblkhd)
        676766 MiB available memory on the node where the printing process lives
------------------
     ethr =  2.04E-07,  avg # of iterations =  2.1

     total cpu time spent up to now is      299.4 secs

     total energy              =   -3089.65463712 Ry
     estimated scf accuracy    <       0.00138083 Ry

     total magnetization       =     0.00 Bohr mag/cell
     absolute magnetization    =    34.38 Bohr mag/cell

     iteration # 11     ecut=    90.00 Ry     beta= 0.30
     Davidson diagonalization with overlap

---- Real-time Memory Report at c_bands before calling an iterative solver
          1216 MiB given to the printing process from OS
           793 MiB allocation reported by mallinfo(arena+hblkhd)
        676877 MiB available memory on the node where the printing process lives
------------------
     ethr =  2.04E-07,  avg # of iterations =  3.0

     total cpu time spent up to now is      328.7 secs

     total energy              =   -3089.65479201 Ry
     estimated scf accuracy    <       0.00013993 Ry

     total magnetization       =     0.00 Bohr mag/cell
     absolute magnetization    =    34.33 Bohr mag/cell

     iteration # 12     ecut=    90.00 Ry     beta= 0.30
     Davidson diagonalization with overlap

---- Real-time Memory Report at c_bands before calling an iterative solver
          1216 MiB given to the printing process from OS
           793 MiB allocation reported by mallinfo(arena+hblkhd)
        676850 MiB available memory on the node where the printing process lives
------------------
     ethr =  4.27E-08,  avg # of iterations =  2.7

     total cpu time spent up to now is      360.5 secs

     total energy              =   -3089.65481320 Ry
     estimated scf accuracy    <       0.00006511 Ry

     total magnetization       =     0.00 Bohr mag/cell
     absolute magnetization    =    34.35 Bohr mag/cell

     iteration # 13     ecut=    90.00 Ry     beta= 0.30
     Davidson diagonalization with overlap

---- Real-time Memory Report at c_bands before calling an iterative solver
          1216 MiB given to the printing process from OS
           793 MiB allocation reported by mallinfo(arena+hblkhd)
        676976 MiB available memory on the node where the printing process lives
------------------
     ethr =  1.99E-08,  avg # of iterations =  2.0

     total cpu time spent up to now is      383.8 secs

     total energy              =   -3089.65481941 Ry
     estimated scf accuracy    <       0.00000235 Ry

     total magnetization       =     0.00 Bohr mag/cell
     absolute magnetization    =    34.34 Bohr mag/cell

     iteration # 14     ecut=    90.00 Ry     beta= 0.30
     Davidson diagonalization with overlap

---- Real-time Memory Report at c_bands before calling an iterative solver
          1216 MiB given to the printing process from OS
           793 MiB allocation reported by mallinfo(arena+hblkhd)
        676593 MiB available memory on the node where the printing process lives
------------------
     ethr =  7.16E-10,  avg # of iterations =  3.0

     total cpu time spent up to now is      411.0 secs

     total energy              =   -3089.65481978 Ry
     estimated scf accuracy    <       0.00000131 Ry

     total magnetization       =     0.00 Bohr mag/cell
     absolute magnetization    =    34.34 Bohr mag/cell

     iteration # 15     ecut=    90.00 Ry     beta= 0.30
     Davidson diagonalization with overlap

---- Real-time Memory Report at c_bands before calling an iterative solver
          1216 MiB given to the printing process from OS
           793 MiB allocation reported by mallinfo(arena+hblkhd)
        676823 MiB available memory on the node where the printing process lives
------------------
     ethr =  4.01E-10,  avg # of iterations =  2.0

     Magnetic moment per site  (integrated on atomic sphere of radius R)
     atom   1 (R=0.206)  charge=  6.8265  magn=  0.0028
     atom   2 (R=0.206)  charge=  6.8265  magn= -0.0028
     atom   3 (R=0.206)  charge=  6.8265  magn=  0.0028
     atom   4 (R=0.206)  charge=  6.8265  magn= -0.0028
     atom   5 (R=0.166)  charge=  7.2853  magn=  0.0000
     atom   6 (R=0.166)  charge=  7.2853  magn=  0.0000
     atom   7 (R=0.166)  charge=  7.2853  magn=  0.0000
     atom   8 (R=0.166)  charge=  7.2853  magn=  0.0000
     atom   9 (R=0.151)  charge= 12.2721  magn=  3.6894
     atom  10 (R=0.151)  charge= 12.2721  magn= -3.6894
     atom  11 (R=0.151)  charge= 12.2721  magn= -3.6894
     atom  12 (R=0.151)  charge= 12.2721  magn=  3.6894
     atom  13 (R=0.140)  charge= 12.9201  magn= -3.4436
     atom  14 (R=0.140)  charge= 12.9201  magn=  3.4436
     atom  15 (R=0.140)  charge= 12.9201  magn=  3.4436
     atom  16 (R=0.140)  charge= 12.9201  magn= -3.4436
     atom  17 (R=0.140)  charge=  5.2697  magn= -0.0988
     atom  18 (R=0.140)  charge=  5.2697  magn=  0.0988
     atom  19 (R=0.140)  charge=  5.2697  magn=  0.0988
     atom  20 (R=0.140)  charge=  5.2697  magn= -0.0988
     atom  21 (R=0.140)  charge=  5.2755  magn=  0.0737
     atom  22 (R=0.140)  charge=  5.2755  magn= -0.0737
     atom  23 (R=0.140)  charge=  5.2755  magn=  0.0737
     atom  24 (R=0.140)  charge=  5.2755  magn= -0.0737
     atom  25 (R=0.140)  charge=  5.2755  magn=  0.0737
     atom  26 (R=0.140)  charge=  5.2755  magn= -0.0737
     atom  27 (R=0.140)  charge=  5.2755  magn=  0.0737
     atom  28 (R=0.140)  charge=  5.2755  magn= -0.0737
     atom  29 (R=0.140)  charge=  5.2755  magn= -0.0737
     atom  30 (R=0.140)  charge=  5.2755  magn=  0.0737
     atom  31 (R=0.140)  charge=  5.2755  magn= -0.0737
     atom  32 (R=0.140)  charge=  5.2755  magn=  0.0737
     atom  33 (R=0.140)  charge=  5.2755  magn= -0.0737
     atom  34 (R=0.140)  charge=  5.2755  magn=  0.0737
     atom  35 (R=0.140)  charge=  5.2755  magn= -0.0737
     atom  36 (R=0.140)  charge=  5.2755  magn=  0.0737

     total cpu time spent up to now is      436.3 secs

     End of self-consistent calculation

 ------ SPIN UP ------------


          k = 0.0000 0.0000 0.0000 ( 48099 PWs)   bands (ev):

   -78.8374 -78.8374 -74.7187 -74.7187 -69.6108 -69.6108 -65.4429 -65.4429
   -44.9985 -44.9985 -44.9985 -44.9985 -44.9701 -44.9701 -40.7812 -40.7812
   -40.6393 -40.6393 -40.6393 -40.6393 -38.5806 -38.5806 -38.4747 -38.4747
   -38.4747 -38.4747 -34.1658 -34.1657 -34.0602 -34.0602 -34.0602 -34.0602
   -30.4910 -30.4910 -30.4757 -30.4757 -16.0566 -16.0548 -15.9229 -15.9205
   -10.9064 -10.8970 -10.8928 -10.8928 -10.8925 -10.8925 -10.6357 -10.6321
   -10.5558 -10.5558 -10.5558 -10.5558  -7.1981  -7.1770  -6.8486  -6.7870
    -6.6715  -6.5971  -6.3712  -6.3229  -6.3229  -6.3006  -6.3006  -6.2175
    -6.1926  -6.1799  -6.0240  -6.0079  -5.9886  -5.9886  -5.9647  -5.9647
    -1.6494  -1.6494  -1.6448  -1.6448  -1.2333  -1.2172  -1.2021  -1.2009
    -1.0652  -1.0652  -1.0645  -1.0645   4.6192   4.7525   5.2268   5.3041
     5.4203   5.5666   5.7152   5.7379   5.8635   5.8854   6.0504   6.0504
     6.0510   6.0510   6.1229   6.1784   6.2023   6.3140   6.3372   6.4369
     6.4369   6.4671   6.4671   6.5296   6.6511   6.6618   6.9544   6.9544
     6.9794   6.9794   7.2597   7.3339   7.4139   7.4139   7.4197   7.4197
     7.6528   7.8400   7.9408   7.9408   8.0722   8.0722   8.3650   8.4113
     8.4551   8.4551   8.5535   8.6188   8.6521   8.6521   8.6971   8.6971
     8.8477   8.8477   8.9674   8.9674   9.0071   9.0071   9.1225   9.1818
     9.2043   9.2194   9.4057   9.4057   9.4762   9.4794   9.4826   9.5500
     9.5723   9.5723   9.8549   9.8549  10.1405  10.1405  10.2393  10.2932
    10.7827  10.7944  11.2556  11.2687  12.0327  12.1898  12.1898  12.3219
    12.3239  12.3616  12.3616  12.8004  13.4111  13.4111  13.4901  13.5146
    13.5318  13.5318  13.6041  13.6658  13.8008  13.8601  13.8883  14.1615
    14.2937  14.2981  14.5197  14.9108  15.1121  15.1150  15.1279  15.3776
    15.3776  15.5880  15.5992  15.6013  15.6013

     occupation numbers 
     1.0000   1.0000   1.0000   1.0000   1.0000   1.0000   1.0000   1.0000
     1.0000   1.0000   1.0000   1.0000   1.0000   1.0000   1.0000   1.0000
     1.0000   1.0000   1.0000   1.0000   1.0000   1.0000   1.0000   1.0000
     1.0000   1.0000   1.0000   1.0000   1.0000   1.0000   1.0000   1.0000
     1.0000   1.0000   1.0000   1.0000   1.0000   1.0000   1.0000   1.0000
     1.0000   1.0000   1.0000   1.0000   1.0000   1.0000   1.0000   1.0000
     1.0000   1.0000   1.0000   1.0000   1.0000   1.0000   1.0000   1.0000
     1.0000   1.0000   1.0000   1.0000   1.0000   1.0000   1.0000   1.0000
     1.0000   1.0000   1.0000   1.0000   1.0000   1.0000   1.0000   1.0000
     1.0000   1.0000   1.0000   1.0000   1.0000   1.0000   1.0000   1.0000
     1.0000   1.0000   1.0000   1.0000   1.0000   1.0000   1.0000   1.0000
     1.0000   1.0000   1.0000   1.0000   1.0000   1.0000   1.0000   1.0000
     1.0000   1.0000   1.0000   1.0000   1.0000   1.0000   1.0000   1.0000
     1.0000   1.0000   1.0000   1.0000   1.0000   1.0000   1.0000   1.0000
     1.0000   1.0000   1.0000   1.0000   1.0000   1.0000   1.0000   1.0000
     1.0000   1.0000   1.0000   1.0000   1.0000   1.0000   1.0000   1.0000
     1.0000   1.0000   1.0000   1.0000   1.0000   1.0000   1.0000   1.0000
     1.0000   1.0000   1.0000   1.0000   1.0000   1.0000   1.0000   1.0000
     1.0000   1.0000   1.0000   1.0000   1.0000   1.0000   1.0000   1.0000
     1.0000   1.0000   1.0000   1.0000   1.0000   1.0000   1.0000   1.0000
     1.0000   1.0000   1.0000   1.0000   0.0000   0.0000   0.0000   0.0000
     0.0000   0.0000   0.0000   0.0000   0.0000   0.0000   0.0000   0.0000
     0.0000   0.0000   0.0000   0.0000   0.0000   0.0000   0.0000   0.0000
     0.0000   0.0000   0.0000   0.0000   0.0000   0.0000   0.0000   0.0000
     0.0000   0.0000   0.0000   0.0000   0.0000

          k = 0.0000 0.0000-0.1842 ( 47896 PWs)   bands (ev):

   -78.8374 -78.8374 -74.7187 -74.7187 -69.6108 -69.6108 -65.4429 -65.4429
   -44.9985 -44.9985 -44.9985 -44.9985 -44.9701 -44.9701 -40.7812 -40.7812
   -40.6393 -40.6393 -40.6393 -40.6393 -38.5806 -38.5806 -38.4747 -38.4747
   -38.4747 -38.4747 -34.1658 -34.1657 -34.0602 -34.0602 -34.0602 -34.0602
   -30.4910 -30.4910 -30.4757 -30.4757 -16.0565 -16.0549 -15.9229 -15.9205
   -10.9018 -10.9016 -10.8926 -10.8926 -10.8926 -10.8926 -10.6339 -10.6339
   -10.5558 -10.5558 -10.5558 -10.5558  -7.1897  -7.1842  -6.8492  -6.7765
    -6.6653  -6.6385  -6.3161  -6.3161  -6.3081  -6.3081  -6.3045  -6.2602
    -6.1921  -6.1806  -6.0219  -6.0098  -5.9810  -5.9810  -5.9716  -5.9716
    -1.6494  -1.6494  -1.6449  -1.6449  -1.2183  -1.2159  -1.2120  -1.2074
    -1.0651  -1.0651  -1.0647  -1.0647   4.6798   4.6807   5.2111   5.3371
     5.4893   5.5818   5.6061   5.7326   5.8632   5.8783   6.0460   6.0460
     6.0570   6.0570   6.1199   6.1634   6.2908   6.3202   6.3231   6.4224
     6.4224   6.4808   6.4808   6.4925   6.6513   6.6596   6.9549   6.9549
     6.9785   6.9785   7.2886   7.3015   7.4076   7.4076   7.4301   7.4301
     7.6661   7.8413   7.9435   7.9435   8.0307   8.0307   8.3684   8.4072
     8.5164   8.5164   8.5654   8.6089   8.6130   8.6130   8.7537   8.7537
     8.8709   8.8709   8.9217   8.9217   8.9835   8.9835   9.1421   9.1565
     9.2147   9.2183   9.4002   9.4002   9.4552   9.4784   9.4837   9.5753
     9.5753   9.5938   9.8593   9.8593  10.1400  10.1400  10.1658  10.3049
    10.7839  10.7931  11.2591  11.2648  12.1690  12.1894  12.1894  12.3215
    12.3243  12.3620  12.3620  12.6913  13.4110  13.4110  13.4919  13.5135
    13.5318  13.5318  13.6023  13.7358  13.7598  13.8153  13.9674  13.9959
    14.2963  14.2964  14.7325  14.7496  15.1135  15.1278  15.3385  15.3597
    15.4104  15.5310  15.5310  15.5913  15.6256

     occupation numbers 
     1.0000   1.0000   1.0000   1.0000   1.0000   1.0000   1.0000   1.0000
     1.0000   1.0000   1.0000   1.0000   1.0000   1.0000   1.0000   1.0000
     1.0000   1.0000   1.0000   1.0000   1.0000   1.0000   1.0000   1.0000
     1.0000   1.0000   1.0000   1.0000   1.0000   1.0000   1.0000   1.0000
     1.0000   1.0000   1.0000   1.0000   1.0000   1.0000   1.0000   1.0000
     1.0000   1.0000   1.0000   1.0000   1.0000   1.0000   1.0000   1.0000
     1.0000   1.0000   1.0000   1.0000   1.0000   1.0000   1.0000   1.0000
     1.0000   1.0000   1.0000   1.0000   1.0000   1.0000   1.0000   1.0000
     1.0000   1.0000   1.0000   1.0000   1.0000   1.0000   1.0000   1.0000
     1.0000   1.0000   1.0000   1.0000   1.0000   1.0000   1.0000   1.0000
     1.0000   1.0000   1.0000   1.0000   1.0000   1.0000   1.0000   1.0000
     1.0000   1.0000   1.0000   1.0000   1.0000   1.0000   1.0000   1.0000
     1.0000   1.0000   1.0000   1.0000   1.0000   1.0000   1.0000   1.0000
     1.0000   1.0000   1.0000   1.0000   1.0000   1.0000   1.0000   1.0000
     1.0000   1.0000   1.0000   1.0000   1.0000   1.0000   1.0000   1.0000
     1.0000   1.0000   1.0000   1.0000   1.0000   1.0000   1.0000   1.0000
     1.0000   1.0000   1.0000   1.0000   1.0000   1.0000   1.0000   1.0000
     1.0000   1.0000   1.0000   1.0000   1.0000   1.0000   1.0000   1.0000
     1.0000   1.0000   1.0000   1.0000   1.0000   1.0000   1.0000   1.0000
     1.0000   1.0000   1.0000   1.0000   1.0000   1.0000   1.0000   1.0000
     1.0000   1.0000   1.0000   1.0000   0.0000   0.0000   0.0000   0.0000
     0.0000   0.0000   0.0000   0.0000   0.0000   0.0000   0.0000   0.0000
     0.0000   0.0000   0.0000   0.0000   0.0000   0.0000   0.0000   0.0000
     0.0000   0.0000   0.0000   0.0000   0.0000   0.0000   0.0000   0.0000
     0.0000   0.0000   0.0000   0.0000   0.0000

          k = 0.0000 0.2500 0.0000 ( 48036 PWs)   bands (ev):

   -78.8374 -78.8374 -74.7187 -74.7187 -69.6108 -69.6108 -65.4429 -65.4429
   -44.9985 -44.9985 -44.9985 -44.9985 -44.9701 -44.9701 -40.7812 -40.7812
   -40.6393 -40.6393 -40.6393 -40.6393 -38.5806 -38.5806 -38.4747 -38.4747
   -38.4747 -38.4747 -34.1658 -34.1657 -34.0602 -34.0602 -34.0602 -34.0602
   -30.4887 -30.4887 -30.4779 -30.4779 -16.0352 -16.0333 -15.9405 -15.9381
   -10.8689 -10.8622 -10.8520 -10.8515 -10.8447 -10.8434 -10.6757 -10.6716
   -10.6166 -10.6164 -10.6075 -10.6075  -7.0714  -7.0449  -6.9051  -6.8307
    -6.7427  -6.6335  -6.3702  -6.3325  -6.3076  -6.2839  -6.2710  -6.2351
    -6.2105  -6.1976  -6.1176  -6.0999  -6.0228  -6.0225  -5.9865  -5.9711
    -1.5696  -1.5650  -1.3988  -1.3906  -1.2203  -1.2095  -1.2010  -1.1989
    -1.1564  -1.1536  -0.9663  -0.9627   4.8481   5.0027   5.4004   5.4762
     5.5850   5.6262   5.7293   5.7678   5.7862   5.8864   5.9551   5.9668
     5.9959   6.1372   6.1758   6.2153   6.2742   6.3148   6.3555   6.3938
     6.4732   6.4906   6.5659   6.5846   6.6664   6.6785   6.7410   6.7534
     7.0598   7.0773   7.1328   7.1466   7.3195   7.3621   7.4845   7.4907
     7.5573   7.6533   7.7863   7.8692   7.9696   8.0183   8.0317   8.1402
     8.1909   8.3192   8.3431   8.4518   8.4880   8.5258   8.6698   8.7262
     8.7623   8.7866   8.8093   8.8621   8.9552   8.9968   8.9982   9.0876
     9.0970   9.1283   9.2140   9.2318   9.2936   9.4701   9.5826   9.6240
     9.6724   9.7072   9.7481   9.8194   9.9458  10.0054  10.2768  10.3431
    10.8041  10.8075  11.2545  11.2730  12.1525  12.1670  12.2473  12.2703
    12.3577  12.4428  12.5326  12.8143  13.4425  13.4812  13.5051  13.5506
    13.5884  13.6260  13.7910  13.8768  14.0378  14.1008  14.1834  14.2356
    14.3415  14.4377  14.9106  14.9974  14.9997  15.2773  15.4306  15.4769
    15.5388  15.7046  15.7233  15.7567  15.8563

     occupation numbers 
     1.0000   1.0000   1.0000   1.0000   1.0000   1.0000   1.0000   1.0000
     1.0000   1.0000   1.0000   1.0000   1.0000   1.0000   1.0000   1.0000
     1.0000   1.0000   1.0000   1.0000   1.0000   1.0000   1.0000   1.0000
     1.0000   1.0000   1.0000   1.0000   1.0000   1.0000   1.0000   1.0000
     1.0000   1.0000   1.0000   1.0000   1.0000   1.0000   1.0000   1.0000
     1.0000   1.0000   1.0000   1.0000   1.0000   1.0000   1.0000   1.0000
     1.0000   1.0000   1.0000   1.0000   1.0000   1.0000   1.0000   1.0000
     1.0000   1.0000   1.0000   1.0000   1.0000   1.0000   1.0000   1.0000
     1.0000   1.0000   1.0000   1.0000   1.0000   1.0000   1.0000   1.0000
     1.0000   1.0000   1.0000   1.0000   1.0000   1.0000   1.0000   1.0000
     1.0000   1.0000   1.0000   1.0000   1.0000   1.0000   1.0000   1.0000
     1.0000   1.0000   1.0000   1.0000   1.0000   1.0000   1.0000   1.0000
     1.0000   1.0000   1.0000   1.0000   1.0000   1.0000   1.0000   1.0000
     1.0000   1.0000   1.0000   1.0000   1.0000   1.0000   1.0000   1.0000
     1.0000   1.0000   1.0000   1.0000   1.0000   1.0000   1.0000   1.0000
     1.0000   1.0000   1.0000   1.0000   1.0000   1.0000   1.0000   1.0000
     1.0000   1.0000   1.0000   1.0000   1.0000   1.0000   1.0000   1.0000
     1.0000   1.0000   1.0000   1.0000   1.0000   1.0000   1.0000   1.0000
     1.0000   1.0000   1.0000   1.0000   1.0000   1.0000   1.0000   1.0000
     1.0000   1.0000   1.0000   1.0000   1.0000   1.0000   1.0000   1.0000
     1.0000   1.0000   1.0000   1.0000   0.0000   0.0000   0.0000   0.0000
     0.0000   0.0000   0.0000   0.0000   0.0000   0.0000   0.0000   0.0000
     0.0000   0.0000   0.0000   0.0000   0.0000   0.0000   0.0000   0.0000
     0.0000   0.0000   0.0000   0.0000   0.0000   0.0000   0.0000   0.0000
     0.0000   0.0000   0.0000   0.0000   0.0000

          k = 0.0000 0.2500-0.1842 ( 48002 PWs)   bands (ev):

   -78.8374 -78.8374 -74.7187 -74.7187 -69.6108 -69.6108 -65.4429 -65.4429
   -44.9985 -44.9985 -44.9985 -44.9985 -44.9701 -44.9701 -40.7812 -40.7812
   -40.6393 -40.6393 -40.6393 -40.6393 -38.5806 -38.5806 -38.4747 -38.4747
   -38.4747 -38.4747 -34.1658 -34.1657 -34.0602 -34.0602 -34.0602 -34.0602
   -30.4887 -30.4887 -30.4779 -30.4779 -16.0351 -16.0333 -15.9405 -15.9382
   -10.8655 -10.8653 -10.8518 -10.8518 -10.8442 -10.8441 -10.6737 -10.6736
   -10.6165 -10.6165 -10.6075 -10.6075  -7.0717  -7.0461  -6.9084  -6.8057
    -6.7295  -6.6873  -6.3403  -6.3161  -6.2980  -6.2932  -6.2695  -6.2558
    -6.2124  -6.2029  -6.1167  -6.1008  -6.0233  -6.0201  -5.9824  -5.9766
    -1.5693  -1.5653  -1.3981  -1.3913  -1.2111  -1.2083  -1.2072  -1.2032
    -1.1553  -1.1548  -0.9659  -0.9630   4.9108   4.9230   5.3764   5.5387
     5.5971   5.6330   5.7396   5.7553   5.7869   5.8511   5.9379   5.9446
     6.0129   6.1401   6.1734   6.2313   6.2663   6.3260   6.3624   6.4227
     6.4695   6.4898   6.5286   6.5565   6.6652   6.6720   6.7497   6.7827
     7.0663   7.0723   7.1187   7.2302   7.3237   7.3420   7.4757   7.4884
     7.5640   7.5838   7.7831   7.8442   7.9349   7.9738   8.0340   8.1202
     8.2706   8.3446   8.4280   8.4346   8.5439   8.6107   8.6438   8.6833
     8.7111   8.7725   8.8230   8.8299   8.9570   8.9845   9.0269   9.0763
     9.0793   9.1095   9.2090   9.2573   9.2805   9.4835   9.6052   9.6087
     9.6618   9.6954   9.7648   9.8201   9.9607  10.0082  10.2280  10.3472
    10.8045  10.8072  11.2554  11.2725  12.1641  12.2115  12.2458  12.2773
    12.4028  12.4427  12.5334  12.7338  13.4383  13.4771  13.4912  13.5415
    13.5880  13.6241  13.7099  13.9641  14.0555  14.0886  14.2479  14.2710
    14.3142  14.3276  14.9761  14.9993  15.1177  15.1250  15.4477  15.4773
    15.5322  15.5359  15.6882  15.8053  15.8553

     occupation numbers 
     1.0000   1.0000   1.0000   1.0000   1.0000   1.0000   1.0000   1.0000
     1.0000   1.0000   1.0000   1.0000   1.0000   1.0000   1.0000   1.0000
     1.0000   1.0000   1.0000   1.0000   1.0000   1.0000   1.0000   1.0000
     1.0000   1.0000   1.0000   1.0000   1.0000   1.0000   1.0000   1.0000
     1.0000   1.0000   1.0000   1.0000   1.0000   1.0000   1.0000   1.0000
     1.0000   1.0000   1.0000   1.0000   1.0000   1.0000   1.0000   1.0000
     1.0000   1.0000   1.0000   1.0000   1.0000   1.0000   1.0000   1.0000
     1.0000   1.0000   1.0000   1.0000   1.0000   1.0000   1.0000   1.0000
     1.0000   1.0000   1.0000   1.0000   1.0000   1.0000   1.0000   1.0000
     1.0000   1.0000   1.0000   1.0000   1.0000   1.0000   1.0000   1.0000
     1.0000   1.0000   1.0000   1.0000   1.0000   1.0000   1.0000   1.0000
     1.0000   1.0000   1.0000   1.0000   1.0000   1.0000   1.0000   1.0000
     1.0000   1.0000   1.0000   1.0000   1.0000   1.0000   1.0000   1.0000
     1.0000   1.0000   1.0000   1.0000   1.0000   1.0000   1.0000   1.0000
     1.0000   1.0000   1.0000   1.0000   1.0000   1.0000   1.0000   1.0000
     1.0000   1.0000   1.0000   1.0000   1.0000   1.0000   1.0000   1.0000
     1.0000   1.0000   1.0000   1.0000   1.0000   1.0000   1.0000   1.0000
     1.0000   1.0000   1.0000   1.0000   1.0000   1.0000   1.0000   1.0000
     1.0000   1.0000   1.0000   1.0000   1.0000   1.0000   1.0000   1.0000
     1.0000   1.0000   1.0000   1.0000   1.0000   1.0000   1.0000   1.0000
     1.0000   1.0000   1.0000   1.0000   0.0000   0.0000   0.0000   0.0000
     0.0000   0.0000   0.0000   0.0000   0.0000   0.0000   0.0000   0.0000
     0.0000   0.0000   0.0000   0.0000   0.0000   0.0000   0.0000   0.0000
     0.0000   0.0000   0.0000   0.0000   0.0000   0.0000   0.0000   0.0000
     0.0000   0.0000   0.0000   0.0000   0.0000

          k = 0.0000-0.5000 0.0000 ( 48052 PWs)   bands (ev):

   -78.8374 -78.8374 -74.7187 -74.7187 -69.6108 -69.6108 -65.4429 -65.4429
   -44.9985 -44.9985 -44.9985 -44.9985 -44.9701 -44.9701 -40.7812 -40.7812
   -40.6393 -40.6393 -40.6393 -40.6393 -38.5806 -38.5806 -38.4747 -38.4747
   -38.4747 -38.4747 -34.1657 -34.1657 -34.0602 -34.0602 -34.0602 -34.0602
   -30.4833 -30.4833 -30.4833 -30.4833 -15.9859 -15.9859 -15.9837 -15.9837
   -10.7731 -10.7731 -10.7676 -10.7676 -10.7472 -10.7472 -10.7429 -10.7429
   -10.7287 -10.7287 -10.7253 -10.7253  -6.9929  -6.9929  -6.8298  -6.8298
    -6.6280  -6.6280  -6.5054  -6.5054  -6.3304  -6.3304  -6.2523  -6.2523
    -6.1994  -6.1994  -6.1563  -6.1563  -6.0491  -6.0491  -5.9969  -5.9969
    -1.3698  -1.3698  -1.3650  -1.3650  -1.2044  -1.2044  -1.1991  -1.1991
    -1.0009  -1.0009  -0.9915  -0.9915   5.3030   5.3030   5.5146   5.5146
     5.6457   5.6457   5.7373   5.7373   5.7944   5.7944   5.9782   5.9782
     6.1459   6.1459   6.2108   6.2108   6.3226   6.3226   6.3672   6.3672
     6.4902   6.4902   6.6094   6.6094   6.7105   6.7105   6.7497   6.7497
     6.9941   6.9941   7.1624   7.1624   7.2058   7.2058   7.3697   7.3697
     7.3885   7.3885   7.5328   7.5328   7.7007   7.7007   8.0105   8.0105
     8.1416   8.1416   8.3501   8.3501   8.4907   8.4907   8.5186   8.5186
     8.6203   8.6203   8.8559   8.8559   8.8865   8.8865   8.9832   8.9832
     9.0617   9.0617   9.1361   9.1361   9.2685   9.2685   9.6804   9.6804
     9.7056   9.7056   9.7748   9.7748   9.8963   9.8963  10.3279  10.3279
    10.8237  10.8237  11.2254  11.2254  12.1860  12.1860  12.2502  12.2502
    12.6218  12.6218  12.6804  12.6804  13.5068  13.5068  13.5774  13.5774
    13.5968  13.5968  13.8642  13.8642  13.9274  13.9274  14.8493  14.8493
    14.8974  14.8974  15.1996  15.1996  15.4225  15.4225  15.6570  15.6570
    15.7479  15.7480  15.8359  15.8361  15.9356

     occupation numbers 
     1.0000   1.0000   1.0000   1.0000   1.0000   1.0000   1.0000   1.0000
     1.0000   1.0000   1.0000   1.0000   1.0000   1.0000   1.0000   1.0000
     1.0000   1.0000   1.0000   1.0000   1.0000   1.0000   1.0000   1.0000
     1.0000   1.0000   1.0000   1.0000   1.0000   1.0000   1.0000   1.0000
     1.0000   1.0000   1.0000   1.0000   1.0000   1.0000   1.0000   1.0000
     1.0000   1.0000   1.0000   1.0000   1.0000   1.0000   1.0000   1.0000
     1.0000   1.0000   1.0000   1.0000   1.0000   1.0000   1.0000   1.0000
     1.0000   1.0000   1.0000   1.0000   1.0000   1.0000   1.0000   1.0000
     1.0000   1.0000   1.0000   1.0000   1.0000   1.0000   1.0000   1.0000
     1.0000   1.0000   1.0000   1.0000   1.0000   1.0000   1.0000   1.0000
     1.0000   1.0000   1.0000   1.0000   1.0000   1.0000   1.0000   1.0000
     1.0000   1.0000   1.0000   1.0000   1.0000   1.0000   1.0000   1.0000
     1.0000   1.0000   1.0000   1.0000   1.0000   1.0000   1.0000   1.0000
     1.0000   1.0000   1.0000   1.0000   1.0000   1.0000   1.0000   1.0000
     1.0000   1.0000   1.0000   1.0000   1.0000   1.0000   1.0000   1.0000
     1.0000   1.0000   1.0000   1.0000   1.0000   1.0000   1.0000   1.0000
     1.0000   1.0000   1.0000   1.0000   1.0000   1.0000   1.0000   1.0000
     1.0000   1.0000   1.0000   1.0000   1.0000   1.0000   1.0000   1.0000
     1.0000   1.0000   1.0000   1.0000   1.0000   1.0000   1.0000   1.0000
     1.0000   1.0000   1.0000   1.0000   1.0000   1.0000   1.0000   1.0000
     1.0000   1.0000   1.0000   1.0000   0.0000   0.0000   0.0000   0.0000
     0.0000   0.0000   0.0000   0.0000   0.0000   0.0000   0.0000   0.0000
     0.0000   0.0000   0.0000   0.0000   0.0000   0.0000   0.0000   0.0000
     0.0000   0.0000   0.0000   0.0000   0.0000   0.0000   0.0000   0.0000
     0.0000   0.0000   0.0000   0.0000   0.0000

          k = 0.0000-0.5000-0.1842 ( 48060 PWs)   bands (ev):

   -78.8374 -78.8374 -74.7187 -74.7187 -69.6108 -69.6108 -65.4429 -65.4429
   -44.9985 -44.9985 -44.9985 -44.9985 -44.9701 -44.9701 -40.7812 -40.7812
   -40.6393 -40.6393 -40.6393 -40.6393 -38.5806 -38.5806 -38.4747 -38.4747
   -38.4747 -38.4747 -34.1657 -34.1657 -34.0602 -34.0602 -34.0602 -34.0602
   -30.4833 -30.4833 -30.4833 -30.4833 -15.9859 -15.9859 -15.9838 -15.9838
   -10.7712 -10.7712 -10.7695 -10.7695 -10.7472 -10.7472 -10.7429 -10.7429
   -10.7287 -10.7287 -10.7253 -10.7253  -6.9928  -6.9928  -6.8329  -6.8329
    -6.5973  -6.5973  -6.5460  -6.5460  -6.3023  -6.3023  -6.2693  -6.2693
    -6.1935  -6.1935  -6.1607  -6.1607  -6.0479  -6.0479  -5.9980  -5.9980
    -1.3685  -1.3685  -1.3663  -1.3663  -1.2032  -1.2032  -1.2004  -1.2004
    -0.9996  -0.9996  -0.9928  -0.9928   5.3417   5.3417   5.4444   5.4444
     5.6368   5.6368   5.7353   5.7353   5.8749   5.8749   5.9472   5.9472
     6.1322   6.1322   6.2211   6.2211   6.3352   6.3352   6.3616   6.3616
     6.4903   6.4903   6.5683   6.5683   6.6805   6.6805   6.8353   6.8353
     7.0259   7.0259   7.1560   7.1560   7.2124   7.2124   7.3049   7.3049
     7.3994   7.3994   7.4738   7.4738   7.7253   7.7253   7.9859   7.9859
     8.1408   8.1408   8.4104   8.4104   8.5118   8.5118   8.5809   8.5809
     8.6541   8.6541   8.8051   8.8051   8.8769   8.8769   8.9025   8.9025
     9.0477   9.0477   9.1385   9.1385   9.2945   9.2945   9.6442   9.6442
     9.7514   9.7514   9.7792   9.7792   9.8963   9.8963  10.3127  10.3127
    10.8237  10.8237  11.2254  11.2254  12.1844  12.1844  12.2502  12.2502
    12.6505  12.6505  12.6805  12.6805  13.4896  13.4896  13.5783  13.5783
    13.5959  13.5959  13.8629  13.8629  13.9128  13.9128  14.8543  14.8543
    14.8970  14.8970  15.2240  15.2240  15.4623  15.4623  15.6833  15.6834
    15.6913  15.6913  15.7743  15.7763  15.8479

     occupation numbers 
     1.0000   1.0000   1.0000   1.0000   1.0000   1.0000   1.0000   1.0000
     1.0000   1.0000   1.0000   1.0000   1.0000   1.0000   1.0000   1.0000
     1.0000   1.0000   1.0000   1.0000   1.0000   1.0000   1.0000   1.0000
     1.0000   1.0000   1.0000   1.0000   1.0000   1.0000   1.0000   1.0000
     1.0000   1.0000   1.0000   1.0000   1.0000   1.0000   1.0000   1.0000
     1.0000   1.0000   1.0000   1.0000   1.0000   1.0000   1.0000   1.0000
     1.0000   1.0000   1.0000   1.0000   1.0000   1.0000   1.0000   1.0000
     1.0000   1.0000   1.0000   1.0000   1.0000   1.0000   1.0000   1.0000
     1.0000   1.0000   1.0000   1.0000   1.0000   1.0000   1.0000   1.0000
     1.0000   1.0000   1.0000   1.0000   1.0000   1.0000   1.0000   1.0000
     1.0000   1.0000   1.0000   1.0000   1.0000   1.0000   1.0000   1.0000
     1.0000   1.0000   1.0000   1.0000   1.0000   1.0000   1.0000   1.0000
     1.0000   1.0000   1.0000   1.0000   1.0000   1.0000   1.0000   1.0000
     1.0000   1.0000   1.0000   1.0000   1.0000   1.0000   1.0000   1.0000
     1.0000   1.0000   1.0000   1.0000   1.0000   1.0000   1.0000   1.0000
     1.0000   1.0000   1.0000   1.0000   1.0000   1.0000   1.0000   1.0000
     1.0000   1.0000   1.0000   1.0000   1.0000   1.0000   1.0000   1.0000
     1.0000   1.0000   1.0000   1.0000   1.0000   1.0000   1.0000   1.0000
     1.0000   1.0000   1.0000   1.0000   1.0000   1.0000   1.0000   1.0000
     1.0000   1.0000   1.0000   1.0000   1.0000   1.0000   1.0000   1.0000
     1.0000   1.0000   1.0000   1.0000   0.0000   0.0000   0.0000   0.0000
     0.0000   0.0000   0.0000   0.0000   0.0000   0.0000   0.0000   0.0000
     0.0000   0.0000   0.0000   0.0000   0.0000   0.0000   0.0000   0.0000
     0.0000   0.0000   0.0000   0.0000   0.0000   0.0000   0.0000   0.0000
     0.0000   0.0000   0.0000   0.0000   0.0000

          k = 0.2500 0.2500 0.0000 ( 47957 PWs)   bands (ev):

   -78.8374 -78.8374 -74.7187 -74.7187 -69.6108 -69.6108 -65.4429 -65.4429
   -44.9985 -44.9985 -44.9985 -44.9985 -44.9701 -44.9701 -40.7812 -40.7812
   -40.6393 -40.6393 -40.6393 -40.6393 -38.5806 -38.5806 -38.4747 -38.4747
   -38.4747 -38.4747 -34.1657 -34.1657 -34.0602 -34.0602 -34.0602 -34.0602
   -30.4871 -30.4871 -30.4795 -30.4795 -16.0192 -16.0171 -15.9521 -15.9498
   -10.9075 -10.9070 -10.8355 -10.8282 -10.7505 -10.7504 -10.7271 -10.7270
   -10.6980 -10.6936 -10.5504 -10.5504  -7.0388  -7.0065  -6.8951  -6.8707
    -6.8064  -6.6577  -6.4048  -6.3991  -6.3573  -6.3211  -6.2950  -6.2940
    -6.1794  -6.1591  -6.0924  -6.0758  -6.0428  -6.0371  -5.9972  -5.9886
    -1.3684  -1.3575  -1.3047  -1.2983  -1.2122  -1.2044  -1.1966  -1.1942
    -1.0733  -1.0639  -0.9866  -0.9852   5.0168   5.1744   5.4692   5.5183
     5.6199   5.6737   5.6994   5.7255   5.8131   5.9160   5.9784   6.0152
     6.0998   6.1353   6.1389   6.1929   6.2547   6.2898   6.3852   6.4291
     6.5388   6.5841   6.6338   6.6504   6.7416   6.7509   6.7901   6.8604
     6.8811   6.9261   6.9787   7.0640   7.3105   7.3529   7.3928   7.3991
     7.5255   7.6444   7.7165   7.8312   7.8877   7.9154   8.0020   8.0187
     8.0765   8.1799   8.1913   8.1956   8.3253   8.3661   8.3801   8.4661
     8.6074   8.6627   8.7313   8.7437   8.7643   8.7894   8.9400   8.9588
     8.9949   9.0030   9.1250   9.1623   9.2852   9.4691   9.6352   9.6813
     9.7184   9.7311   9.7800   9.9609  10.0174  10.1398  10.3412  10.3716
    10.6677  10.6809  11.2256  11.2320  12.1710  12.2323  12.2499  12.3082
    12.3651  12.4475  12.5134  12.8208  13.4455  13.4874  13.5136  13.5671
    13.6327  13.6581  13.7541  13.8098  13.8740  13.9346  14.5225  14.5778
    14.6014  14.7442  14.9305  14.9826  15.2828  15.4024  15.4607  15.6428
    15.7206  15.7830  15.8378  15.8477  15.9115

     occupation numbers 
     1.0000   1.0000   1.0000   1.0000   1.0000   1.0000   1.0000   1.0000
     1.0000   1.0000   1.0000   1.0000   1.0000   1.0000   1.0000   1.0000
     1.0000   1.0000   1.0000   1.0000   1.0000   1.0000   1.0000   1.0000
     1.0000   1.0000   1.0000   1.0000   1.0000   1.0000   1.0000   1.0000
     1.0000   1.0000   1.0000   1.0000   1.0000   1.0000   1.0000   1.0000
     1.0000   1.0000   1.0000   1.0000   1.0000   1.0000   1.0000   1.0000
     1.0000   1.0000   1.0000   1.0000   1.0000   1.0000   1.0000   1.0000
     1.0000   1.0000   1.0000   1.0000   1.0000   1.0000   1.0000   1.0000
     1.0000   1.0000   1.0000   1.0000   1.0000   1.0000   1.0000   1.0000
     1.0000   1.0000   1.0000   1.0000   1.0000   1.0000   1.0000   1.0000
     1.0000   1.0000   1.0000   1.0000   1.0000   1.0000   1.0000   1.0000
     1.0000   1.0000   1.0000   1.0000   1.0000   1.0000   1.0000   1.0000
     1.0000   1.0000   1.0000   1.0000   1.0000   1.0000   1.0000   1.0000
     1.0000   1.0000   1.0000   1.0000   1.0000   1.0000   1.0000   1.0000
     1.0000   1.0000   1.0000   1.0000   1.0000   1.0000   1.0000   1.0000
     1.0000   1.0000   1.0000   1.0000   1.0000   1.0000   1.0000   1.0000
     1.0000   1.0000   1.0000   1.0000   1.0000   1.0000   1.0000   1.0000
     1.0000   1.0000   1.0000   1.0000   1.0000   1.0000   1.0000   1.0000
     1.0000   1.0000   1.0000   1.0000   1.0000   1.0000   1.0000   1.0000
     1.0000   1.0000   1.0000   1.0000   1.0000   1.0000   1.0000   1.0000
     1.0000   1.0000   1.0000   1.0000   0.0000   0.0000   0.0000   0.0000
     0.0000   0.0000   0.0000   0.0000   0.0000   0.0000   0.0000   0.0000
     0.0000   0.0000   0.0000   0.0000   0.0000   0.0000   0.0000   0.0000
     0.0000   0.0000   0.0000   0.0000   0.0000   0.0000   0.0000   0.0000
     0.0000   0.0000   0.0000   0.0000   0.0000

          k = 0.2500 0.2500-0.1842 ( 48026 PWs)   bands (ev):

   -78.8374 -78.8374 -74.7187 -74.7187 -69.6108 -69.6108 -65.4429 -65.4429
   -44.9985 -44.9985 -44.9985 -44.9985 -44.9701 -44.9701 -40.7812 -40.7812
   -40.6393 -40.6393 -40.6393 -40.6393 -38.5806 -38.5806 -38.4747 -38.4747
   -38.4747 -38.4747 -34.1657 -34.1657 -34.0602 -34.0602 -34.0602 -34.0602
   -30.4871 -30.4871 -30.4795 -30.4795 -16.0191 -16.0172 -15.9521 -15.9498
   -10.9072 -10.9072 -10.8319 -10.8318 -10.7504 -10.7504 -10.7271 -10.7270
   -10.6958 -10.6958 -10.5504 -10.5504  -7.0376  -7.0073  -6.9240  -6.8376
    -6.7559  -6.7315  -6.3922  -6.3796  -6.3425  -6.3268  -6.3116  -6.3003
    -6.1747  -6.1636  -6.0865  -6.0804  -6.0426  -6.0360  -5.9958  -5.9924
    -1.3684  -1.3575  -1.3023  -1.3007  -1.2064  -1.2055  -1.1985  -1.1971
    -1.0725  -1.0646  -0.9865  -0.9853   5.0707   5.1036   5.4276   5.5834
     5.6566   5.6644   5.7016   5.7104   5.8206   5.8888   5.9714   6.0402
     6.0872   6.1268   6.1498   6.1860   6.2565   6.2795   6.4288   6.4577
     6.4942   6.5534   6.5973   6.6258   6.7435   6.7469   6.8021   6.8760
     6.8763   6.9181   7.0013   7.1356   7.3368   7.3473   7.4288   7.4804
     7.5370   7.5453   7.6555   7.7427   7.8225   7.9220   7.9385   8.0002
     8.0672   8.1282   8.2831   8.3236   8.3866   8.4233   8.4388   8.4664
     8.5749   8.6475   8.7475   8.7702   8.7989   8.8293   8.8338   8.8704
     8.9646   8.9759   9.1438   9.1959   9.2501   9.4986   9.6361   9.6782
     9.6931   9.7789   9.7798   9.9641  10.0161  10.1413  10.3045  10.3641
    10.6741  10.6816  11.2236  11.2340  12.1706  12.2455  12.2490  12.3378
    12.3746  12.4472  12.5509  12.7624  13.4424  13.4818  13.5038  13.5666
    13.6405  13.6485  13.7691  13.7945  13.8067  13.9947  14.5389  14.5701
    14.6121  14.7072  14.9624  14.9988  15.3825  15.3974  15.6026  15.6179
    15.6726  15.6880  15.7155  15.7622  15.8591

     occupation numbers 
     1.0000   1.0000   1.0000   1.0000   1.0000   1.0000   1.0000   1.0000
     1.0000   1.0000   1.0000   1.0000   1.0000   1.0000   1.0000   1.0000
     1.0000   1.0000   1.0000   1.0000   1.0000   1.0000   1.0000   1.0000
     1.0000   1.0000   1.0000   1.0000   1.0000   1.0000   1.0000   1.0000
     1.0000   1.0000   1.0000   1.0000   1.0000   1.0000   1.0000   1.0000
     1.0000   1.0000   1.0000   1.0000   1.0000   1.0000   1.0000   1.0000
     1.0000   1.0000   1.0000   1.0000   1.0000   1.0000   1.0000   1.0000
     1.0000   1.0000   1.0000   1.0000   1.0000   1.0000   1.0000   1.0000
     1.0000   1.0000   1.0000   1.0000   1.0000   1.0000   1.0000   1.0000
     1.0000   1.0000   1.0000   1.0000   1.0000   1.0000   1.0000   1.0000
     1.0000   1.0000   1.0000   1.0000   1.0000   1.0000   1.0000   1.0000
     1.0000   1.0000   1.0000   1.0000   1.0000   1.0000   1.0000   1.0000
     1.0000   1.0000   1.0000   1.0000   1.0000   1.0000   1.0000   1.0000
     1.0000   1.0000   1.0000   1.0000   1.0000   1.0000   1.0000   1.0000
     1.0000   1.0000   1.0000   1.0000   1.0000   1.0000   1.0000   1.0000
     1.0000   1.0000   1.0000   1.0000   1.0000   1.0000   1.0000   1.0000
     1.0000   1.0000   1.0000   1.0000   1.0000   1.0000   1.0000   1.0000
     1.0000   1.0000   1.0000   1.0000   1.0000   1.0000   1.0000   1.0000
     1.0000   1.0000   1.0000   1.0000   1.0000   1.0000   1.0000   1.0000
     1.0000   1.0000   1.0000   1.0000   1.0000   1.0000   1.0000   1.0000
     1.0000   1.0000   1.0000   1.0000   0.0000   0.0000   0.0000   0.0000
     0.0000   0.0000   0.0000   0.0000   0.0000   0.0000   0.0000   0.0000
     0.0000   0.0000   0.0000   0.0000   0.0000   0.0000   0.0000   0.0000
     0.0000   0.0000   0.0000   0.0000   0.0000   0.0000   0.0000   0.0000
     0.0000   0.0000   0.0000   0.0000   0.0000

          k = 0.2500-0.5000 0.0000 ( 47996 PWs)   bands (ev):

   -78.8374 -78.8374 -74.7187 -74.7187 -69.6108 -69.6108 -65.4429 -65.4429
   -44.9985 -44.9985 -44.9985 -44.9985 -44.9701 -44.9701 -40.7812 -40.7812
   -40.6393 -40.6393 -40.6393 -40.6393 -38.5806 -38.5806 -38.4747 -38.4747
   -38.4747 -38.4747 -34.1657 -34.1657 -34.0602 -34.0602 -34.0602 -34.0602
   -30.4833 -30.4833 -30.4833 -30.4833 -15.9835 -15.9835 -15.9812 -15.9812
   -10.8716 -10.8716 -10.8664 -10.8664 -10.7652 -10.7642 -10.7594 -10.7585
   -10.6055 -10.6055 -10.5995 -10.5995  -7.0504  -7.0502  -6.8889  -6.8887
    -6.6044  -6.6024  -6.5220  -6.5180  -6.4258  -6.4223  -6.3568  -6.3543
    -6.1317  -6.1261  -6.0938  -6.0800  -6.0408  -6.0143  -6.0108  -5.9918
    -1.2121  -1.2045  -1.2034  -1.1998  -1.1914  -1.1900  -1.1832  -1.1815
    -0.9794  -0.9778  -0.9747  -0.9729   5.2513   5.2744   5.5545   5.5547
     5.6326   5.6527   5.6907   5.7057   5.8984   5.9012   5.9887   5.9923
     6.0970   6.1468   6.2042   6.2074   6.2788   6.2957   6.4038   6.4284
     6.5178   6.6486   6.6740   6.6959   6.7824   6.8147   6.8673   6.9026
     7.0323   7.0462   7.1196   7.1678   7.2235   7.2300   7.2803   7.3350
     7.3640   7.3650   7.4443   7.4645   7.5717   7.6411   7.8171   7.8719
     7.9542   8.0222   8.2063   8.2449   8.3092   8.3205   8.3453   8.4043
     8.4399   8.4905   8.5007   8.5472   8.6306   8.6532   8.7926   8.8575
     8.9777   8.9827   9.1376   9.1991   9.2601   9.3130   9.6559   9.6812
     9.7889   9.7900   9.9431   9.9778  10.0827  10.0955  10.4106  10.4109
    10.5788  10.5905  11.1902  11.2107  12.1829  12.1968  12.3038  12.3264
    12.4789  12.4917  12.6921  12.6927  13.3867  13.4033  13.4987  13.5133
    13.5897  13.6137  13.7054  13.7103  13.9640  13.9689  14.5261  14.5478
    15.1864  15.1901  15.2885  15.3296  15.5181  15.5423  15.7019  15.7121
    15.7574  15.7736  15.8521  15.8575  16.0911

     occupation numbers 
     1.0000   1.0000   1.0000   1.0000   1.0000   1.0000   1.0000   1.0000
     1.0000   1.0000   1.0000   1.0000   1.0000   1.0000   1.0000   1.0000
     1.0000   1.0000   1.0000   1.0000   1.0000   1.0000   1.0000   1.0000
     1.0000   1.0000   1.0000   1.0000   1.0000   1.0000   1.0000   1.0000
     1.0000   1.0000   1.0000   1.0000   1.0000   1.0000   1.0000   1.0000
     1.0000   1.0000   1.0000   1.0000   1.0000   1.0000   1.0000   1.0000
     1.0000   1.0000   1.0000   1.0000   1.0000   1.0000   1.0000   1.0000
     1.0000   1.0000   1.0000   1.0000   1.0000   1.0000   1.0000   1.0000
     1.0000   1.0000   1.0000   1.0000   1.0000   1.0000   1.0000   1.0000
     1.0000   1.0000   1.0000   1.0000   1.0000   1.0000   1.0000   1.0000
     1.0000   1.0000   1.0000   1.0000   1.0000   1.0000   1.0000   1.0000
     1.0000   1.0000   1.0000   1.0000   1.0000   1.0000   1.0000   1.0000
     1.0000   1.0000   1.0000   1.0000   1.0000   1.0000   1.0000   1.0000
     1.0000   1.0000   1.0000   1.0000   1.0000   1.0000   1.0000   1.0000
     1.0000   1.0000   1.0000   1.0000   1.0000   1.0000   1.0000   1.0000
     1.0000   1.0000   1.0000   1.0000   1.0000   1.0000   1.0000   1.0000
     1.0000   1.0000   1.0000   1.0000   1.0000   1.0000   1.0000   1.0000
     1.0000   1.0000   1.0000   1.0000   1.0000   1.0000   1.0000   1.0000
     1.0000   1.0000   1.0000   1.0000   1.0000   1.0000   1.0000   1.0000
     1.0000   1.0000   1.0000   1.0000   1.0000   1.0000   1.0000   1.0000
     1.0000   1.0000   1.0000   1.0000   0.0000   0.0000   0.0000   0.0000
     0.0000   0.0000   0.0000   0.0000   0.0000   0.0000   0.0000   0.0000
     0.0000   0.0000   0.0000   0.0000   0.0000   0.0000   0.0000   0.0000
     0.0000   0.0000   0.0000   0.0000   0.0000   0.0000   0.0000   0.0000
     0.0000   0.0000   0.0000   0.0000   0.0000

          k = 0.2500-0.5000-0.1842 ( 48016 PWs)   bands (ev):

   -78.8374 -78.8374 -74.7187 -74.7187 -69.6108 -69.6108 -65.4429 -65.4429
   -44.9985 -44.9985 -44.9985 -44.9985 -44.9701 -44.9701 -40.7812 -40.7812
   -40.6393 -40.6393 -40.6393 -40.6393 -38.5806 -38.5806 -38.4747 -38.4747
   -38.4747 -38.4747 -34.1657 -34.1657 -34.0602 -34.0602 -34.0602 -34.0602
   -30.4833 -30.4833 -30.4833 -30.4833 -15.9834 -15.9834 -15.9813 -15.9813
   -10.8716 -10.8715 -10.8665 -10.8664 -10.7624 -10.7623 -10.7613 -10.7613
   -10.6055 -10.6055 -10.5995 -10.5995  -7.0503  -7.0501  -6.8892  -6.8891
    -6.5887  -6.5869  -6.5477  -6.5445  -6.4024  -6.3947  -6.3747  -6.3701
    -6.1305  -6.1182  -6.0954  -6.0834  -6.0301  -6.0229  -6.0053  -5.9994
    -1.2101  -1.2079  -1.1998  -1.1996  -1.1947  -1.1907  -1.1825  -1.1809
    -0.9788  -0.9772  -0.9752  -0.9735   5.2597   5.2880   5.5123   5.5262
     5.6618   5.6716   5.6791   5.6908   5.9091   5.9596   5.9728   5.9939
     6.0981   6.1346   6.1833   6.2045   6.2813   6.2955   6.4072   6.4635
     6.4920   6.5522   6.6959   6.6975   6.7767   6.7973   6.9411   6.9998
     7.0285   7.0484   7.1657   7.1737   7.2045   7.2206   7.2933   7.3108
     7.3444   7.3598   7.4141   7.5356   7.5880   7.6122   7.6842   7.6968
     7.9625   8.0364   8.2375   8.2417   8.3719   8.3793   8.4081   8.4312
     8.4410   8.5154   8.5615   8.5699   8.6478   8.6759   8.8041   8.8126
     8.8901   8.8960   9.0642   9.1720   9.3089   9.3650   9.6536   9.6788
     9.8020   9.8076   9.9482   9.9791  10.0853  10.0890  10.3836  10.3845
    10.5905  10.5983  11.1916  11.2110  12.1810  12.1947  12.3049  12.3274
    12.4776  12.4954  12.7127  12.7128  13.3922  13.3949  13.4932  13.5106
    13.5885  13.6137  13.7065  13.7102  13.9494  13.9522  14.5304  14.5381
    15.1247  15.1694  15.3374  15.4210  15.5393  15.5696  15.7091  15.7540
    15.7601  15.7782  15.8808  15.8811  15.9801

     occupation numbers 
     1.0000   1.0000   1.0000   1.0000   1.0000   1.0000   1.0000   1.0000
     1.0000   1.0000   1.0000   1.0000   1.0000   1.0000   1.0000   1.0000
     1.0000   1.0000   1.0000   1.0000   1.0000   1.0000   1.0000   1.0000
     1.0000   1.0000   1.0000   1.0000   1.0000   1.0000   1.0000   1.0000
     1.0000   1.0000   1.0000   1.0000   1.0000   1.0000   1.0000   1.0000
     1.0000   1.0000   1.0000   1.0000   1.0000   1.0000   1.0000   1.0000
     1.0000   1.0000   1.0000   1.0000   1.0000   1.0000   1.0000   1.0000
     1.0000   1.0000   1.0000   1.0000   1.0000   1.0000   1.0000   1.0000
     1.0000   1.0000   1.0000   1.0000   1.0000   1.0000   1.0000   1.0000
     1.0000   1.0000   1.0000   1.0000   1.0000   1.0000   1.0000   1.0000
     1.0000   1.0000   1.0000   1.0000   1.0000   1.0000   1.0000   1.0000
     1.0000   1.0000   1.0000   1.0000   1.0000   1.0000   1.0000   1.0000
     1.0000   1.0000   1.0000   1.0000   1.0000   1.0000   1.0000   1.0000
     1.0000   1.0000   1.0000   1.0000   1.0000   1.0000   1.0000   1.0000
     1.0000   1.0000   1.0000   1.0000   1.0000   1.0000   1.0000   1.0000
     1.0000   1.0000   1.0000   1.0000   1.0000   1.0000   1.0000   1.0000
     1.0000   1.0000   1.0000   1.0000   1.0000   1.0000   1.0000   1.0000
     1.0000   1.0000   1.0000   1.0000   1.0000   1.0000   1.0000   1.0000
     1.0000   1.0000   1.0000   1.0000   1.0000   1.0000   1.0000   1.0000
     1.0000   1.0000   1.0000   1.0000   1.0000   1.0000   1.0000   1.0000
     1.0000   1.0000   1.0000   1.0000   0.0000   0.0000   0.0000   0.0000
     0.0000   0.0000   0.0000   0.0000   0.0000   0.0000   0.0000   0.0000
     0.0000   0.0000   0.0000   0.0000   0.0000   0.0000   0.0000   0.0000
     0.0000   0.0000   0.0000   0.0000   0.0000   0.0000   0.0000   0.0000
     0.0000   0.0000   0.0000   0.0000   0.0000

          k =-0.5000-0.5000 0.0000 ( 48100 PWs)   bands (ev):

   -78.8374 -78.8374 -74.7187 -74.7187 -69.6108 -69.6108 -65.4429 -65.4429
   -44.9985 -44.9985 -44.9985 -44.9985 -44.9701 -44.9701 -40.7812 -40.7812
   -40.6393 -40.6393 -40.6393 -40.6393 -38.5806 -38.5806 -38.4747 -38.4747
   -38.4747 -38.4747 -34.1657 -34.1657 -34.0602 -34.0602 -34.0602 -34.0602
   -30.4832 -30.4832 -30.4832 -30.4832 -15.9810 -15.9810 -15.9787 -15.9787
   -10.9238 -10.9238 -10.9186 -10.9186 -10.7607 -10.7607 -10.7550 -10.7550
   -10.5482 -10.5482 -10.5422 -10.5422  -7.1085  -7.1085  -6.9453  -6.9453
    -6.5633  -6.5633  -6.5153  -6.5153  -6.5062  -6.5062  -6.4125  -6.4125
    -6.1397  -6.1397  -6.0724  -6.0724  -6.0060  -6.0060  -5.9602  -5.9602
    -1.2018  -1.2018  -1.1849  -1.1849  -1.0731  -1.0731  -1.0574  -1.0574
    -0.9044  -0.9044  -0.9020  -0.9020   5.2111   5.2111   5.5844   5.5844
     5.6243   5.6243   5.7612   5.7612   5.7918   5.7918   5.9977   5.9977
     6.1880   6.1880   6.1892   6.1892   6.2694   6.2694   6.3334   6.3334
     6.7530   6.7530   6.8391   6.8391   7.0005   7.0005   7.0435   7.0435
     7.1255   7.1255   7.1874   7.1874   7.1874   7.1874   7.2380   7.2380
     7.2955   7.2955   7.3779   7.3779   7.5841   7.5841   7.6585   7.6585
     7.7891   7.7891   7.9785   7.9785   8.1222   8.1222   8.1493   8.1493
     8.2576   8.2576   8.2638   8.2638   8.4379   8.4379   8.7811   8.7811
     9.0805   9.0805   9.0847   9.0847   9.3378   9.3378   9.7752   9.7752
     9.8575   9.8575  10.1058  10.1058  10.1468  10.1468  10.3590  10.3590
    10.4910  10.4910  11.1889  11.1889  12.1715  12.1715  12.3295  12.3295
    12.3679  12.3679  12.7595  12.7595  13.0932  13.0932  13.4906  13.4906
    13.6213  13.6213  13.7263  13.7263  14.0088  14.0088  14.3687  14.3687
    15.1997  15.1997  15.4655  15.4655  15.6629  15.6629  15.6769  15.6769
    15.8177  15.8177  15.9265  15.9265  15.9944

     occupation numbers 
     1.0000   1.0000   1.0000   1.0000   1.0000   1.0000   1.0000   1.0000
     1.0000   1.0000   1.0000   1.0000   1.0000   1.0000   1.0000   1.0000
     1.0000   1.0000   1.0000   1.0000   1.0000   1.0000   1.0000   1.0000
     1.0000   1.0000   1.0000   1.0000   1.0000   1.0000   1.0000   1.0000
     1.0000   1.0000   1.0000   1.0000   1.0000   1.0000   1.0000   1.0000
     1.0000   1.0000   1.0000   1.0000   1.0000   1.0000   1.0000   1.0000
     1.0000   1.0000   1.0000   1.0000   1.0000   1.0000   1.0000   1.0000
     1.0000   1.0000   1.0000   1.0000   1.0000   1.0000   1.0000   1.0000
     1.0000   1.0000   1.0000   1.0000   1.0000   1.0000   1.0000   1.0000
     1.0000   1.0000   1.0000   1.0000   1.0000   1.0000   1.0000   1.0000
     1.0000   1.0000   1.0000   1.0000   1.0000   1.0000   1.0000   1.0000
     1.0000   1.0000   1.0000   1.0000   1.0000   1.0000   1.0000   1.0000
     1.0000   1.0000   1.0000   1.0000   1.0000   1.0000   1.0000   1.0000
     1.0000   1.0000   1.0000   1.0000   1.0000   1.0000   1.0000   1.0000
     1.0000   1.0000   1.0000   1.0000   1.0000   1.0000   1.0000   1.0000
     1.0000   1.0000   1.0000   1.0000   1.0000   1.0000   1.0000   1.0000
     1.0000   1.0000   1.0000   1.0000   1.0000   1.0000   1.0000   1.0000
     1.0000   1.0000   1.0000   1.0000   1.0000   1.0000   1.0000   1.0000
     1.0000   1.0000   1.0000   1.0000   1.0000   1.0000   1.0000   1.0000
     1.0000   1.0000   1.0000   1.0000   1.0000   1.0000   1.0000   1.0000
     1.0000   1.0000   1.0000   1.0000   0.0000   0.0000   0.0000   0.0000
     0.0000   0.0000   0.0000   0.0000   0.0000   0.0000   0.0000   0.0000
     0.0000   0.0000   0.0000   0.0000   0.0000   0.0000   0.0000   0.0000
     0.0000   0.0000   0.0000   0.0000   0.0000   0.0000   0.0000   0.0000
     0.0000   0.0000   0.0000   0.0000   0.0000

          k =-0.5000-0.5000-0.1842 ( 47960 PWs)   bands (ev):

   -78.8374 -78.8374 -74.7187 -74.7187 -69.6108 -69.6108 -65.4429 -65.4429
   -44.9985 -44.9985 -44.9985 -44.9985 -44.9701 -44.9701 -40.7812 -40.7812
   -40.6393 -40.6393 -40.6393 -40.6393 -38.5806 -38.5806 -38.4747 -38.4747
   -38.4747 -38.4747 -34.1657 -34.1657 -34.0602 -34.0602 -34.0602 -34.0602
   -30.4832 -30.4832 -30.4832 -30.4832 -15.9810 -15.9810 -15.9787 -15.9787
   -10.9238 -10.9238 -10.9187 -10.9187 -10.7580 -10.7580 -10.7576 -10.7576
   -10.5482 -10.5482 -10.5422 -10.5422  -7.1072  -7.1072  -6.9482  -6.9482
    -6.5455  -6.5455  -6.5349  -6.5349  -6.4871  -6.4871  -6.4336  -6.4336
    -6.1308  -6.1308  -6.0777  -6.0777  -5.9896  -5.9896  -5.9748  -5.9748
    -1.2003  -1.2003  -1.1864  -1.1864  -1.0731  -1.0731  -1.0575  -1.0575
    -0.9043  -0.9043  -0.9021  -0.9021   5.2152   5.2152   5.5517   5.5517
     5.6537   5.6537   5.7613   5.7613   5.8184   5.8184   5.9994   5.9994
     6.1154   6.1154   6.1803   6.1803   6.2738   6.2738   6.3624   6.3624
     6.7416   6.7416   6.8415   6.8415   7.0200   7.0200   7.0534   7.0534
     7.1308   7.1308   7.1828   7.1828   7.2086   7.2086   7.2819   7.2819
     7.3704   7.3704   7.4593   7.4593   7.5176   7.5176   7.5301   7.5301
     7.6783   7.6783   7.8625   7.8625   8.1571   8.1571   8.2013   8.2013
     8.2937   8.2937   8.3185   8.3185   8.6168   8.6168   8.7063   8.7063
     8.9431   8.9431   9.0843   9.0843   9.3851   9.3851   9.7831   9.7831
     9.8814   9.8814  10.1026  10.1026  10.1362  10.1362  10.3254  10.3254
    10.5063  10.5063  11.1908  11.1908  12.1721  12.1721  12.3292  12.3292
    12.3676  12.3676  12.7714  12.7714  13.0959  13.0959  13.4910  13.4910
    13.6212  13.6212  13.7307  13.7307  14.0012  14.0012  14.3575  14.3575
    15.1756  15.1757  15.5113  15.5113  15.6651  15.6651  15.6819  15.6819
    15.8935  15.8936  15.9528  15.9529  16.0611

     occupation numbers 
     1.0000   1.0000   1.0000   1.0000   1.0000   1.0000   1.0000   1.0000
     1.0000   1.0000   1.0000   1.0000   1.0000   1.0000   1.0000   1.0000
     1.0000   1.0000   1.0000   1.0000   1.0000   1.0000   1.0000   1.0000
     1.0000   1.0000   1.0000   1.0000   1.0000   1.0000   1.0000   1.0000
     1.0000   1.0000   1.0000   1.0000   1.0000   1.0000   1.0000   1.0000
     1.0000   1.0000   1.0000   1.0000   1.0000   1.0000   1.0000   1.0000
     1.0000   1.0000   1.0000   1.0000   1.0000   1.0000   1.0000   1.0000
     1.0000   1.0000   1.0000   1.0000   1.0000   1.0000   1.0000   1.0000
     1.0000   1.0000   1.0000   1.0000   1.0000   1.0000   1.0000   1.0000
     1.0000   1.0000   1.0000   1.0000   1.0000   1.0000   1.0000   1.0000
     1.0000   1.0000   1.0000   1.0000   1.0000   1.0000   1.0000   1.0000
     1.0000   1.0000   1.0000   1.0000   1.0000   1.0000   1.0000   1.0000
     1.0000   1.0000   1.0000   1.0000   1.0000   1.0000   1.0000   1.0000
     1.0000   1.0000   1.0000   1.0000   1.0000   1.0000   1.0000   1.0000
     1.0000   1.0000   1.0000   1.0000   1.0000   1.0000   1.0000   1.0000
     1.0000   1.0000   1.0000   1.0000   1.0000   1.0000   1.0000   1.0000
     1.0000   1.0000   1.0000   1.0000   1.0000   1.0000   1.0000   1.0000
     1.0000   1.0000   1.0000   1.0000   1.0000   1.0000   1.0000   1.0000
     1.0000   1.0000   1.0000   1.0000   1.0000   1.0000   1.0000   1.0000
     1.0000   1.0000   1.0000   1.0000   1.0000   1.0000   1.0000   1.0000
     1.0000   1.0000   1.0000   1.0000   0.0000   0.0000   0.0000   0.0000
     0.0000   0.0000   0.0000   0.0000   0.0000   0.0000   0.0000   0.0000
     0.0000   0.0000   0.0000   0.0000   0.0000   0.0000   0.0000   0.0000
     0.0000   0.0000   0.0000   0.0000   0.0000   0.0000   0.0000   0.0000
     0.0000   0.0000   0.0000   0.0000   0.0000

 ------ SPIN DOWN ----------


          k = 0.0000 0.0000 0.0000 ( 48099 PWs)   bands (ev):

   -78.8374 -78.8374 -74.7186 -74.7186 -69.6107 -69.6107 -65.4429 -65.4429
   -44.9985 -44.9985 -44.9985 -44.9985 -44.9702 -44.9702 -40.7811 -40.7811
   -40.6392 -40.6392 -40.6392 -40.6392 -38.5806 -38.5806 -38.4747 -38.4747
   -38.4747 -38.4747 -34.1658 -34.1658 -34.0602 -34.0602 -34.0602 -34.0602
   -30.4910 -30.4910 -30.4757 -30.4757 -16.0566 -16.0549 -15.9228 -15.9205
   -10.9064 -10.8970 -10.8928 -10.8928 -10.8925 -10.8925 -10.6357 -10.6321
   -10.5558 -10.5558 -10.5558 -10.5558  -7.1981  -7.1770  -6.8486  -6.7870
    -6.6714  -6.5971  -6.3712  -6.3229  -6.3229  -6.3006  -6.3006  -6.2175
    -6.1926  -6.1800  -6.0240  -6.0079  -5.9886  -5.9886  -5.9646  -5.9646
    -1.6495  -1.6495  -1.6448  -1.6448  -1.2333  -1.2172  -1.2021  -1.2009
    -1.0652  -1.0652  -1.0646  -1.0646   4.6192   4.7525   5.2268   5.3041
     5.4203   5.5666   5.7152   5.7379   5.8635   5.8853   6.0504   6.0504
     6.0510   6.0510   6.1229   6.1784   6.2024   6.3140   6.3372   6.4369
     6.4369   6.4671   6.4671   6.5296   6.6511   6.6618   6.9544   6.9544
     6.9794   6.9794   7.2597   7.3339   7.4139   7.4139   7.4197   7.4197
     7.6528   7.8400   7.9409   7.9409   8.0722   8.0722   8.3649   8.4113
     8.4551   8.4551   8.5535   8.6188   8.6521   8.6521   8.6971   8.6971
     8.8477   8.8477   8.9674   8.9674   9.0071   9.0071   9.1225   9.1818
     9.2043   9.2195   9.4056   9.4056   9.4761   9.4795   9.4826   9.5500
     9.5723   9.5723   9.8550   9.8550  10.1406  10.1406  10.2393  10.2932
    10.7827  10.7944  11.2556  11.2688  12.0327  12.1898  12.1898  12.3219
    12.3239  12.3617  12.3617  12.8004  13.4110  13.4110  13.4901  13.5146
    13.5318  13.5318  13.6040  13.6658  13.8008  13.8601  13.8883  14.1615
    14.2937  14.2981  14.5197  14.9108  15.1121  15.1150  15.1278  15.3776
    15.3776  15.5904  15.5992  15.6013  15.6013

     occupation numbers 
     1.0000   1.0000   1.0000   1.0000   1.0000   1.0000   1.0000   1.0000
     1.0000   1.0000   1.0000   1.0000   1.0000   1.0000   1.0000   1.0000
     1.0000   1.0000   1.0000   1.0000   1.0000   1.0000   1.0000   1.0000
     1.0000   1.0000   1.0000   1.0000   1.0000   1.0000   1.0000   1.0000
     1.0000   1.0000   1.0000   1.0000   1.0000   1.0000   1.0000   1.0000
     1.0000   1.0000   1.0000   1.0000   1.0000   1.0000   1.0000   1.0000
     1.0000   1.0000   1.0000   1.0000   1.0000   1.0000   1.0000   1.0000
     1.0000   1.0000   1.0000   1.0000   1.0000   1.0000   1.0000   1.0000
     1.0000   1.0000   1.0000   1.0000   1.0000   1.0000   1.0000   1.0000
     1.0000   1.0000   1.0000   1.0000   1.0000   1.0000   1.0000   1.0000
     1.0000   1.0000   1.0000   1.0000   1.0000   1.0000   1.0000   1.0000
     1.0000   1.0000   1.0000   1.0000   1.0000   1.0000   1.0000   1.0000
     1.0000   1.0000   1.0000   1.0000   1.0000   1.0000   1.0000   1.0000
     1.0000   1.0000   1.0000   1.0000   1.0000   1.0000   1.0000   1.0000
     1.0000   1.0000   1.0000   1.0000   1.0000   1.0000   1.0000   1.0000
     1.0000   1.0000   1.0000   1.0000   1.0000   1.0000   1.0000   1.0000
     1.0000   1.0000   1.0000   1.0000   1.0000   1.0000   1.0000   1.0000
     1.0000   1.0000   1.0000   1.0000   1.0000   1.0000   1.0000   1.0000
     1.0000   1.0000   1.0000   1.0000   1.0000   1.0000   1.0000   1.0000
     1.0000   1.0000   1.0000   1.0000   1.0000   1.0000   1.0000   1.0000
     1.0000   1.0000   1.0000   1.0000   0.0000   0.0000   0.0000   0.0000
     0.0000   0.0000   0.0000   0.0000   0.0000   0.0000   0.0000   0.0000
     0.0000   0.0000   0.0000   0.0000   0.0000   0.0000   0.0000   0.0000
     0.0000   0.0000   0.0000   0.0000   0.0000   0.0000   0.0000   0.0000
     0.0000   0.0000   0.0000   0.0000   0.0000

          k = 0.0000 0.0000-0.1842 ( 47896 PWs)   bands (ev):

   -78.8374 -78.8374 -74.7186 -74.7186 -69.6107 -69.6107 -65.4429 -65.4429
   -44.9985 -44.9985 -44.9985 -44.9985 -44.9702 -44.9702 -40.7811 -40.7811
   -40.6392 -40.6392 -40.6392 -40.6392 -38.5806 -38.5806 -38.4747 -38.4747
   -38.4747 -38.4747 -34.1658 -34.1658 -34.0602 -34.0602 -34.0602 -34.0602
   -30.4910 -30.4910 -30.4757 -30.4757 -16.0565 -16.0550 -15.9228 -15.9205
   -10.9018 -10.9016 -10.8926 -10.8926 -10.8926 -10.8926 -10.6339 -10.6339
   -10.5558 -10.5558 -10.5558 -10.5558  -7.1897  -7.1842  -6.8492  -6.7766
    -6.6652  -6.6385  -6.3161  -6.3161  -6.3081  -6.3081  -6.3045  -6.2602
    -6.1921  -6.1806  -6.0219  -6.0098  -5.9810  -5.9810  -5.9716  -5.9716
    -1.6495  -1.6495  -1.6448  -1.6448  -1.2183  -1.2160  -1.2119  -1.2075
    -1.0650  -1.0650  -1.0648  -1.0648   4.6798   4.6807   5.2111   5.3371
     5.4893   5.5817   5.6061   5.7326   5.8631   5.8783   6.0459   6.0459
     6.0570   6.0570   6.1199   6.1634   6.2908   6.3202   6.3231   6.4224
     6.4224   6.4808   6.4808   6.4925   6.6513   6.6596   6.9548   6.9548
     6.9785   6.9785   7.2886   7.3015   7.4076   7.4076   7.4301   7.4301
     7.6661   7.8413   7.9435   7.9435   8.0307   8.0307   8.3684   8.4071
     8.5164   8.5164   8.5654   8.6089   8.6129   8.6129   8.7537   8.7537
     8.8709   8.8709   8.9217   8.9217   8.9835   8.9835   9.1420   9.1565
     9.2147   9.2183   9.4002   9.4002   9.4552   9.4784   9.4838   9.5753
     9.5753   9.5938   9.8593   9.8593  10.1401  10.1401  10.1658  10.3049
    10.7838  10.7931  11.2591  11.2648  12.1690  12.1895  12.1895  12.3215
    12.3243  12.3621  12.3621  12.6913  13.4110  13.4110  13.4919  13.5134
    13.5317  13.5317  13.6023  13.7359  13.7598  13.8153  13.9674  13.9959
    14.2963  14.2965  14.7325  14.7497  15.1135  15.1277  15.3387  15.3597
    15.4104  15.5309  15.5310  15.5913  15.6255

     occupation numbers 
     1.0000   1.0000   1.0000   1.0000   1.0000   1.0000   1.0000   1.0000
     1.0000   1.0000   1.0000   1.0000   1.0000   1.0000   1.0000   1.0000
     1.0000   1.0000   1.0000   1.0000   1.0000   1.0000   1.0000   1.0000
     1.0000   1.0000   1.0000   1.0000   1.0000   1.0000   1.0000   1.0000
     1.0000   1.0000   1.0000   1.0000   1.0000   1.0000   1.0000   1.0000
     1.0000   1.0000   1.0000   1.0000   1.0000   1.0000   1.0000   1.0000
     1.0000   1.0000   1.0000   1.0000   1.0000   1.0000   1.0000   1.0000
     1.0000   1.0000   1.0000   1.0000   1.0000   1.0000   1.0000   1.0000
     1.0000   1.0000   1.0000   1.0000   1.0000   1.0000   1.0000   1.0000
     1.0000   1.0000   1.0000   1.0000   1.0000   1.0000   1.0000   1.0000
     1.0000   1.0000   1.0000   1.0000   1.0000   1.0000   1.0000   1.0000
     1.0000   1.0000   1.0000   1.0000   1.0000   1.0000   1.0000   1.0000
     1.0000   1.0000   1.0000   1.0000   1.0000   1.0000   1.0000   1.0000
     1.0000   1.0000   1.0000   1.0000   1.0000   1.0000   1.0000   1.0000
     1.0000   1.0000   1.0000   1.0000   1.0000   1.0000   1.0000   1.0000
     1.0000   1.0000   1.0000   1.0000   1.0000   1.0000   1.0000   1.0000
     1.0000   1.0000   1.0000   1.0000   1.0000   1.0000   1.0000   1.0000
     1.0000   1.0000   1.0000   1.0000   1.0000   1.0000   1.0000   1.0000
     1.0000   1.0000   1.0000   1.0000   1.0000   1.0000   1.0000   1.0000
     1.0000   1.0000   1.0000   1.0000   1.0000   1.0000   1.0000   1.0000
     1.0000   1.0000   1.0000   1.0000   0.0000   0.0000   0.0000   0.0000
     0.0000   0.0000   0.0000   0.0000   0.0000   0.0000   0.0000   0.0000
     0.0000   0.0000   0.0000   0.0000   0.0000   0.0000   0.0000   0.0000
     0.0000   0.0000   0.0000   0.0000   0.0000   0.0000   0.0000   0.0000
     0.0000   0.0000   0.0000   0.0000   0.0000

          k = 0.0000 0.2500 0.0000 ( 48036 PWs)   bands (ev):

   -78.8374 -78.8374 -74.7186 -74.7186 -69.6107 -69.6107 -65.4429 -65.4429
   -44.9985 -44.9985 -44.9985 -44.9985 -44.9702 -44.9702 -40.7811 -40.7811
   -40.6392 -40.6392 -40.6392 -40.6392 -38.5806 -38.5806 -38.4747 -38.4747
   -38.4747 -38.4747 -34.1658 -34.1658 -34.0602 -34.0602 -34.0602 -34.0602
   -30.4887 -30.4887 -30.4779 -30.4779 -16.0351 -16.0333 -15.9404 -15.9382
   -10.8689 -10.8622 -10.8520 -10.8515 -10.8447 -10.8434 -10.6757 -10.6716
   -10.6166 -10.6164 -10.6075 -10.6075  -7.0714  -7.0449  -6.9051  -6.8307
    -6.7427  -6.6335  -6.3702  -6.3325  -6.3077  -6.2839  -6.2710  -6.2351
    -6.2105  -6.1976  -6.1176  -6.0999  -6.0227  -6.0224  -5.9865  -5.9711
    -1.5697  -1.5649  -1.3988  -1.3905  -1.2203  -1.2095  -1.2010  -1.1989
    -1.1565  -1.1536  -0.9663  -0.9627   4.8481   5.0027   5.4004   5.4762
     5.5850   5.6262   5.7293   5.7678   5.7861   5.8864   5.9551   5.9667
     5.9959   6.1371   6.1758   6.2153   6.2742   6.3148   6.3555   6.3938
     6.4732   6.4906   6.5659   6.5847   6.6664   6.6786   6.7409   6.7533
     7.0597   7.0773   7.1328   7.1467   7.3195   7.3621   7.4846   7.4907
     7.5573   7.6533   7.7864   7.8692   7.9696   8.0182   8.0317   8.1402
     8.1909   8.3192   8.3431   8.4518   8.4880   8.5258   8.6698   8.7262
     8.7623   8.7866   8.8093   8.8621   8.9552   8.9968   8.9982   9.0876
     9.0970   9.1283   9.2140   9.2318   9.2936   9.4701   9.5826   9.6239
     9.6724   9.7072   9.7481   9.8194   9.9458  10.0055  10.2768  10.3431
    10.8041  10.8074  11.2545  11.2730  12.1526  12.1670  12.2474  12.2704
    12.3577  12.4428  12.5326  12.8143  13.4424  13.4812  13.5050  13.5506
    13.5884  13.6259  13.7910  13.8768  14.0379  14.1008  14.1834  14.2356
    14.3415  14.4377  14.9106  14.9973  14.9997  15.2773  15.4306  15.4769
    15.5388  15.7046  15.7233  15.7567  15.8563

     occupation numbers 
     1.0000   1.0000   1.0000   1.0000   1.0000   1.0000   1.0000   1.0000
     1.0000   1.0000   1.0000   1.0000   1.0000   1.0000   1.0000   1.0000
     1.0000   1.0000   1.0000   1.0000   1.0000   1.0000   1.0000   1.0000
     1.0000   1.0000   1.0000   1.0000   1.0000   1.0000   1.0000   1.0000
     1.0000   1.0000   1.0000   1.0000   1.0000   1.0000   1.0000   1.0000
     1.0000   1.0000   1.0000   1.0000   1.0000   1.0000   1.0000   1.0000
     1.0000   1.0000   1.0000   1.0000   1.0000   1.0000   1.0000   1.0000
     1.0000   1.0000   1.0000   1.0000   1.0000   1.0000   1.0000   1.0000
     1.0000   1.0000   1.0000   1.0000   1.0000   1.0000   1.0000   1.0000
     1.0000   1.0000   1.0000   1.0000   1.0000   1.0000   1.0000   1.0000
     1.0000   1.0000   1.0000   1.0000   1.0000   1.0000   1.0000   1.0000
     1.0000   1.0000   1.0000   1.0000   1.0000   1.0000   1.0000   1.0000
     1.0000   1.0000   1.0000   1.0000   1.0000   1.0000   1.0000   1.0000
     1.0000   1.0000   1.0000   1.0000   1.0000   1.0000   1.0000   1.0000
     1.0000   1.0000   1.0000   1.0000   1.0000   1.0000   1.0000   1.0000
     1.0000   1.0000   1.0000   1.0000   1.0000   1.0000   1.0000   1.0000
     1.0000   1.0000   1.0000   1.0000   1.0000   1.0000   1.0000   1.0000
     1.0000   1.0000   1.0000   1.0000   1.0000   1.0000   1.0000   1.0000
     1.0000   1.0000   1.0000   1.0000   1.0000   1.0000   1.0000   1.0000
     1.0000   1.0000   1.0000   1.0000   1.0000   1.0000   1.0000   1.0000
     1.0000   1.0000   1.0000   1.0000   0.0000   0.0000   0.0000   0.0000
     0.0000   0.0000   0.0000   0.0000   0.0000   0.0000   0.0000   0.0000
     0.0000   0.0000   0.0000   0.0000   0.0000   0.0000   0.0000   0.0000
     0.0000   0.0000   0.0000   0.0000   0.0000   0.0000   0.0000   0.0000
     0.0000   0.0000   0.0000   0.0000   0.0000

          k = 0.0000 0.2500-0.1842 ( 48002 PWs)   bands (ev):

   -78.8374 -78.8374 -74.7186 -74.7186 -69.6107 -69.6107 -65.4429 -65.4429
   -44.9985 -44.9985 -44.9985 -44.9985 -44.9702 -44.9702 -40.7811 -40.7811
   -40.6392 -40.6392 -40.6392 -40.6392 -38.5806 -38.5806 -38.4747 -38.4747
   -38.4747 -38.4747 -34.1658 -34.1658 -34.0602 -34.0602 -34.0602 -34.0602
   -30.4887 -30.4887 -30.4779 -30.4779 -16.0350 -16.0334 -15.9404 -15.9382
   -10.8655 -10.8653 -10.8518 -10.8518 -10.8442 -10.8441 -10.6737 -10.6736
   -10.6165 -10.6165 -10.6075 -10.6075  -7.0717  -7.0461  -6.9084  -6.8058
    -6.7295  -6.6872  -6.3403  -6.3161  -6.2980  -6.2932  -6.2696  -6.2558
    -6.2124  -6.2029  -6.1167  -6.1008  -6.0233  -6.0201  -5.9823  -5.9766
    -1.5693  -1.5653  -1.3982  -1.3912  -1.2111  -1.2083  -1.2072  -1.2032
    -1.1553  -1.1548  -0.9659  -0.9630   4.9108   4.9230   5.3764   5.5387
     5.5970   5.6329   5.7396   5.7552   5.7868   5.8511   5.9379   5.9446
     6.0129   6.1401   6.1734   6.2313   6.2663   6.3261   6.3624   6.4227
     6.4695   6.4898   6.5286   6.5565   6.6653   6.6721   6.7497   6.7827
     7.0663   7.0723   7.1187   7.2302   7.3237   7.3420   7.4758   7.4884
     7.5641   7.5838   7.7832   7.8441   7.9349   7.9737   8.0340   8.1202
     8.2706   8.3446   8.4280   8.4346   8.5439   8.6108   8.6437   8.6832
     8.7111   8.7724   8.8230   8.8299   8.9570   8.9845   9.0268   9.0763
     9.0793   9.1096   9.2090   9.2573   9.2804   9.4834   9.6051   9.6087
     9.6619   9.6954   9.7649   9.8201   9.9607  10.0083  10.2281  10.3473
    10.8044  10.8072  11.2554  11.2725  12.1642  12.2115  12.2458  12.2774
    12.4028  12.4427  12.5335  12.7338  13.4383  13.4771  13.4912  13.5415
    13.5880  13.6241  13.7099  13.9641  14.0555  14.0886  14.2479  14.2711
    14.3142  14.3275  14.9760  14.9992  15.1177  15.1249  15.4476  15.4771
    15.5321  15.5359  15.6881  15.8001  15.8553

     occupation numbers 
     1.0000   1.0000   1.0000   1.0000   1.0000   1.0000   1.0000   1.0000
     1.0000   1.0000   1.0000   1.0000   1.0000   1.0000   1.0000   1.0000
     1.0000   1.0000   1.0000   1.0000   1.0000   1.0000   1.0000   1.0000
     1.0000   1.0000   1.0000   1.0000   1.0000   1.0000   1.0000   1.0000
     1.0000   1.0000   1.0000   1.0000   1.0000   1.0000   1.0000   1.0000
     1.0000   1.0000   1.0000   1.0000   1.0000   1.0000   1.0000   1.0000
     1.0000   1.0000   1.0000   1.0000   1.0000   1.0000   1.0000   1.0000
     1.0000   1.0000   1.0000   1.0000   1.0000   1.0000   1.0000   1.0000
     1.0000   1.0000   1.0000   1.0000   1.0000   1.0000   1.0000   1.0000
     1.0000   1.0000   1.0000   1.0000   1.0000   1.0000   1.0000   1.0000
     1.0000   1.0000   1.0000   1.0000   1.0000   1.0000   1.0000   1.0000
     1.0000   1.0000   1.0000   1.0000   1.0000   1.0000   1.0000   1.0000
     1.0000   1.0000   1.0000   1.0000   1.0000   1.0000   1.0000   1.0000
     1.0000   1.0000   1.0000   1.0000   1.0000   1.0000   1.0000   1.0000
     1.0000   1.0000   1.0000   1.0000   1.0000   1.0000   1.0000   1.0000
     1.0000   1.0000   1.0000   1.0000   1.0000   1.0000   1.0000   1.0000
     1.0000   1.0000   1.0000   1.0000   1.0000   1.0000   1.0000   1.0000
     1.0000   1.0000   1.0000   1.0000   1.0000   1.0000   1.0000   1.0000
     1.0000   1.0000   1.0000   1.0000   1.0000   1.0000   1.0000   1.0000
     1.0000   1.0000   1.0000   1.0000   1.0000   1.0000   1.0000   1.0000
     1.0000   1.0000   1.0000   1.0000   0.0000   0.0000   0.0000   0.0000
     0.0000   0.0000   0.0000   0.0000   0.0000   0.0000   0.0000   0.0000
     0.0000   0.0000   0.0000   0.0000   0.0000   0.0000   0.0000   0.0000
     0.0000   0.0000   0.0000   0.0000   0.0000   0.0000   0.0000   0.0000
     0.0000   0.0000   0.0000   0.0000   0.0000

          k = 0.0000-0.5000 0.0000 ( 48052 PWs)   bands (ev):

   -78.8374 -78.8374 -74.7186 -74.7186 -69.6107 -69.6107 -65.4429 -65.4429
   -44.9985 -44.9985 -44.9985 -44.9985 -44.9702 -44.9702 -40.7811 -40.7811
   -40.6392 -40.6392 -40.6392 -40.6392 -38.5806 -38.5806 -38.4747 -38.4747
   -38.4747 -38.4747 -34.1658 -34.1658 -34.0603 -34.0603 -34.0602 -34.0602
   -30.4833 -30.4833 -30.4833 -30.4833 -15.9859 -15.9859 -15.9838 -15.9838
   -10.7731 -10.7731 -10.7676 -10.7676 -10.7472 -10.7472 -10.7429 -10.7429
   -10.7287 -10.7287 -10.7253 -10.7253  -6.9929  -6.9929  -6.8297  -6.8297
    -6.6280  -6.6280  -6.5054  -6.5054  -6.3304  -6.3304  -6.2523  -6.2523
    -6.1994  -6.1994  -6.1564  -6.1564  -6.0491  -6.0491  -5.9969  -5.9969
    -1.3698  -1.3698  -1.3650  -1.3650  -1.2044  -1.2044  -1.1991  -1.1991
    -1.0010  -1.0010  -0.9914  -0.9914   5.3029   5.3029   5.5146   5.5146
     5.6457   5.6457   5.7372   5.7372   5.7944   5.7944   5.9782   5.9782
     6.1459   6.1459   6.2108   6.2108   6.3226   6.3226   6.3672   6.3672
     6.4902   6.4902   6.6095   6.6095   6.7105   6.7105   6.7497   6.7497
     6.9941   6.9941   7.1624   7.1624   7.2058   7.2058   7.3697   7.3697
     7.3885   7.3885   7.5328   7.5328   7.7007   7.7007   8.0105   8.0105
     8.1416   8.1416   8.3501   8.3501   8.4907   8.4907   8.5186   8.5186
     8.6202   8.6202   8.8559   8.8559   8.8865   8.8865   8.9832   8.9832
     9.0617   9.0617   9.1361   9.1361   9.2684   9.2684   9.6804   9.6804
     9.7056   9.7056   9.7748   9.7748   9.8963   9.8963  10.3279  10.3279
    10.8237  10.8237  11.2254  11.2254  12.1860  12.1860  12.2502  12.2502
    12.6218  12.6218  12.6805  12.6805  13.5068  13.5068  13.5774  13.5774
    13.5968  13.5968  13.8642  13.8642  13.9274  13.9274  14.8493  14.8493
    14.8974  14.8974  15.1996  15.1996  15.4225  15.4225  15.6570  15.6570
    15.7479  15.7480  15.8359  15.8361  15.9356

     occupation numbers 
     1.0000   1.0000   1.0000   1.0000   1.0000   1.0000   1.0000   1.0000
     1.0000   1.0000   1.0000   1.0000   1.0000   1.0000   1.0000   1.0000
     1.0000   1.0000   1.0000   1.0000   1.0000   1.0000   1.0000   1.0000
     1.0000   1.0000   1.0000   1.0000   1.0000   1.0000   1.0000   1.0000
     1.0000   1.0000   1.0000   1.0000   1.0000   1.0000   1.0000   1.0000
     1.0000   1.0000   1.0000   1.0000   1.0000   1.0000   1.0000   1.0000
     1.0000   1.0000   1.0000   1.0000   1.0000   1.0000   1.0000   1.0000
     1.0000   1.0000   1.0000   1.0000   1.0000   1.0000   1.0000   1.0000
     1.0000   1.0000   1.0000   1.0000   1.0000   1.0000   1.0000   1.0000
     1.0000   1.0000   1.0000   1.0000   1.0000   1.0000   1.0000   1.0000
     1.0000   1.0000   1.0000   1.0000   1.0000   1.0000   1.0000   1.0000
     1.0000   1.0000   1.0000   1.0000   1.0000   1.0000   1.0000   1.0000
     1.0000   1.0000   1.0000   1.0000   1.0000   1.0000   1.0000   1.0000
     1.0000   1.0000   1.0000   1.0000   1.0000   1.0000   1.0000   1.0000
     1.0000   1.0000   1.0000   1.0000   1.0000   1.0000   1.0000   1.0000
     1.0000   1.0000   1.0000   1.0000   1.0000   1.0000   1.0000   1.0000
     1.0000   1.0000   1.0000   1.0000   1.0000   1.0000   1.0000   1.0000
     1.0000   1.0000   1.0000   1.0000   1.0000   1.0000   1.0000   1.0000
     1.0000   1.0000   1.0000   1.0000   1.0000   1.0000   1.0000   1.0000
     1.0000   1.0000   1.0000   1.0000   1.0000   1.0000   1.0000   1.0000
     1.0000   1.0000   1.0000   1.0000   0.0000   0.0000   0.0000   0.0000
     0.0000   0.0000   0.0000   0.0000   0.0000   0.0000   0.0000   0.0000
     0.0000   0.0000   0.0000   0.0000   0.0000   0.0000   0.0000   0.0000
     0.0000   0.0000   0.0000   0.0000   0.0000   0.0000   0.0000   0.0000
     0.0000   0.0000   0.0000   0.0000   0.0000

          k = 0.0000-0.5000-0.1842 ( 48060 PWs)   bands (ev):

   -78.8374 -78.8374 -74.7186 -74.7186 -69.6107 -69.6107 -65.4429 -65.4429
   -44.9985 -44.9985 -44.9985 -44.9985 -44.9702 -44.9702 -40.7811 -40.7811
   -40.6392 -40.6392 -40.6392 -40.6392 -38.5806 -38.5806 -38.4747 -38.4747
   -38.4747 -38.4747 -34.1658 -34.1658 -34.0603 -34.0603 -34.0602 -34.0602
   -30.4833 -30.4833 -30.4833 -30.4833 -15.9858 -15.9858 -15.9838 -15.9838
   -10.7712 -10.7712 -10.7695 -10.7695 -10.7472 -10.7472 -10.7429 -10.7429
   -10.7287 -10.7287 -10.7253 -10.7253  -6.9928  -6.9928  -6.8328  -6.8328
    -6.5973  -6.5973  -6.5460  -6.5460  -6.3023  -6.3023  -6.2693  -6.2693
    -6.1935  -6.1935  -6.1607  -6.1607  -6.0479  -6.0479  -5.9979  -5.9979
    -1.3686  -1.3686  -1.3662  -1.3662  -1.2032  -1.2032  -1.2004  -1.2004
    -0.9996  -0.9996  -0.9927  -0.9927   5.3417   5.3417   5.4444   5.4444
     5.6368   5.6368   5.7352   5.7352   5.8749   5.8749   5.9472   5.9472
     6.1322   6.1322   6.2211   6.2211   6.3352   6.3352   6.3616   6.3616
     6.4903   6.4903   6.5683   6.5683   6.6805   6.6805   6.8353   6.8353
     7.0259   7.0259   7.1560   7.1560   7.2124   7.2124   7.3049   7.3049
     7.3994   7.3994   7.4738   7.4738   7.7253   7.7253   7.9859   7.9859
     8.1408   8.1408   8.4104   8.4104   8.5118   8.5118   8.5809   8.5809
     8.6541   8.6541   8.8051   8.8051   8.8769   8.8769   8.9025   8.9025
     9.0477   9.0477   9.1385   9.1385   9.2945   9.2945   9.6442   9.6442
     9.7514   9.7514   9.7792   9.7792   9.8963   9.8963  10.3127  10.3127
    10.8237  10.8237  11.2254  11.2254  12.1844  12.1844  12.2503  12.2503
    12.6505  12.6505  12.6805  12.6805  13.4896  13.4896  13.5783  13.5783
    13.5959  13.5959  13.8630  13.8630  13.9128  13.9128  14.8543  14.8543
    14.8970  14.8970  15.2240  15.2240  15.4623  15.4623  15.6833  15.6834
    15.6913  15.6913  15.7743  15.7764  15.8479

     occupation numbers 
     1.0000   1.0000   1.0000   1.0000   1.0000   1.0000   1.0000   1.0000
     1.0000   1.0000   1.0000   1.0000   1.0000   1.0000   1.0000   1.0000
     1.0000   1.0000   1.0000   1.0000   1.0000   1.0000   1.0000   1.0000
     1.0000   1.0000   1.0000   1.0000   1.0000   1.0000   1.0000   1.0000
     1.0000   1.0000   1.0000   1.0000   1.0000   1.0000   1.0000   1.0000
     1.0000   1.0000   1.0000   1.0000   1.0000   1.0000   1.0000   1.0000
     1.0000   1.0000   1.0000   1.0000   1.0000   1.0000   1.0000   1.0000
     1.0000   1.0000   1.0000   1.0000   1.0000   1.0000   1.0000   1.0000
     1.0000   1.0000   1.0000   1.0000   1.0000   1.0000   1.0000   1.0000
     1.0000   1.0000   1.0000   1.0000   1.0000   1.0000   1.0000   1.0000
     1.0000   1.0000   1.0000   1.0000   1.0000   1.0000   1.0000   1.0000
     1.0000   1.0000   1.0000   1.0000   1.0000   1.0000   1.0000   1.0000
     1.0000   1.0000   1.0000   1.0000   1.0000   1.0000   1.0000   1.0000
     1.0000   1.0000   1.0000   1.0000   1.0000   1.0000   1.0000   1.0000
     1.0000   1.0000   1.0000   1.0000   1.0000   1.0000   1.0000   1.0000
     1.0000   1.0000   1.0000   1.0000   1.0000   1.0000   1.0000   1.0000
     1.0000   1.0000   1.0000   1.0000   1.0000   1.0000   1.0000   1.0000
     1.0000   1.0000   1.0000   1.0000   1.0000   1.0000   1.0000   1.0000
     1.0000   1.0000   1.0000   1.0000   1.0000   1.0000   1.0000   1.0000
     1.0000   1.0000   1.0000   1.0000   1.0000   1.0000   1.0000   1.0000
     1.0000   1.0000   1.0000   1.0000   0.0000   0.0000   0.0000   0.0000
     0.0000   0.0000   0.0000   0.0000   0.0000   0.0000   0.0000   0.0000
     0.0000   0.0000   0.0000   0.0000   0.0000   0.0000   0.0000   0.0000
     0.0000   0.0000   0.0000   0.0000   0.0000   0.0000   0.0000   0.0000
     0.0000   0.0000   0.0000   0.0000   0.0000

          k = 0.2500 0.2500 0.0000 ( 47957 PWs)   bands (ev):

   -78.8374 -78.8374 -74.7186 -74.7186 -69.6107 -69.6107 -65.4429 -65.4429
   -44.9985 -44.9985 -44.9985 -44.9985 -44.9702 -44.9702 -40.7811 -40.7811
   -40.6392 -40.6392 -40.6392 -40.6392 -38.5806 -38.5806 -38.4747 -38.4747
   -38.4747 -38.4747 -34.1658 -34.1658 -34.0602 -34.0602 -34.0602 -34.0602
   -30.4871 -30.4871 -30.4795 -30.4795 -16.0191 -16.0172 -15.9521 -15.9498
   -10.9075 -10.9070 -10.8355 -10.8282 -10.7505 -10.7504 -10.7271 -10.7270
   -10.6980 -10.6936 -10.5504 -10.5504  -7.0388  -7.0066  -6.8951  -6.8707
    -6.8064  -6.6577  -6.4048  -6.3991  -6.3573  -6.3212  -6.2950  -6.2940
    -6.1794  -6.1591  -6.0924  -6.0758  -6.0428  -6.0371  -5.9972  -5.9886
    -1.3685  -1.3574  -1.3047  -1.2983  -1.2122  -1.2044  -1.1966  -1.1942
    -1.0733  -1.0638  -0.9866  -0.9853   5.0168   5.1744   5.4692   5.5183
     5.6199   5.6737   5.6994   5.7255   5.8130   5.9160   5.9784   6.0152
     6.0997   6.1353   6.1389   6.1929   6.2547   6.2898   6.3852   6.4291
     6.5388   6.5841   6.6338   6.6504   6.7416   6.7509   6.7901   6.8604
     6.8811   6.9261   6.9787   7.0640   7.3105   7.3529   7.3928   7.3991
     7.5255   7.6444   7.7165   7.8312   7.8877   7.9154   8.0020   8.0187
     8.0765   8.1799   8.1913   8.1956   8.3253   8.3661   8.3801   8.4661
     8.6074   8.6627   8.7313   8.7437   8.7643   8.7894   8.9400   8.9588
     8.9949   9.0030   9.1249   9.1622   9.2852   9.4691   9.6352   9.6813
     9.7184   9.7311   9.7801   9.9609  10.0174  10.1398  10.3412  10.3716
    10.6677  10.6809  11.2256  11.2321  12.1710  12.2324  12.2500  12.3082
    12.3651  12.4475  12.5134  12.8208  13.4455  13.4874  13.5136  13.5670
    13.6327  13.6580  13.7541  13.8098  13.8740  13.9346  14.5225  14.5778
    14.6014  14.7442  14.9305  14.9826  15.2828  15.4024  15.4607  15.6428
    15.7206  15.7830  15.8378  15.8477  15.9115

     occupation numbers 
     1.0000   1.0000   1.0000   1.0000   1.0000   1.0000   1.0000   1.0000
     1.0000   1.0000   1.0000   1.0000   1.0000   1.0000   1.0000   1.0000
     1.0000   1.0000   1.0000   1.0000   1.0000   1.0000   1.0000   1.0000
     1.0000   1.0000   1.0000   1.0000   1.0000   1.0000   1.0000   1.0000
     1.0000   1.0000   1.0000   1.0000   1.0000   1.0000   1.0000   1.0000
     1.0000   1.0000   1.0000   1.0000   1.0000   1.0000   1.0000   1.0000
     1.0000   1.0000   1.0000   1.0000   1.0000   1.0000   1.0000   1.0000
     1.0000   1.0000   1.0000   1.0000   1.0000   1.0000   1.0000   1.0000
     1.0000   1.0000   1.0000   1.0000   1.0000   1.0000   1.0000   1.0000
     1.0000   1.0000   1.0000   1.0000   1.0000   1.0000   1.0000   1.0000
     1.0000   1.0000   1.0000   1.0000   1.0000   1.0000   1.0000   1.0000
     1.0000   1.0000   1.0000   1.0000   1.0000   1.0000   1.0000   1.0000
     1.0000   1.0000   1.0000   1.0000   1.0000   1.0000   1.0000   1.0000
     1.0000   1.0000   1.0000   1.0000   1.0000   1.0000   1.0000   1.0000
     1.0000   1.0000   1.0000   1.0000   1.0000   1.0000   1.0000   1.0000
     1.0000   1.0000   1.0000   1.0000   1.0000   1.0000   1.0000   1.0000
     1.0000   1.0000   1.0000   1.0000   1.0000   1.0000   1.0000   1.0000
     1.0000   1.0000   1.0000   1.0000   1.0000   1.0000   1.0000   1.0000
     1.0000   1.0000   1.0000   1.0000   1.0000   1.0000   1.0000   1.0000
     1.0000   1.0000   1.0000   1.0000   1.0000   1.0000   1.0000   1.0000
     1.0000   1.0000   1.0000   1.0000   0.0000   0.0000   0.0000   0.0000
     0.0000   0.0000   0.0000   0.0000   0.0000   0.0000   0.0000   0.0000
     0.0000   0.0000   0.0000   0.0000   0.0000   0.0000   0.0000   0.0000
     0.0000   0.0000   0.0000   0.0000   0.0000   0.0000   0.0000   0.0000
     0.0000   0.0000   0.0000   0.0000   0.0000

          k = 0.2500 0.2500-0.1842 ( 48026 PWs)   bands (ev):

   -78.8374 -78.8374 -74.7186 -74.7186 -69.6107 -69.6107 -65.4429 -65.4429
   -44.9985 -44.9985 -44.9985 -44.9985 -44.9702 -44.9702 -40.7811 -40.7811
   -40.6392 -40.6392 -40.6392 -40.6392 -38.5806 -38.5806 -38.4747 -38.4747
   -38.4747 -38.4747 -34.1658 -34.1658 -34.0602 -34.0602 -34.0602 -34.0602
   -30.4871 -30.4871 -30.4795 -30.4795 -16.0191 -16.0173 -15.9521 -15.9499
   -10.9072 -10.9072 -10.8319 -10.8318 -10.7504 -10.7504 -10.7271 -10.7270
   -10.6958 -10.6958 -10.5504 -10.5504  -7.0376  -7.0073  -6.9240  -6.8376
    -6.7559  -6.7314  -6.3922  -6.3796  -6.3425  -6.3268  -6.3117  -6.3003
    -6.1747  -6.1636  -6.0865  -6.0804  -6.0426  -6.0360  -5.9958  -5.9924
    -1.3684  -1.3574  -1.3023  -1.3007  -1.2064  -1.2055  -1.1986  -1.1971
    -1.0726  -1.0646  -0.9865  -0.9854   5.0707   5.1036   5.4276   5.5834
     5.6566   5.6644   5.7016   5.7103   5.8205   5.8889   5.9714   6.0402
     6.0872   6.1268   6.1498   6.1860   6.2565   6.2796   6.4288   6.4577
     6.4942   6.5534   6.5973   6.6258   6.7435   6.7469   6.8021   6.8760
     6.8763   6.9181   7.0013   7.1356   7.3368   7.3473   7.4288   7.4805
     7.5370   7.5453   7.6555   7.7427   7.8225   7.9220   7.9385   8.0001
     8.0672   8.1282   8.2831   8.3236   8.3866   8.4233   8.4388   8.4664
     8.5749   8.6475   8.7474   8.7702   8.7989   8.8293   8.8338   8.8704
     8.9646   8.9759   9.1438   9.1959   9.2500   9.4985   9.6361   9.6782
     9.6931   9.7789   9.7798   9.9641  10.0161  10.1413  10.3045  10.3642
    10.6740  10.6816  11.2236  11.2340  12.1707  12.2455  12.2490  12.3378
    12.3746  12.4472  12.5509  12.7624  13.4424  13.4818  13.5038  13.5666
    13.6405  13.6485  13.7692  13.7945  13.8068  13.9946  14.5389  14.5701
    14.6121  14.7072  14.9624  14.9988  15.3825  15.3973  15.6026  15.6179
    15.6726  15.6880  15.7156  15.7622  15.8589

     occupation numbers 
     1.0000   1.0000   1.0000   1.0000   1.0000   1.0000   1.0000   1.0000
     1.0000   1.0000   1.0000   1.0000   1.0000   1.0000   1.0000   1.0000
     1.0000   1.0000   1.0000   1.0000   1.0000   1.0000   1.0000   1.0000
     1.0000   1.0000   1.0000   1.0000   1.0000   1.0000   1.0000   1.0000
     1.0000   1.0000   1.0000   1.0000   1.0000   1.0000   1.0000   1.0000
     1.0000   1.0000   1.0000   1.0000   1.0000   1.0000   1.0000   1.0000
     1.0000   1.0000   1.0000   1.0000   1.0000   1.0000   1.0000   1.0000
     1.0000   1.0000   1.0000   1.0000   1.0000   1.0000   1.0000   1.0000
     1.0000   1.0000   1.0000   1.0000   1.0000   1.0000   1.0000   1.0000
     1.0000   1.0000   1.0000   1.0000   1.0000   1.0000   1.0000   1.0000
     1.0000   1.0000   1.0000   1.0000   1.0000   1.0000   1.0000   1.0000
     1.0000   1.0000   1.0000   1.0000   1.0000   1.0000   1.0000   1.0000
     1.0000   1.0000   1.0000   1.0000   1.0000   1.0000   1.0000   1.0000
     1.0000   1.0000   1.0000   1.0000   1.0000   1.0000   1.0000   1.0000
     1.0000   1.0000   1.0000   1.0000   1.0000   1.0000   1.0000   1.0000
     1.0000   1.0000   1.0000   1.0000   1.0000   1.0000   1.0000   1.0000
     1.0000   1.0000   1.0000   1.0000   1.0000   1.0000   1.0000   1.0000
     1.0000   1.0000   1.0000   1.0000   1.0000   1.0000   1.0000   1.0000
     1.0000   1.0000   1.0000   1.0000   1.0000   1.0000   1.0000   1.0000
     1.0000   1.0000   1.0000   1.0000   1.0000   1.0000   1.0000   1.0000
     1.0000   1.0000   1.0000   1.0000   0.0000   0.0000   0.0000   0.0000
     0.0000   0.0000   0.0000   0.0000   0.0000   0.0000   0.0000   0.0000
     0.0000   0.0000   0.0000   0.0000   0.0000   0.0000   0.0000   0.0000
     0.0000   0.0000   0.0000   0.0000   0.0000   0.0000   0.0000   0.0000
     0.0000   0.0000   0.0000   0.0000   0.0000

          k = 0.2500-0.5000 0.0000 ( 47996 PWs)   bands (ev):

   -78.8374 -78.8374 -74.7186 -74.7186 -69.6107 -69.6107 -65.4429 -65.4429
   -44.9985 -44.9985 -44.9985 -44.9985 -44.9702 -44.9702 -40.7811 -40.7811
   -40.6392 -40.6392 -40.6392 -40.6392 -38.5806 -38.5806 -38.4747 -38.4747
   -38.4747 -38.4747 -34.1658 -34.1658 -34.0603 -34.0603 -34.0602 -34.0602
   -30.4833 -30.4833 -30.4833 -30.4833 -15.9834 -15.9834 -15.9813 -15.9813
   -10.8716 -10.8716 -10.8664 -10.8664 -10.7652 -10.7642 -10.7594 -10.7585
   -10.6055 -10.6055 -10.5995 -10.5995  -7.0504  -7.0502  -6.8889  -6.8887
    -6.6044  -6.6025  -6.5220  -6.5180  -6.4258  -6.4223  -6.3568  -6.3544
    -6.1318  -6.1261  -6.0938  -6.0800  -6.0407  -6.0143  -6.0108  -5.9918
    -1.2122  -1.2045  -1.2034  -1.1998  -1.1914  -1.1900  -1.1832  -1.1815
    -0.9795  -0.9779  -0.9746  -0.9728   5.2512   5.2744   5.5545   5.5547
     5.6326   5.6527   5.6907   5.7057   5.8984   5.9012   5.9887   5.9922
     6.0970   6.1467   6.2042   6.2074   6.2788   6.2957   6.4038   6.4284
     6.5178   6.6486   6.6741   6.6959   6.7824   6.8147   6.8673   6.9026
     7.0323   7.0462   7.1196   7.1678   7.2235   7.2300   7.2802   7.3350
     7.3640   7.3650   7.4443   7.4645   7.5717   7.6411   7.8171   7.8719
     7.9542   8.0222   8.2063   8.2449   8.3092   8.3205   8.3453   8.4043
     8.4400   8.4905   8.5007   8.5472   8.6306   8.6532   8.7926   8.8575
     8.9777   8.9827   9.1376   9.1991   9.2601   9.3129   9.6560   9.6812
     9.7888   9.7900   9.9431   9.9778  10.0827  10.0956  10.4106  10.4109
    10.5788  10.5905  11.1902  11.2107  12.1829  12.1968  12.3038  12.3264
    12.4789  12.4917  12.6922  12.6927  13.3867  13.4034  13.4987  13.5133
    13.5896  13.6136  13.7054  13.7103  13.9640  13.9689  14.5261  14.5478
    15.1864  15.1901  15.2885  15.3296  15.5181  15.5423  15.7019  15.7121
    15.7574  15.7736  15.8521  15.8575  16.0913

     occupation numbers 
     1.0000   1.0000   1.0000   1.0000   1.0000   1.0000   1.0000   1.0000
     1.0000   1.0000   1.0000   1.0000   1.0000   1.0000   1.0000   1.0000
     1.0000   1.0000   1.0000   1.0000   1.0000   1.0000   1.0000   1.0000
     1.0000   1.0000   1.0000   1.0000   1.0000   1.0000   1.0000   1.0000
     1.0000   1.0000   1.0000   1.0000   1.0000   1.0000   1.0000   1.0000
     1.0000   1.0000   1.0000   1.0000   1.0000   1.0000   1.0000   1.0000
     1.0000   1.0000   1.0000   1.0000   1.0000   1.0000   1.0000   1.0000
     1.0000   1.0000   1.0000   1.0000   1.0000   1.0000   1.0000   1.0000
     1.0000   1.0000   1.0000   1.0000   1.0000   1.0000   1.0000   1.0000
     1.0000   1.0000   1.0000   1.0000   1.0000   1.0000   1.0000   1.0000
     1.0000   1.0000   1.0000   1.0000   1.0000   1.0000   1.0000   1.0000
     1.0000   1.0000   1.0000   1.0000   1.0000   1.0000   1.0000   1.0000
     1.0000   1.0000   1.0000   1.0000   1.0000   1.0000   1.0000   1.0000
     1.0000   1.0000   1.0000   1.0000   1.0000   1.0000   1.0000   1.0000
     1.0000   1.0000   1.0000   1.0000   1.0000   1.0000   1.0000   1.0000
     1.0000   1.0000   1.0000   1.0000   1.0000   1.0000   1.0000   1.0000
     1.0000   1.0000   1.0000   1.0000   1.0000   1.0000   1.0000   1.0000
     1.0000   1.0000   1.0000   1.0000   1.0000   1.0000   1.0000   1.0000
     1.0000   1.0000   1.0000   1.0000   1.0000   1.0000   1.0000   1.0000
     1.0000   1.0000   1.0000   1.0000   1.0000   1.0000   1.0000   1.0000
     1.0000   1.0000   1.0000   1.0000   0.0000   0.0000   0.0000   0.0000
     0.0000   0.0000   0.0000   0.0000   0.0000   0.0000   0.0000   0.0000
     0.0000   0.0000   0.0000   0.0000   0.0000   0.0000   0.0000   0.0000
     0.0000   0.0000   0.0000   0.0000   0.0000   0.0000   0.0000   0.0000
     0.0000   0.0000   0.0000   0.0000   0.0000

          k = 0.2500-0.5000-0.1842 ( 48016 PWs)   bands (ev):

   -78.8374 -78.8374 -74.7186 -74.7186 -69.6107 -69.6107 -65.4429 -65.4429
   -44.9985 -44.9985 -44.9985 -44.9985 -44.9702 -44.9702 -40.7811 -40.7811
   -40.6392 -40.6392 -40.6392 -40.6392 -38.5806 -38.5806 -38.4747 -38.4747
   -38.4747 -38.4747 -34.1658 -34.1658 -34.0603 -34.0603 -34.0602 -34.0602
   -30.4833 -30.4833 -30.4833 -30.4833 -15.9834 -15.9834 -15.9813 -15.9813
   -10.8716 -10.8715 -10.8665 -10.8664 -10.7624 -10.7623 -10.7613 -10.7613
   -10.6055 -10.6055 -10.5995 -10.5995  -7.0503  -7.0502  -6.8892  -6.8891
    -6.5887  -6.5870  -6.5477  -6.5445  -6.4024  -6.3947  -6.3747  -6.3701
    -6.1305  -6.1182  -6.0954  -6.0834  -6.0301  -6.0229  -6.0052  -5.9994
    -1.2102  -1.2079  -1.1997  -1.1996  -1.1947  -1.1906  -1.1826  -1.1808
    -0.9789  -0.9773  -0.9752  -0.9735   5.2597   5.2880   5.5123   5.5262
     5.6618   5.6716   5.6791   5.6908   5.9091   5.9596   5.9728   5.9940
     6.0981   6.1346   6.1833   6.2045   6.2813   6.2955   6.4072   6.4635
     6.4920   6.5521   6.6959   6.6976   6.7767   6.7973   6.9411   6.9998
     7.0285   7.0484   7.1657   7.1737   7.2045   7.2206   7.2933   7.3108
     7.3445   7.3598   7.4141   7.5356   7.5880   7.6122   7.6842   7.6968
     7.9625   8.0364   8.2375   8.2417   8.3719   8.3793   8.4081   8.4312
     8.4410   8.5154   8.5615   8.5699   8.6478   8.6759   8.8041   8.8126
     8.8901   8.8960   9.0642   9.1720   9.3089   9.3650   9.6536   9.6789
     9.8020   9.8076   9.9482   9.9791  10.0853  10.0891  10.3836  10.3845
    10.5905  10.5983  11.1916  11.2110  12.1810  12.1948  12.3049  12.3275
    12.4776  12.4955  12.7127  12.7128  13.3922  13.3950  13.4932  13.5106
    13.5885  13.6137  13.7064  13.7102  13.9494  13.9522  14.5304  14.5381
    15.1247  15.1694  15.3374  15.4210  15.5393  15.5697  15.7096  15.7540
    15.7601  15.7783  15.8809  15.8819  15.9806

     occupation numbers 
     1.0000   1.0000   1.0000   1.0000   1.0000   1.0000   1.0000   1.0000
     1.0000   1.0000   1.0000   1.0000   1.0000   1.0000   1.0000   1.0000
     1.0000   1.0000   1.0000   1.0000   1.0000   1.0000   1.0000   1.0000
     1.0000   1.0000   1.0000   1.0000   1.0000   1.0000   1.0000   1.0000
     1.0000   1.0000   1.0000   1.0000   1.0000   1.0000   1.0000   1.0000
     1.0000   1.0000   1.0000   1.0000   1.0000   1.0000   1.0000   1.0000
     1.0000   1.0000   1.0000   1.0000   1.0000   1.0000   1.0000   1.0000
     1.0000   1.0000   1.0000   1.0000   1.0000   1.0000   1.0000   1.0000
     1.0000   1.0000   1.0000   1.0000   1.0000   1.0000   1.0000   1.0000
     1.0000   1.0000   1.0000   1.0000   1.0000   1.0000   1.0000   1.0000
     1.0000   1.0000   1.0000   1.0000   1.0000   1.0000   1.0000   1.0000
     1.0000   1.0000   1.0000   1.0000   1.0000   1.0000   1.0000   1.0000
     1.0000   1.0000   1.0000   1.0000   1.0000   1.0000   1.0000   1.0000
     1.0000   1.0000   1.0000   1.0000   1.0000   1.0000   1.0000   1.0000
     1.0000   1.0000   1.0000   1.0000   1.0000   1.0000   1.0000   1.0000
     1.0000   1.0000   1.0000   1.0000   1.0000   1.0000   1.0000   1.0000
     1.0000   1.0000   1.0000   1.0000   1.0000   1.0000   1.0000   1.0000
     1.0000   1.0000   1.0000   1.0000   1.0000   1.0000   1.0000   1.0000
     1.0000   1.0000   1.0000   1.0000   1.0000   1.0000   1.0000   1.0000
     1.0000   1.0000   1.0000   1.0000   1.0000   1.0000   1.0000   1.0000
     1.0000   1.0000   1.0000   1.0000   0.0000   0.0000   0.0000   0.0000
     0.0000   0.0000   0.0000   0.0000   0.0000   0.0000   0.0000   0.0000
     0.0000   0.0000   0.0000   0.0000   0.0000   0.0000   0.0000   0.0000
     0.0000   0.0000   0.0000   0.0000   0.0000   0.0000   0.0000   0.0000
     0.0000   0.0000   0.0000   0.0000   0.0000

          k =-0.5000-0.5000 0.0000 ( 48100 PWs)   bands (ev):

   -78.8374 -78.8374 -74.7186 -74.7186 -69.6107 -69.6107 -65.4429 -65.4429
   -44.9985 -44.9985 -44.9985 -44.9985 -44.9702 -44.9702 -40.7811 -40.7811
   -40.6392 -40.6392 -40.6392 -40.6392 -38.5806 -38.5806 -38.4747 -38.4747
   -38.4747 -38.4747 -34.1658 -34.1658 -34.0603 -34.0603 -34.0603 -34.0603
   -30.4832 -30.4832 -30.4832 -30.4832 -15.9810 -15.9810 -15.9787 -15.9787
   -10.9238 -10.9238 -10.9186 -10.9186 -10.7607 -10.7607 -10.7550 -10.7550
   -10.5482 -10.5482 -10.5422 -10.5422  -7.1085  -7.1085  -6.9452  -6.9452
    -6.5633  -6.5633  -6.5153  -6.5153  -6.5063  -6.5063  -6.4125  -6.4125
    -6.1397  -6.1397  -6.0724  -6.0724  -6.0060  -6.0060  -5.9602  -5.9602
    -1.2018  -1.2018  -1.1849  -1.1849  -1.0732  -1.0732  -1.0574  -1.0574
    -0.9043  -0.9043  -0.9021  -0.9021   5.2111   5.2111   5.5844   5.5844
     5.6243   5.6243   5.7612   5.7612   5.7917   5.7917   5.9978   5.9978
     6.1879   6.1879   6.1892   6.1892   6.2694   6.2694   6.3334   6.3334
     6.7530   6.7530   6.8391   6.8391   7.0004   7.0004   7.0435   7.0435
     7.1255   7.1255   7.1874   7.1874   7.1874   7.1874   7.2380   7.2380
     7.2955   7.2955   7.3779   7.3779   7.5842   7.5842   7.6585   7.6585
     7.7891   7.7891   7.9785   7.9785   8.1221   8.1221   8.1493   8.1493
     8.2576   8.2576   8.2638   8.2638   8.4379   8.4379   8.7810   8.7810
     9.0805   9.0805   9.0847   9.0847   9.3378   9.3378   9.7753   9.7753
     9.8574   9.8574  10.1058  10.1058  10.1468  10.1468  10.3589  10.3589
    10.4910  10.4910  11.1890  11.1890  12.1715  12.1715  12.3295  12.3295
    12.3680  12.3680  12.7595  12.7595  13.0932  13.0932  13.4906  13.4906
    13.6213  13.6213  13.7263  13.7263  14.0088  14.0088  14.3687  14.3687
    15.1996  15.1997  15.4655  15.4655  15.6628  15.6628  15.6769  15.6769
    15.8177  15.8177  15.9265  15.9265  15.9944

     occupation numbers 
     1.0000   1.0000   1.0000   1.0000   1.0000   1.0000   1.0000   1.0000
     1.0000   1.0000   1.0000   1.0000   1.0000   1.0000   1.0000   1.0000
     1.0000   1.0000   1.0000   1.0000   1.0000   1.0000   1.0000   1.0000
     1.0000   1.0000   1.0000   1.0000   1.0000   1.0000   1.0000   1.0000
     1.0000   1.0000   1.0000   1.0000   1.0000   1.0000   1.0000   1.0000
     1.0000   1.0000   1.0000   1.0000   1.0000   1.0000   1.0000   1.0000
     1.0000   1.0000   1.0000   1.0000   1.0000   1.0000   1.0000   1.0000
     1.0000   1.0000   1.0000   1.0000   1.0000   1.0000   1.0000   1.0000
     1.0000   1.0000   1.0000   1.0000   1.0000   1.0000   1.0000   1.0000
     1.0000   1.0000   1.0000   1.0000   1.0000   1.0000   1.0000   1.0000
     1.0000   1.0000   1.0000   1.0000   1.0000   1.0000   1.0000   1.0000
     1.0000   1.0000   1.0000   1.0000   1.0000   1.0000   1.0000   1.0000
     1.0000   1.0000   1.0000   1.0000   1.0000   1.0000   1.0000   1.0000
     1.0000   1.0000   1.0000   1.0000   1.0000   1.0000   1.0000   1.0000
     1.0000   1.0000   1.0000   1.0000   1.0000   1.0000   1.0000   1.0000
     1.0000   1.0000   1.0000   1.0000   1.0000   1.0000   1.0000   1.0000
     1.0000   1.0000   1.0000   1.0000   1.0000   1.0000   1.0000   1.0000
     1.0000   1.0000   1.0000   1.0000   1.0000   1.0000   1.0000   1.0000
     1.0000   1.0000   1.0000   1.0000   1.0000   1.0000   1.0000   1.0000
     1.0000   1.0000   1.0000   1.0000   1.0000   1.0000   1.0000   1.0000
     1.0000   1.0000   1.0000   1.0000   0.0000   0.0000   0.0000   0.0000
     0.0000   0.0000   0.0000   0.0000   0.0000   0.0000   0.0000   0.0000
     0.0000   0.0000   0.0000   0.0000   0.0000   0.0000   0.0000   0.0000
     0.0000   0.0000   0.0000   0.0000   0.0000   0.0000   0.0000   0.0000
     0.0000   0.0000   0.0000   0.0000   0.0000

          k =-0.5000-0.5000-0.1842 ( 47960 PWs)   bands (ev):

   -78.8374 -78.8374 -74.7186 -74.7186 -69.6107 -69.6107 -65.4429 -65.4429
   -44.9985 -44.9985 -44.9985 -44.9985 -44.9702 -44.9702 -40.7811 -40.7811
   -40.6392 -40.6392 -40.6392 -40.6392 -38.5806 -38.5806 -38.4747 -38.4747
   -38.4747 -38.4747 -34.1658 -34.1658 -34.0603 -34.0603 -34.0603 -34.0603
   -30.4832 -30.4832 -30.4832 -30.4832 -15.9809 -15.9809 -15.9788 -15.9788
   -10.9238 -10.9238 -10.9187 -10.9187 -10.7580 -10.7580 -10.7576 -10.7576
   -10.5482 -10.5482 -10.5422 -10.5422  -7.1072  -7.1072  -6.9482  -6.9482
    -6.5455  -6.5455  -6.5349  -6.5349  -6.4871  -6.4871  -6.4336  -6.4336
    -6.1308  -6.1308  -6.0777  -6.0777  -5.9896  -5.9896  -5.9748  -5.9748
    -1.2003  -1.2003  -1.1865  -1.1865  -1.0731  -1.0731  -1.0574  -1.0574
    -0.9043  -0.9043  -0.9022  -0.9022   5.2151   5.2151   5.5517   5.5517
     5.6537   5.6537   5.7613   5.7613   5.8183   5.8183   5.9994   5.9994
     6.1154   6.1154   6.1803   6.1803   6.2738   6.2738   6.3624   6.3624
     6.7416   6.7416   6.8414   6.8414   7.0200   7.0200   7.0534   7.0534
     7.1308   7.1308   7.1828   7.1828   7.2086   7.2086   7.2820   7.2820
     7.3704   7.3704   7.4593   7.4593   7.5176   7.5176   7.5301   7.5301
     7.6783   7.6783   7.8625   7.8625   8.1571   8.1571   8.2013   8.2013
     8.2937   8.2937   8.3185   8.3185   8.6168   8.6168   8.7063   8.7063
     8.9430   8.9430   9.0843   9.0843   9.3851   9.3851   9.7831   9.7831
     9.8814   9.8814  10.1026  10.1026  10.1362  10.1362  10.3254  10.3254
    10.5063  10.5063  11.1909  11.1909  12.1722  12.1722  12.3293  12.3293
    12.3676  12.3676  12.7715  12.7715  13.0960  13.0960  13.4910  13.4910
    13.6211  13.6211  13.7306  13.7306  14.0011  14.0011  14.3575  14.3575
    15.1757  15.1757  15.5113  15.5113  15.6651  15.6651  15.6819  15.6819
    15.8935  15.8936  15.9523  15.9529  15.9546

     occupation numbers 
     1.0000   1.0000   1.0000   1.0000   1.0000   1.0000   1.0000   1.0000
     1.0000   1.0000   1.0000   1.0000   1.0000   1.0000   1.0000   1.0000
     1.0000   1.0000   1.0000   1.0000   1.0000   1.0000   1.0000   1.0000
     1.0000   1.0000   1.0000   1.0000   1.0000   1.0000   1.0000   1.0000
     1.0000   1.0000   1.0000   1.0000   1.0000   1.0000   1.0000   1.0000
     1.0000   1.0000   1.0000   1.0000   1.0000   1.0000   1.0000   1.0000
     1.0000   1.0000   1.0000   1.0000   1.0000   1.0000   1.0000   1.0000
     1.0000   1.0000   1.0000   1.0000   1.0000   1.0000   1.0000   1.0000
     1.0000   1.0000   1.0000   1.0000   1.0000   1.0000   1.0000   1.0000
     1.0000   1.0000   1.0000   1.0000   1.0000   1.0000   1.0000   1.0000
     1.0000   1.0000   1.0000   1.0000   1.0000   1.0000   1.0000   1.0000
     1.0000   1.0000   1.0000   1.0000   1.0000   1.0000   1.0000   1.0000
     1.0000   1.0000   1.0000   1.0000   1.0000   1.0000   1.0000   1.0000
     1.0000   1.0000   1.0000   1.0000   1.0000   1.0000   1.0000   1.0000
     1.0000   1.0000   1.0000   1.0000   1.0000   1.0000   1.0000   1.0000
     1.0000   1.0000   1.0000   1.0000   1.0000   1.0000   1.0000   1.0000
     1.0000   1.0000   1.0000   1.0000   1.0000   1.0000   1.0000   1.0000
     1.0000   1.0000   1.0000   1.0000   1.0000   1.0000   1.0000   1.0000
     1.0000   1.0000   1.0000   1.0000   1.0000   1.0000   1.0000   1.0000
     1.0000   1.0000   1.0000   1.0000   1.0000   1.0000   1.0000   1.0000
     1.0000   1.0000   1.0000   1.0000   0.0000   0.0000   0.0000   0.0000
     0.0000   0.0000   0.0000   0.0000   0.0000   0.0000   0.0000   0.0000
     0.0000   0.0000   0.0000   0.0000   0.0000   0.0000   0.0000   0.0000
     0.0000   0.0000   0.0000   0.0000   0.0000   0.0000   0.0000   0.0000
     0.0000   0.0000   0.0000   0.0000   0.0000

     the Fermi energy is    11.6939 ev

!    total energy              =   -3089.65481996 Ry
     estimated scf accuracy    <       0.00000013 Ry
     smearing contrib. (-TS)   =      -0.00000000 Ry
     internal energy E=F+TS    =   -3089.65481996 Ry

     The total energy is F=E-TS. E is the sum of the following terms:
     one-electron contribution =   -1469.26362846 Ry
     hartree contribution      =     914.39869394 Ry
     xc contribution           =    -574.67525075 Ry
     ewald contribution        =   -1960.11463469 Ry

     total magnetization       =     0.00 Bohr mag/cell
     absolute magnetization    =    34.34 Bohr mag/cell

     convergence has been achieved in  15 iterations

     Writing all to output data dir /tmp/scratch/single/single.save/ :
     XML data file, charge density, pseudopotentials, collected wavefunctions

     init_run     :     13.14s CPU     14.52s WALL (       1 calls)
     electrons    :    380.90s CPU    421.78s WALL (       1 calls)

     Called by init_run:
     wfcinit      :     10.75s CPU     11.95s WALL (       1 calls)
     wfcinit:atom :      0.06s CPU      0.08s WALL (       2 calls)
     wfcinit:wfcr :     10.13s CPU     11.27s WALL (       2 calls)
     potinit      :      0.89s CPU      1.00s WALL (       1 calls)
     hinit0       :      1.19s CPU      1.23s WALL (       1 calls)

     Called by electrons:
     c_bands      :    316.46s CPU    348.64s WALL (      15 calls)
     sum_band     :     47.72s CPU     55.34s WALL (      15 calls)
     v_of_rho     :      5.90s CPU      6.36s WALL (      16 calls)
     v_h          :      0.24s CPU      0.26s WALL (      16 calls)
     v_xc         :      5.66s CPU      6.10s WALL (      16 calls)
     mix_rho      :      6.54s CPU      7.07s WALL (      15 calls)

     Called by c_bands:
     init_us_2    :      3.40s CPU      3.54s WALL (      62 calls)
     cegterg      :    293.11s CPU    324.43s WALL (      30 calls)

     Called by sum_band:
     sum_band:wei :      0.05s CPU      0.02s WALL (      15 calls)
     sum_band:loo :     45.48s CPU     52.17s WALL (      15 calls)
     sum_band:buf :      0.43s CPU      0.50s WALL (      30 calls)
     sum_band:ini :      1.47s CPU      1.51s WALL (      30 calls)

     Called by *egterg:
     cdiaghg      :      5.20s CPU      5.40s WALL (     146 calls)
     cegterg:over :     22.99s CPU     23.87s WALL (     116 calls)
     cegterg:upda :     12.73s CPU     13.30s WALL (     116 calls)
     cegterg:last :     21.85s CPU     22.62s WALL (      58 calls)
     h_psi        :    228.36s CPU    257.99s WALL (     148 calls)
     g_psi        :      1.02s CPU      1.02s WALL (     116 calls)

     Called by h_psi:
     h_psi:calbec :     30.39s CPU     31.32s WALL (     148 calls)
     vloc_psi     :    167.84s CPU    195.37s WALL (     148 calls)
                                        0.00s GPU  (     148 calls)
     add_vuspsi   :     28.87s CPU     29.95s WALL (     148 calls)

     General routines
     calbec       :     30.39s CPU     31.32s WALL (     148 calls)
     fft          :      2.69s CPU      3.18s WALL (     302 calls)
     ffts         :      3.31s CPU      3.71s WALL (     484 calls)
     fftw         :    171.91s CPU    204.86s WALL (   34608 calls)

     Parallel routines

     PWSCF        :   6m34.60s CPU   7m17.51s WALL


   This run was terminated on:   7:48:47   2Oct2026            

=------------------------------------------------------------------------------=
   JOB DONE.
=------------------------------------------------------------------------------=
