KVCrCN6_2H2O PBEU110_relaxed (PBE+U V3/Cr3, 110 Ry, LCM vc-relax) from jobs/lcm/pba/s1/KVCr_2H2O/results/KVCr_2H2O.json 'relaxed'
1.0
   7.6285695080000000    0.0821873540000000    0.0669329120000000
   3.8849698680000002    6.5406943340000003    0.0488836300000000
   3.8921769679999998    2.2227366869999998    6.3386484870000004
K V Cr C N O H O H
1 1 1 6 6 1 2 1 2
direct
   0.2536467546000001    0.2536861026000000    0.2463421239000000 K
   0.0022503973000000    0.0022048411000000    0.9977613958000000 V
   0.5031603899000000    0.5031702139999998    0.4968346696000000 Cr
   0.6909288605000001    0.3144378154999999    0.3003583453000000 C
   0.3144551880999999    0.6909182763999999    0.6943057336000001 C
   0.3027795041000001    0.7011298047999999    0.3113864997999999 C
   0.7011187954999999    0.3027866481000000    0.6847009477000000 C
   0.3098041475000001    0.3098182017000000    0.6901821629999999 C
   0.6959395571999999    0.6959333709999999    0.3040582386000000 C
   0.7961266290000001    0.2083137272000000    0.1890503905000000 N
   0.2082793021999999    0.7961350839000001    0.8065210197999999 N
   0.1912966718000001    0.8075369126999999    0.2061184256000000 N
   0.8075186613000002    0.1913122160000001    0.7950445422999999 N
   0.2013065788000001    0.2013007170000000    0.7986959974999999 N
   0.8043785154999998    0.8044019921000000    0.1956171473000000 N
   0.6415423450999999    0.8351104510000000    0.9098425152000000 O
   0.7196051057999998    0.9311932606000000    0.8520040153999999 H
   0.6085640752000001    0.8595280063999999    0.7925833662000000 H
   0.8351526892000002    0.6415560415999999    0.6134607695999998 O
   0.9312241437000001    0.7196557305999999    0.4971666957999999 H
   0.8595827576999998    0.6085316555000000    0.7393039271999999 H
