KVMoCN6 PBEU110_relaxed (PBE+U V3/Mo2, 110 Ry, LCM vc-relax) from jobs/lcm/pba/s1a/KVMo/results/KVMo.json 'relaxed'
1.0
   0.0000000000000000    5.4289490230000004    5.4289490230000004
   5.4289490230000004    0.0000000000000000    5.4289490230000004
   5.4289490230000004    5.4289490230000004   -0.0000000000000000
K V Mo C N
1 1 1 6 6
direct
   0.2500000000000000    0.2500000000000000    0.2500000000000000 K
   0.0000000000000000    0.0000000000000000    0.0000000000000000 V
   0.5000000000000000    0.5000000000000000    0.5000000000000000 Mo
   0.6990208197000002    0.3009791803000001    0.3009791802999999 C
   0.3009791803000000    0.6990208197000000    0.6990208197000000 C
   0.3009791803000001    0.6990208197000002    0.3009791802999999 C
   0.6990208197000000    0.3009791803000000    0.6990208197000000 C
   0.3009791802999999    0.3009791802999999    0.6990208197000001 C
   0.6990208197000000    0.6990208197000000    0.3009791803000000 C
   0.8068884582999999    0.1931115416999999    0.1931115417000000 N
   0.1931115417000001    0.8068884583000002    0.8068884582999999 N
   0.1931115416999999    0.8068884582999999    0.1931115417000000 N
   0.8068884583000002    0.1931115417000001    0.8068884582999999 N
   0.1931115416999999    0.1931115416999999    0.8068884583000000 N
   0.8068884583000000    0.8068884583000000    0.1931115416999999 N
