KVCrCN6 PBEU110_relaxed (PBE+U V3/Cr3, 110 Ry, LCM vc-relax) from jobs/lcm/pba/s1a/KVCr/results/KVCr.json 'relaxed'
1.0
   0.0000000000000000    5.3399591549999998    5.3399591549999998
   5.3399591549999998    0.0000000000000000    5.3399591549999998
   5.3399591549999998    5.3399591549999998    0.0000000000000000
K V Cr C N
1 1 1 6 6
direct
   0.2500000000000000    0.2500000000000000    0.2500000000000000 K
   0.0000000000000000    0.0000000000000000    0.0000000000000000 V
   0.5000000000000000    0.5000000000000000    0.5000000000000000 Cr
   0.6928391408000001    0.3071608592000000    0.3071608592000000 C
   0.3071608592000000    0.6928391408000000    0.6928391408000000 C
   0.3071608592000000    0.6928391408000001    0.3071608592000000 C
   0.6928391408000000    0.3071608592000000    0.6928391408000000 C
   0.3071608591999999    0.3071608591999999    0.6928391408000001 C
   0.6928391408000001    0.6928391408000001    0.3071608592000000 C
   0.8022412175000000    0.1977587825000000    0.1977587825000000 N
   0.1977587824999998    0.8022412174999999    0.8022412175000002 N
   0.1977587825000000    0.8022412175000000    0.1977587825000000 N
   0.8022412174999999    0.1977587824999998    0.8022412175000002 N
   0.1977587825000000    0.1977587825000000    0.8022412175000000 N
   0.8022412175000000    0.8022412175000000    0.1977587825000000 N
