
     Program PWSCF v.7.5 starts on  3Oct2026 at 12:49:11 

     This program is part of the open-source Quantum ESPRESSO suite
     for quantum simulation of materials; please cite
         "P. Giannozzi et al., J. Phys.:Condens. Matter 21 395502 (2009);
         "P. Giannozzi et al., J. Phys.:Condens. Matter 29 465901 (2017);
         "P. Giannozzi et al., J. Chem. Phys. 152 154105 (2020);
          URL http://www.quantum-espresso.org", 
     in publications or presentations arising from this work. More details at
     http://www.quantum-espresso.org/quote

     Parallel version (MPI & OpenMP), running on      64 processor cores
     Number of MPI processes:                64
     Threads/MPI process:                     1

     MPI processes distributed on     1 nodes
     695067 MiB available memory on the printing compute node when the environment starts

     Reading input from KVCr_FLIP_lcm_nscf.in

     Current dimensions of program PWSCF are:
     Max number of different atomic species (ntypx) = 10
     Max number of k-points (npk) =  40000
     Max angular momentum in pseudopotentials (lmaxx) =  4

     Atomic positions and unit cell read from directory:
     /tmp/scratch/KVCr_FLIP_lcm/KVCr_FLIP_lcm.save/

     Message from routine setup:
     using ibrav=0 with symmetry is DISCOURAGED, use correct ibrav instead

     K-points division:     npool     =      16
     R & G space division:  proc/nbgrp/npool/nimage =       4
     Subspace diagonalization in iterative solution of the eigenvalue problem:
     one sub-group per band group will be used
     ELPA distributed-memory algorithm (size of sub-group:  2*  2 procs)


     Parallelization info
     --------------------
     sticks:   dense  smooth     PW     G-vecs:    dense   smooth      PW
     Min        3567    3567    940               320290   320290   43288
     Max        3569    3569    941               320293   320293   43291
     Sum       14273   14273   3761              1281167  1281167  173157

     Using Slab Decomposition



     bravais-lattice index     =            0
     lattice parameter (alat)  =      20.1821  a.u.
     unit-cell volume          =    8220.5409 (a.u.)^3
     number of atoms/cell      =           60
     number of atomic types    =            5
     number of electrons       =       360.00
     number of Kohn-Sham states=          220
     kinetic-energy cutoff     =     110.0000  Ry
     charge density cutoff     =     440.0000  Ry
     Exchange-correlation= PBE
                           (   1   4   3   4   0   0   0)
     Hubbard projectors: ortho-atomic
     Hubbard parameters of DFT+U (Dudarev formulation) in eV:
     U(V-3d) =  3.0000
     U(Cr-3d) =  3.0000

     Internal variables: lda_plus_u =T, lda_plus_u_kind = 0

     Internal variables: orbital_resolved =F, hub_pot_fix =F, apply_U = F

     celldm(1)=  20.182121  celldm(2)=   0.000000  celldm(3)=   0.000000
     celldm(4)=   0.000000  celldm(5)=   0.000000  celldm(6)=   0.000000

     crystal axes: (cart. coord. in units of alat)
               a(1) = (   1.000000   0.000000   0.000000 )  
               a(2) = (   0.000000   1.000000   0.000000 )  
               a(3) = (   0.000000   0.000000   1.000000 )  

     reciprocal axes: (cart. coord. in units 2 pi/alat)
               b(1) = (  1.000000  0.000000  0.000000 )  
               b(2) = (  0.000000  1.000000  0.000000 )  
               b(3) = (  0.000000  0.000000  1.000000 )  


     PseudoPot. # 1 for K  read from file:
     /data/pseudo/dojo_sr/K.upf
     MD5 check sum: 0aa97b2c023445f040759afc9fdb6c80
     Pseudo is Norm-conserving + core correction, Zval =  9.0
     Generated using ONCVPSP code by D. R. Hamann
     Using radial grid of 2222 points,  6 beta functions with: 
                l(1) =   0
                l(2) =   0
                l(3) =   1
                l(4) =   1
                l(5) =   2
                l(6) =   2

     PseudoPot. # 2 for V  read from file:
     /data/pseudo/dojo_sr/V.upf
     MD5 check sum: 40fb93c06b4f9d8c28c5ccd071294a04
     Pseudo is Norm-conserving + core correction, Zval = 13.0
     Generated using ONCVPSP code by D. R. Hamann
     Using radial grid of 1536 points,  6 beta functions with: 
                l(1) =   0
                l(2) =   0
                l(3) =   1
                l(4) =   1
                l(5) =   2
                l(6) =   2

     PseudoPot. # 3 for Cr read from file:
     /data/pseudo/dojo_sr/Cr.upf
     MD5 check sum: 41892f80c335c8b1e803fd21ab4016b0
     Pseudo is Norm-conserving + core correction, Zval = 14.0
     Generated using ONCVPSP code by D. R. Hamann
     Using radial grid of 1638 points,  6 beta functions with: 
                l(1) =   0
                l(2) =   0
                l(3) =   1
                l(4) =   1
                l(5) =   2
                l(6) =   2

     PseudoPot. # 4 for N  read from file:
     /data/pseudo/dojo_sr/N.upf
     MD5 check sum: d34365f73bb0e2ee98afc20ec3e87676
     Pseudo is Norm-conserving + core correction, Zval =  5.0
     Generated using ONCVPSP code by D. R. Hamann
     Using radial grid of 1058 points,  4 beta functions with: 
                l(1) =   0
                l(2) =   0
                l(3) =   1
                l(4) =   1

     PseudoPot. # 5 for C  read from file:
     /data/pseudo/dojo_sr/C.upf
     MD5 check sum: 34a24e64c0a39f27c6c36b90a16ac686
     Pseudo is Norm-conserving + core correction, Zval =  4.0
     Generated using ONCVPSP code by D. R. Hamann
     Using radial grid of 1248 points,  4 beta functions with: 
                l(1) =   0
                l(2) =   0
                l(3) =   1
                l(4) =   1

     atomic species   valence    mass     pseudopotential
     K                 9.00    39.09830     K ( 1.00)
     V                13.00    50.94150     V ( 1.00)
     Cr               14.00    51.99610     Cr( 1.00)
     N                 5.00    14.00700     N ( 1.00)
     C                 4.00    12.01100     C ( 1.00)

     Starting magnetic structure 
     atomic species   magnetization
     K               0.000
     V              -0.231
     Cr              0.214
     N               0.000
     C               0.000

      4 Sym. Ops. (no inversion) found


                                    s                        frac. trans.

      isym =  1     identity                                     

 cryst.   s( 1) = (     1          0          0      )
                  (     0          1          0      )
                  (     0          0          1      )

 cart.    s( 1) = (  1.0000000  0.0000000  0.0000000 )
                  (  0.0000000  1.0000000  0.0000000 )
                  (  0.0000000  0.0000000  1.0000000 )


      isym =  2     180 deg rotation - cart. axis [1,0,0]        

 cryst.   s( 2) = (     1          0          0      )
                  (     0         -1          0      )
                  (     0          0         -1      )

 cart.    s( 2) = (  1.0000000  0.0000000  0.0000000 )
                  (  0.0000000 -1.0000000  0.0000000 )
                  (  0.0000000  0.0000000 -1.0000000 )


      isym =  3     inv. 180 deg rotation - cart. axis [0,1,1]   

 cryst.   s( 3) = (     1          0          0      )
                  (     0          0         -1      )
                  (     0         -1          0      )

 cart.    s( 3) = (  1.0000000  0.0000000  0.0000000 )
                  (  0.0000000  0.0000000 -1.0000000 )
                  (  0.0000000 -1.0000000  0.0000000 )


      isym =  4     inv. 180 deg rotation - cart. axis [0,1,-1]  

 cryst.   s( 4) = (     1          0          0      )
                  (     0          0          1      )
                  (     0          1          0      )

 cart.    s( 4) = (  1.0000000  0.0000000  0.0000000 )
                  (  0.0000000  0.0000000  1.0000000 )
                  (  0.0000000  1.0000000  0.0000000 )


   Cartesian axes

     site n.     atom                  positions (alat units)
         1        K      tau(   1) = (   0.2501072   0.2499798   0.2499798  )
         2        K      tau(   2) = (   0.2501072   0.7500202   0.7500202  )
         3        K      tau(   3) = (   0.7500200   0.2500506   0.7499494  )
         4        K      tau(   4) = (   0.7500200   0.7499494   0.2500506  )
         5        V      tau(   5) = (   0.9991580   0.0000000   0.0000000  )
         6        V      tau(   6) = (   0.0000008   0.5000000   0.5000000  )
         7        V      tau(   7) = (   0.4999548   0.0000000   0.5000000  )
         8        V      tau(   8) = (   0.4999548   0.5000000   0.0000000  )
         9        Cr     tau(   9) = (   0.4986228   0.0000000   0.0000000  )
        10        Cr     tau(  10) = (   0.5000010   0.5000000   0.5000000  )
        11        Cr     tau(  11) = (   0.0000328   0.0000000   0.5000000  )
        12        Cr     tau(  12) = (   0.0000328   0.5000000   0.0000000  )
        13        N      tau(  13) = (   0.3103092   0.0000000   0.0000000  )
        14        C      tau(  14) = (   0.6906217   0.0000000   0.0000000  )
        15        C      tau(  15) = (   0.0000212   0.3073198   0.9999954  )
        16        C      tau(  16) = (   0.0000212   0.6926802   0.0000046  )
        17        C      tau(  17) = (   0.0000212   0.9999954   0.3073198  )
        18        C      tau(  18) = (   0.0000212   0.0000046   0.6926802  )
        19        C      tau(  19) = (   0.3073486   0.5000000   0.5000000  )
        20        C      tau(  20) = (   0.6926519   0.5000000   0.5000000  )
        21        C      tau(  21) = (   0.0000029   0.8073491   0.4999994  )
        22        C      tau(  22) = (   0.0000029   0.1926509   0.5000006  )
        23        C      tau(  23) = (   0.0000029   0.4999994   0.8073491  )
        24        C      tau(  24) = (   0.0000029   0.5000006   0.1926509  )
        25        C      tau(  25) = (   0.8073396   0.0000000   0.5000000  )
        26        C      tau(  26) = (   0.1926441   0.0000000   0.5000000  )
        27        C      tau(  27) = (   0.5000020   0.3073502   0.5000004  )
        28        C      tau(  28) = (   0.5000020   0.6926498   0.4999996  )
        29        C      tau(  29) = (   0.5004008   0.9999857   0.8071075  )
        30        C      tau(  30) = (   0.5004008   0.0000143   0.1928925  )
        31        C      tau(  31) = (   0.8073396   0.5000000   0.0000000  )
        32        C      tau(  32) = (   0.1926441   0.5000000   0.0000000  )
        33        C      tau(  33) = (   0.5004008   0.8071075   0.9999857  )
        34        C      tau(  34) = (   0.5004008   0.1928925   0.0000143  )
        35        C      tau(  35) = (   0.5000020   0.5000004   0.3073502  )
        36        C      tau(  36) = (   0.5000020   0.4999996   0.6926498  )
        37        C      tau(  37) = (   0.2006958   0.0000000   0.0000000  )
        38        N      tau(  38) = (   0.8000025   0.0000000   0.0000000  )
        39        N      tau(  39) = (   0.9995001   0.1978920   0.9999676  )
        40        N      tau(  40) = (   0.9995001   0.8021080   0.0000324  )
        41        N      tau(  41) = (   0.9995001   0.9999676   0.1978920  )
        42        N      tau(  42) = (   0.9995001   0.0000324   0.8021080  )
        43        N      tau(  43) = (   0.1979463   0.5000000   0.5000000  )
        44        N      tau(  44) = (   0.8020545   0.5000000   0.5000000  )
        45        N      tau(  45) = (   0.9999982   0.6979486   0.4999987  )
        46        N      tau(  46) = (   0.9999982   0.3020514   0.5000013  )
        47        N      tau(  47) = (   0.9999982   0.4999987   0.6979486  )
        48        N      tau(  48) = (   0.9999982   0.5000013   0.3020514  )
        49        N      tau(  49) = (   0.6979390   0.0000000   0.5000000  )
        50        N      tau(  50) = (   0.3020433   0.0000000   0.5000000  )
        51        N      tau(  51) = (   0.4999945   0.1979493   0.4999987  )
        52        N      tau(  52) = (   0.4999945   0.8020507   0.5000013  )
        53        N      tau(  53) = (   0.5001867   0.0000034   0.6977643  )
        54        N      tau(  54) = (   0.5001867   0.9999966   0.3022357  )
        55        N      tau(  55) = (   0.6979390   0.5000000   0.0000000  )
        56        N      tau(  56) = (   0.3020433   0.5000000   0.0000000  )
        57        N      tau(  57) = (   0.5001867   0.6977643   0.0000034  )
        58        N      tau(  58) = (   0.5001867   0.3022357   0.9999966  )
        59        N      tau(  59) = (   0.4999945   0.4999987   0.1979493  )
        60        N      tau(  60) = (   0.4999945   0.5000013   0.8020507  )

   Crystallographic axes

     site n.     atom                  positions (cryst. coord.)
         1        K      tau(   1) = (  0.2501072  0.2499798  0.2499798  )
         2        K      tau(   2) = (  0.2501072  0.7500202  0.7500202  )
         3        K      tau(   3) = (  0.7500200  0.2500506  0.7499494  )
         4        K      tau(   4) = (  0.7500200  0.7499494  0.2500506  )
         5        V      tau(   5) = (  0.9991580  0.0000000  0.0000000  )
         6        V      tau(   6) = (  0.0000008  0.5000000  0.5000000  )
         7        V      tau(   7) = (  0.4999548  0.0000000  0.5000000  )
         8        V      tau(   8) = (  0.4999548  0.5000000  0.0000000  )
         9        Cr     tau(   9) = (  0.4986228  0.0000000  0.0000000  )
        10        Cr     tau(  10) = (  0.5000010  0.5000000  0.5000000  )
        11        Cr     tau(  11) = (  0.0000328  0.0000000  0.5000000  )
        12        Cr     tau(  12) = (  0.0000328  0.5000000  0.0000000  )
        13        N      tau(  13) = (  0.3103092  0.0000000  0.0000000  )
        14        C      tau(  14) = (  0.6906217  0.0000000  0.0000000  )
        15        C      tau(  15) = (  0.0000212  0.3073198  0.9999954  )
        16        C      tau(  16) = (  0.0000212  0.6926802  0.0000046  )
        17        C      tau(  17) = (  0.0000212  0.9999954  0.3073198  )
        18        C      tau(  18) = (  0.0000212  0.0000046  0.6926802  )
        19        C      tau(  19) = (  0.3073486  0.5000000  0.5000000  )
        20        C      tau(  20) = (  0.6926519  0.5000000  0.5000000  )
        21        C      tau(  21) = (  0.0000029  0.8073491  0.4999994  )
        22        C      tau(  22) = (  0.0000029  0.1926509  0.5000006  )
        23        C      tau(  23) = (  0.0000029  0.4999994  0.8073491  )
        24        C      tau(  24) = (  0.0000029  0.5000006  0.1926509  )
        25        C      tau(  25) = (  0.8073396  0.0000000  0.5000000  )
        26        C      tau(  26) = (  0.1926441  0.0000000  0.5000000  )
        27        C      tau(  27) = (  0.5000020  0.3073502  0.5000004  )
        28        C      tau(  28) = (  0.5000020  0.6926498  0.4999996  )
        29        C      tau(  29) = (  0.5004008  0.9999857  0.8071075  )
        30        C      tau(  30) = (  0.5004008  0.0000143  0.1928925  )
        31        C      tau(  31) = (  0.8073396  0.5000000  0.0000000  )
        32        C      tau(  32) = (  0.1926441  0.5000000  0.0000000  )
        33        C      tau(  33) = (  0.5004008  0.8071075  0.9999857  )
        34        C      tau(  34) = (  0.5004008  0.1928925  0.0000143  )
        35        C      tau(  35) = (  0.5000020  0.5000004  0.3073502  )
        36        C      tau(  36) = (  0.5000020  0.4999996  0.6926498  )
        37        C      tau(  37) = (  0.2006958  0.0000000  0.0000000  )
        38        N      tau(  38) = (  0.8000025  0.0000000  0.0000000  )
        39        N      tau(  39) = (  0.9995001  0.1978920  0.9999676  )
        40        N      tau(  40) = (  0.9995001  0.8021080  0.0000324  )
        41        N      tau(  41) = (  0.9995001  0.9999676  0.1978920  )
        42        N      tau(  42) = (  0.9995001  0.0000324  0.8021080  )
        43        N      tau(  43) = (  0.1979463  0.5000000  0.5000000  )
        44        N      tau(  44) = (  0.8020545  0.5000000  0.5000000  )
        45        N      tau(  45) = (  0.9999982  0.6979486  0.4999987  )
        46        N      tau(  46) = (  0.9999982  0.3020515  0.5000013  )
        47        N      tau(  47) = (  0.9999982  0.4999987  0.6979486  )
        48        N      tau(  48) = (  0.9999982  0.5000013  0.3020515  )
        49        N      tau(  49) = (  0.6979390  0.0000000  0.5000000  )
        50        N      tau(  50) = (  0.3020433  0.0000000  0.5000000  )
        51        N      tau(  51) = (  0.4999945  0.1979493  0.4999987  )
        52        N      tau(  52) = (  0.4999945  0.8020507  0.5000013  )
        53        N      tau(  53) = (  0.5001867  0.0000034  0.6977643  )
        54        N      tau(  54) = (  0.5001867  0.9999966  0.3022357  )
        55        N      tau(  55) = (  0.6979390  0.5000000  0.0000000  )
        56        N      tau(  56) = (  0.3020433  0.5000000  0.0000000  )
        57        N      tau(  57) = (  0.5001867  0.6977643  0.0000034  )
        58        N      tau(  58) = (  0.5001867  0.3022357  0.9999966  )
        59        N      tau(  59) = (  0.4999945  0.4999987  0.1979493  )
        60        N      tau(  60) = (  0.4999945  0.5000013  0.8020507  )

     number of k points=    21  Gaussian smearing, width (Ry)=  0.0050
                       cart. coord. in units 2pi/alat
        k(    1) = (   0.0000000   0.0000000   0.0000000), wk =   0.0156250
        k(    2) = (   0.0000000   0.0000000   0.2500000), wk =   0.0625000
        k(    3) = (   0.0000000   0.0000000  -0.5000000), wk =   0.0312500
        k(    4) = (   0.0000000   0.2500000   0.2500000), wk =   0.0312500
        k(    5) = (   0.0000000   0.2500000  -0.5000000), wk =   0.0625000
        k(    6) = (   0.0000000  -0.5000000  -0.5000000), wk =   0.0156250
        k(    7) = (   0.2500000   0.2500000   0.2500000), wk =   0.0625000
        k(    8) = (   0.2500000   0.2500000  -0.5000000), wk =   0.1250000
        k(    9) = (   0.2500000  -0.5000000  -0.5000000), wk =   0.0312500
        k(   10) = (  -0.5000000  -0.5000000  -0.5000000), wk =   0.0156250
        k(   11) = (   0.2500000   0.0000000   0.0000000), wk =   0.0312500
        k(   12) = (  -0.5000000   0.0000000   0.0000000), wk =   0.0156250
        k(   13) = (   0.2500000   0.0000000  -0.2500000), wk =   0.1250000
        k(   14) = (   0.0000000   0.2500000  -0.2500000), wk =   0.0312500
        k(   15) = (   0.2500000   0.0000000   0.5000000), wk =   0.0625000
        k(   16) = (  -0.5000000  -0.2500000   0.0000000), wk =   0.0625000
        k(   17) = (  -0.5000000   0.0000000   0.5000000), wk =   0.0312500
        k(   18) = (   0.2500000   0.2500000  -0.2500000), wk =   0.0625000
        k(   19) = (  -0.5000000  -0.2500000   0.2500000), wk =   0.0312500
        k(   20) = (   0.5000000  -0.2500000  -0.2500000), wk =   0.0312500
        k(   21) = (  -0.5000000   0.2500000   0.5000000), wk =   0.0625000

                       cryst. coord.
        k(    1) = (   0.0000000   0.0000000   0.0000000), wk =   0.0156250
        k(    2) = (   0.0000000   0.0000000   0.2500000), wk =   0.0625000
        k(    3) = (   0.0000000   0.0000000  -0.5000000), wk =   0.0312500
        k(    4) = (   0.0000000   0.2500000   0.2500000), wk =   0.0312500
        k(    5) = (   0.0000000   0.2500000  -0.5000000), wk =   0.0625000
        k(    6) = (   0.0000000  -0.5000000  -0.5000000), wk =   0.0156250
        k(    7) = (   0.2500000   0.2500000   0.2500000), wk =   0.0625000
        k(    8) = (   0.2500000   0.2500000  -0.5000000), wk =   0.1250000
        k(    9) = (   0.2500000  -0.5000000  -0.5000000), wk =   0.0312500
        k(   10) = (  -0.5000000  -0.5000000  -0.5000000), wk =   0.0156250
        k(   11) = (   0.2500000   0.0000000   0.0000000), wk =   0.0312500
        k(   12) = (  -0.5000000   0.0000000   0.0000000), wk =   0.0156250
        k(   13) = (   0.2500000   0.0000000  -0.2500000), wk =   0.1250000
        k(   14) = (   0.0000000   0.2500000  -0.2500000), wk =   0.0312500
        k(   15) = (   0.2500000   0.0000000   0.5000000), wk =   0.0625000
        k(   16) = (  -0.5000000  -0.2500000   0.0000000), wk =   0.0625000
        k(   17) = (  -0.5000000   0.0000000   0.5000000), wk =   0.0312500
        k(   18) = (   0.2500000   0.2500000  -0.2500000), wk =   0.0625000
        k(   19) = (  -0.5000000  -0.2500000   0.2500000), wk =   0.0312500
        k(   20) = (   0.5000000  -0.2500000  -0.2500000), wk =   0.0312500
        k(   21) = (  -0.5000000   0.2500000   0.5000000), wk =   0.0625000

     Dense  grid:  1281167 G-vectors     FFT dimensions: ( 135, 135, 135)

     Dynamical RAM for                 wfc:     134.40 MB

     Dynamical RAM for     wfc (w. buffer):     537.62 MB

     Dynamical RAM for             U proj.:      24.44 MB

     Dynamical RAM for  U proj. (w. buff.):      97.75 MB

     Dynamical RAM for           str. fact:      24.44 MB

     Dynamical RAM for           local pot:       0.00 MB

     Dynamical RAM for          nlocal pot:     366.56 MB

     Dynamical RAM for                qrad:       8.42 MB

     Dynamical RAM for          rho,v,vnew:      57.69 MB

     Dynamical RAM for           G-vectors:      20.77 MB

     Dynamical RAM for          h,s,v(r/c):       2.22 MB

     Dynamical RAM for          <psi|beta>:       2.01 MB

     Dynamical RAM for                 psi:     268.81 MB

     Dynamical RAM for                hpsi:     268.81 MB

     Dynamical RAM for      wfcinit/wfcrot:     269.92 MB

     Estimated static dynamical RAM per process >       1.14 GB

     Estimated max dynamical RAM per process >       1.67 GB

     Estimated total dynamical RAM >     107.05 GB
     Generating pointlists ...
     new r_m :   0.1472 (alat units)  2.9717 (a.u.) for type    1
     new r_m :   0.0816 (alat units)  1.6464 (a.u.) for type    2
     new r_m :   0.0777 (alat units)  1.5677 (a.u.) for type    3
     new r_m :   0.0451 (alat units)  0.9103 (a.u.) for type    4
     new r_m :   0.0451 (alat units)  0.9103 (a.u.) for type    5

     The potential is recalculated from file :
     /tmp/scratch/KVCr_FLIP_lcm/KVCr_FLIP_lcm.save/charge-density


     HUBBARD ENERGY =    0.9710  (Ry)

     STARTING HUBBARD OCCUPATIONS:

     =================== HUBBARD OCCUPATIONS ===================
     ------------------------ ATOM    5 ------------------------
     Tr[ns(  5)] (up, down, total) =   0.41509  3.11305  3.52814
     Atomic magnetic moment for atom   5 =  -2.69796
     SPIN  1
     eigenvalues:
       0.023  0.023  0.025  0.161  0.182
     eigenvectors (columns):
      -0.000 -0.000  0.001  0.866  0.500
       0.707 -0.707  0.000 -0.000 -0.000
      -0.000 -0.000 -1.000  0.000  0.001
       0.000  0.000 -0.001  0.500 -0.866
       0.707  0.707 -0.000 -0.000  0.000
     occupation matrix ns (before diag.):
       0.166 -0.000  0.000 -0.009  0.000
      -0.000  0.023 -0.000  0.000 -0.000
       0.000 -0.000  0.025 -0.000  0.000
      -0.009  0.000 -0.000  0.177 -0.000
       0.000 -0.000  0.000 -0.000  0.023
     SPIN  2
     eigenvalues:
       0.199  0.228  0.892  0.894  0.901
     eigenvectors (columns):
       0.866  0.500 -0.000 -0.000  0.001
      -0.000  0.000  0.707 -0.707  0.000
      -0.000  0.002  0.000  0.000 -1.000
       0.500 -0.866  0.000  0.000 -0.002
      -0.000 -0.000 -0.707 -0.707 -0.000
     occupation matrix ns (before diag.):
       0.206 -0.000 -0.001 -0.013  0.000
      -0.000  0.893 -0.000  0.000  0.001
      -0.001 -0.000  0.901  0.001  0.000
      -0.013  0.000  0.001  0.221 -0.000
       0.000  0.001  0.000 -0.000  0.893
     ------------------------ ATOM    6 ------------------------
     Tr[ns(  6)] (up, down, total) =   0.39882  3.10532  3.50415
     Atomic magnetic moment for atom   6 =  -2.70650
     SPIN  1
     eigenvalues:
       0.025  0.025  0.025  0.161  0.161
     eigenvectors (columns):
       0.000 -0.000 -0.000 -0.866  0.500
      -0.000 -0.707  0.707  0.000 -0.000
      -1.000  0.000  0.000 -0.000  0.000
      -0.000  0.000  0.000 -0.500 -0.866
       0.000  0.707  0.707  0.000  0.000
     occupation matrix ns (before diag.):
       0.161 -0.000  0.000 -0.000  0.000
      -0.000  0.025 -0.000  0.000  0.000
       0.000 -0.000  0.025 -0.000  0.000
      -0.000  0.000 -0.000  0.161 -0.000
       0.000  0.000  0.000 -0.000  0.025
     SPIN  2
     eigenvalues:
       0.199  0.199  0.902  0.902  0.902
     eigenvectors (columns):
       0.866  0.500  0.000  0.000  0.000
      -0.000  0.000 -0.000 -0.707  0.707
      -0.000  0.000 -1.000  0.000  0.000
       0.500 -0.866 -0.000 -0.000 -0.000
      -0.000 -0.000  0.000  0.707  0.707
     occupation matrix ns (before diag.):
       0.199 -0.000 -0.000 -0.000  0.000
      -0.000  0.902 -0.000  0.000  0.000
      -0.000 -0.000  0.902  0.000  0.000
      -0.000  0.000  0.000  0.199 -0.000
       0.000  0.000  0.000 -0.000  0.902
     ------------------------ ATOM    7 ------------------------
     Tr[ns(  7)] (up, down, total) =   0.39897  3.10615  3.50512
     Atomic magnetic moment for atom   7 =  -2.70718
     SPIN  1
     eigenvalues:
       0.025  0.025  0.025  0.161  0.162
     eigenvectors (columns):
      -0.000 -0.000 -0.000 -0.032  0.999
      -1.000 -0.003  0.000  0.000 -0.000
      -0.000 -0.000 -1.000 -0.000 -0.000
       0.000  0.000 -0.000  0.999  0.032
      -0.003  1.000 -0.000 -0.000  0.000
     occupation matrix ns (before diag.):
       0.162 -0.000 -0.000  0.000  0.000
      -0.000  0.025 -0.000  0.000 -0.000
      -0.000 -0.000  0.025 -0.000  0.000
       0.000  0.000 -0.000  0.161 -0.000
       0.000 -0.000  0.000 -0.000  0.025
     SPIN  2
     eigenvalues:
       0.199  0.199  0.902  0.902  0.904
     eigenvectors (columns):
       0.079  0.997  0.000 -0.000 -0.000
       0.000  0.000  0.000 -0.002  1.000
      -0.000 -0.000  1.000 -0.000 -0.000
      -0.997  0.079 -0.000  0.000  0.000
      -0.000 -0.000 -0.000 -1.000 -0.002
     occupation matrix ns (before diag.):
       0.199 -0.000  0.000  0.000  0.000
      -0.000  0.904 -0.000  0.000 -0.000
       0.000 -0.000  0.902 -0.000  0.000
       0.000  0.000 -0.000  0.199 -0.000
       0.000 -0.000  0.000 -0.000  0.902
     ------------------------ ATOM    8 ------------------------
     Tr[ns(  8)] (up, down, total) =   0.39897  3.10615  3.50512
     Atomic magnetic moment for atom   8 =  -2.70718
     SPIN  1
     eigenvalues:
       0.025  0.025  0.025  0.161  0.162
     eigenvectors (columns):
      -0.000 -0.000  0.000  0.850 -0.527
       0.003 -1.000  0.000 -0.000 -0.000
      -0.000 -0.000 -1.000  0.000 -0.000
       0.000  0.000  0.000 -0.527 -0.850
       1.000  0.003 -0.000  0.000  0.000
     occupation matrix ns (before diag.):
       0.161 -0.000  0.000  0.000  0.000
      -0.000  0.025 -0.000  0.000 -0.000
       0.000 -0.000  0.025  0.000  0.000
       0.000  0.000  0.000  0.162 -0.000
       0.000 -0.000  0.000 -0.000  0.025
     SPIN  2
     eigenvalues:
       0.199  0.199  0.902  0.902  0.904
     eigenvectors (columns):
      -0.824 -0.567  0.000 -0.000  0.000
      -0.000  0.000  0.000  1.000 -0.002
       0.000 -0.000  1.000 -0.000  0.000
       0.567 -0.824 -0.000  0.000 -0.000
       0.000 -0.000 -0.000  0.002  1.000
     occupation matrix ns (before diag.):
       0.199 -0.000  0.000  0.000  0.000
      -0.000  0.902 -0.000  0.000 -0.000
       0.000 -0.000  0.902 -0.000  0.000
       0.000  0.000 -0.000  0.199 -0.000
       0.000 -0.000  0.000 -0.000  0.904
     ------------------------ ATOM    9 ------------------------
     Tr[ns(  9)] (up, down, total) =   3.77941  0.84778  4.62719
     Atomic magnetic moment for atom   9 =   2.93163
     SPIN  1
     eigenvalues:
       0.447  0.496  0.943  0.947  0.947
     eigenvectors (columns):
      -0.500  0.866 -0.001  0.000  0.000
      -0.000  0.000 -0.000  0.707 -0.707
       0.002 -0.000 -1.000  0.000  0.000
       0.866  0.500  0.001 -0.000 -0.000
       0.000 -0.000  0.000  0.707  0.707
     occupation matrix ns (before diag.):
       0.484 -0.000  0.000  0.021  0.000
      -0.000  0.947 -0.000  0.000 -0.000
       0.000 -0.000  0.943 -0.001  0.000
       0.021  0.000 -0.001  0.459 -0.000
       0.000 -0.000  0.000 -0.000  0.947
     SPIN  2
     eigenvalues:
       0.048  0.051  0.052  0.330  0.366
     eigenvectors (columns):
       0.000 -0.000 -0.000  0.500 -0.866
       0.000 -0.707  0.707 -0.000  0.000
       1.000  0.000  0.000 -0.001 -0.000
      -0.001  0.000  0.000 -0.866 -0.500
      -0.000  0.707  0.707  0.000  0.000
     occupation matrix ns (before diag.):
       0.357 -0.000 -0.000  0.016  0.000
      -0.000  0.051 -0.000  0.000  0.000
      -0.000 -0.000  0.048  0.000  0.000
       0.016  0.000  0.000  0.339 -0.000
       0.000  0.000  0.000 -0.000  0.051
     ------------------------ ATOM   10 ------------------------
     Tr[ns( 10)] (up, down, total) =   3.80353  0.87239  4.67592
     Atomic magnetic moment for atom  10 =   2.93114
     SPIN  1
     eigenvalues:
       0.491  0.491  0.941  0.941  0.941
     eigenvectors (columns):
       0.500  0.866 -0.000 -0.000 -0.000
       0.000 -0.000 -0.707  0.707 -0.000
       0.000 -0.000  0.000  0.000  1.000
      -0.866  0.500  0.000  0.000  0.000
      -0.000 -0.000 -0.707 -0.707  0.000
     occupation matrix ns (before diag.):
       0.491 -0.000 -0.000  0.000  0.000
      -0.000  0.941 -0.000  0.000 -0.000
      -0.000 -0.000  0.941  0.000  0.000
       0.000  0.000  0.000  0.491 -0.000
       0.000 -0.000  0.000 -0.000  0.941
     SPIN  2
     eigenvalues:
       0.048  0.048  0.048  0.364  0.364
     eigenvectors (columns):
      -0.000 -0.000  0.000 -0.500 -0.866
      -0.707  0.707  0.000  0.000 -0.000
      -0.000 -0.000 -1.000 -0.000 -0.000
       0.000  0.000 -0.000  0.866 -0.500
       0.707  0.707 -0.000 -0.000  0.000
     occupation matrix ns (before diag.):
       0.364 -0.000  0.000  0.000  0.000
      -0.000  0.048 -0.000  0.000  0.000
       0.000 -0.000  0.048 -0.000  0.000
       0.000  0.000 -0.000  0.364 -0.000
       0.000  0.000  0.000 -0.000  0.048
     ------------------------ ATOM   11 ------------------------
     Tr[ns( 11)] (up, down, total) =   3.80330  0.87271  4.67602
     Atomic magnetic moment for atom  11 =   2.93059
     SPIN  1
     eigenvalues:
       0.491  0.491  0.941  0.941  0.941
     eigenvectors (columns):
       0.948 -0.319 -0.000  0.000  0.000
       0.000 -0.000  1.000  0.000 -0.015
       0.000 -0.000  0.000 -1.000  0.000
       0.319  0.948  0.000  0.000 -0.000
      -0.000  0.000  0.015  0.000  1.000
     occupation matrix ns (before diag.):
       0.491 -0.000 -0.000 -0.000  0.000
      -0.000  0.941 -0.000  0.000 -0.000
      -0.000 -0.000  0.941 -0.000  0.000
      -0.000  0.000 -0.000  0.491 -0.000
       0.000 -0.000  0.000 -0.000  0.941
     SPIN  2
     eigenvalues:
       0.048  0.048  0.049  0.364  0.364
     eigenvectors (columns):
      -0.000  0.000  0.000 -0.999  0.036
      -0.010 -0.000  1.000  0.000 -0.000
      -0.000 -1.000 -0.000 -0.000 -0.000
       0.000  0.000 -0.000 -0.036 -0.999
       1.000 -0.000  0.010 -0.000  0.000
     occupation matrix ns (before diag.):
       0.364 -0.000  0.000 -0.000  0.000
      -0.000  0.049 -0.000  0.000  0.000
       0.000 -0.000  0.048  0.000  0.000
      -0.000  0.000  0.000  0.364 -0.000
       0.000  0.000  0.000 -0.000  0.048
     ------------------------ ATOM   12 ------------------------
     Tr[ns( 12)] (up, down, total) =   3.80330  0.87271  4.67602
     Atomic magnetic moment for atom  12 =   2.93059
     SPIN  1
     eigenvalues:
       0.491  0.491  0.941  0.941  0.941
     eigenvectors (columns):
       0.750 -0.661 -0.000 -0.000 -0.000
      -0.000 -0.000 -0.015 -0.000  1.000
      -0.000 -0.000  0.000 -1.000 -0.000
       0.661  0.750  0.000 -0.000  0.000
       0.000  0.000 -1.000 -0.000 -0.015
     occupation matrix ns (before diag.):
       0.491 -0.000  0.000 -0.000  0.000
      -0.000  0.941 -0.000  0.000 -0.000
       0.000 -0.000  0.941  0.000  0.000
      -0.000  0.000  0.000  0.491 -0.000
       0.000 -0.000  0.000 -0.000  0.941
     SPIN  2
     eigenvalues:
       0.048  0.048  0.049  0.364  0.364
     eigenvectors (columns):
       0.000  0.000 -0.000  0.531  0.847
       1.000 -0.000  0.010 -0.000 -0.000
       0.000  1.000  0.000 -0.000 -0.000
      -0.000  0.000  0.000  0.847 -0.531
      -0.010 -0.000  1.000 -0.000  0.000
     occupation matrix ns (before diag.):
       0.364 -0.000 -0.000 -0.000  0.000
      -0.000  0.048 -0.000  0.000  0.000
      -0.000 -0.000  0.048 -0.000  0.000
      -0.000  0.000 -0.000  0.364 -0.000
       0.000  0.000  0.000 -0.000  0.049

     Number of occupied Hubbard levels =   32.6977

     Atomic wfc used for Hubbard projectors are orthogonalized

     Starting wfcs are  292 randomized atomic wfcs

     Band Structure Calculation
     Davidson diagonalization with overlap

     Computing kpt #:     1  of     3 on this pool
     c_bands:  1 eigenvalues not converged
     total cpu time spent up to now is      692.1 secs

     Computing kpt #:     2  of     3 on this pool
     c_bands:  3 eigenvalues not converged
     total cpu time spent up to now is     1360.1 secs

     Computing kpt #:     3  of     3 on this pool
     c_bands:  1 eigenvalues not converged
     total cpu time spent up to now is     1785.8 secs

     ethr =  1.67E-09,  avg # of iterations =117.9

     total cpu time spent up to now is     1840.1 secs

     End of band structure calculation

 ------ SPIN UP ------------


          k = 0.0000 0.0000 0.0000 (160467 PWs)   bands (ev):

   -71.5576 -71.4301 -71.4301 -71.4269 -59.7424 -59.7413 -59.7361 -59.7361
   -42.9667 -42.9126 -42.9111 -42.8057 -42.8057 -42.8056 -42.8056 -42.8051
   -42.8051 -42.8026 -42.8024 -42.8024 -33.6231 -33.6205 -33.6165 -33.6164
   -33.6163 -33.6141 -33.6141 -33.6108 -33.6108 -33.6101 -33.6101 -33.6024
   -29.1649 -29.1648 -29.1641 -29.1640 -16.2756 -16.2167 -16.2147 -16.2083
   -16.1175 -16.1051 -16.0997 -16.0934 -16.0933 -16.0917 -16.0917 -16.0890
   -16.0873 -16.0873 -16.0870 -16.0870 -16.0858 -16.0858 -16.0853 -16.0379
   -16.0371 -16.0356 -16.0331 -16.0330 -12.6120 -12.6119 -12.6119 -12.6102
   -12.6099 -12.6099 -12.6096 -12.6096 -12.6084 -12.6081 -12.6076 -12.6066
    -6.8781  -6.5835  -6.5153  -6.5136  -5.8836  -5.8510  -5.8291  -5.2089
    -4.9926  -4.9922  -4.9746  -4.9169  -4.9164  -4.9163  -4.9160  -4.9141
    -4.9118  -4.9075  -4.9071  -4.9023  -4.9018  -4.8455  -4.8371  -4.8368
    -4.4922  -3.6515  -3.6288  -3.5425  -3.4442  -3.4365  -3.4114  -3.3723
    -3.3720  -3.3606  -3.1792  -3.1604  -3.1448  -3.1408  -3.1383  -3.0949
    -3.0387  -3.0151  -2.9655  -2.9648  -2.9631  -2.9623  -2.8879  -2.8764
    -2.8748  -2.8729  -2.8623  -2.8435  -2.8433  -2.8277  -2.8251  -2.8220
    -2.6760  -2.4066  -2.4063  -2.4054  -2.4042  -2.3972  -2.3963  -2.3845
    -2.3739  -2.2451  -2.0890  -2.0890  -2.0881  -2.0633  -2.0585  -2.0560
    -2.0550  -2.0505  -2.0384  -2.0377  -2.0376  -1.9807  -1.8866  -1.8288
    -1.8211  -1.5560  -1.5550  -1.5489  -1.5453  -1.5441  -1.5440  -1.4002
    -1.3998  -1.3973  -1.3916  -1.3812  -1.3727  -1.2116  -1.1928  -1.1488
    -1.0902  -1.0581  -1.0576  -1.0575  -1.0257  -0.9995  -0.6637  -0.6397
    -0.6369  -0.6369  -0.6236  -0.6099   4.3013   4.4342   4.4951   4.5041
     4.5074   4.5385   4.5417   4.5549   4.6157   4.6201   4.6451   4.6585
     4.6587   4.6616   5.1968   5.4472   5.5045   5.6680   5.6804   5.6843
     5.6848   5.6849   5.7527   5.7531   5.8108   5.8194   5.8220   5.9282
     5.9451   5.9555   5.9596   5.9598   6.0556   6.1940   6.2048   6.2238
     6.2247   6.2249   6.2295   6.2298

     occupation numbers 
     1.0000   1.0000   1.0000   1.0000   1.0000   1.0000   1.0000   1.0000
     1.0000   1.0000   1.0000   1.0000   1.0000   1.0000   1.0000   1.0000
     1.0000   1.0000   1.0000   1.0000   1.0000   1.0000   1.0000   1.0000
     1.0000   1.0000   1.0000   1.0000   1.0000   1.0000   1.0000   1.0000
     1.0000   1.0000   1.0000   1.0000   1.0000   1.0000   1.0000   1.0000
     1.0000   1.0000   1.0000   1.0000   1.0000   1.0000   1.0000   1.0000
     1.0000   1.0000   1.0000   1.0000   1.0000   1.0000   1.0000   1.0000
     1.0000   1.0000   1.0000   1.0000   1.0000   1.0000   1.0000   1.0000
     1.0000   1.0000   1.0000   1.0000   1.0000   1.0000   1.0000   1.0000
     1.0000   1.0000   1.0000   1.0000   1.0000   1.0000   1.0000   1.0000
     1.0000   1.0000   1.0000   1.0000   1.0000   1.0000   1.0000   1.0000
     1.0000   1.0000   1.0000   1.0000   1.0000   1.0000   1.0000   1.0000
     1.0000   1.0000   1.0000   1.0000   1.0000   1.0000   1.0000   1.0000
     1.0000   1.0000   1.0000   1.0000   1.0000   1.0000   1.0000   1.0000
     1.0000   1.0000   1.0000   1.0000   1.0000   1.0000   1.0000   1.0000
     1.0000   1.0000   1.0000   1.0000   1.0000   1.0000   1.0000   1.0000
     1.0000   1.0000   1.0000   1.0000   1.0000   1.0000   1.0000   1.0000
     1.0000   1.0000   1.0000   1.0000   1.0000   1.0000   1.0000   1.0000
     1.0000   1.0000   1.0000   1.0000   1.0000   1.0000   1.0000   1.0000
     1.0000   1.0000   1.0000   1.0000   1.0000   1.0000   1.0000   1.0000
     1.0000   1.0000   1.0000   1.0000   1.0000   1.0000   1.0000   1.0000
     1.0000   1.0000   1.0000   1.0000   1.0000   1.0000   1.0000   1.0000
     1.0000   1.0000   1.0000   1.0000   0.0000   0.0000   0.0000   0.0000
     0.0000   0.0000   0.0000   0.0000   0.0000   0.0000   0.0000   0.0000
     0.0000   0.0000   0.0000   0.0000   0.0000   0.0000   0.0000   0.0000
     0.0000   0.0000   0.0000   0.0000   0.0000   0.0000   0.0000   0.0000
     0.0000   0.0000   0.0000   0.0000   0.0000   0.0000   0.0000   0.0000
     0.0000   0.0000   0.0000   0.0000

          k = 0.0000 0.0000 0.2500 (160107 PWs)   bands (ev):

   -71.5576 -71.4301 -71.4301 -71.4269 -59.7424 -59.7413 -59.7361 -59.7361
   -42.9667 -42.9126 -42.9111 -42.8057 -42.8057 -42.8056 -42.8056 -42.8051
   -42.8051 -42.8026 -42.8024 -42.8024 -33.6231 -33.6205 -33.6165 -33.6164
   -33.6163 -33.6141 -33.6141 -33.6108 -33.6108 -33.6101 -33.6101 -33.6024
   -29.1649 -29.1648 -29.1641 -29.1640 -16.2680 -16.2250 -16.2121 -16.2066
   -16.1312 -16.1176 -16.1068 -16.0962 -16.0933 -16.0916 -16.0908 -16.0873
   -16.0870 -16.0868 -16.0858 -16.0854 -16.0782 -16.0716 -16.0678 -16.0426
   -16.0395 -16.0379 -16.0364 -16.0331 -12.6117 -12.6117 -12.6114 -12.6102
   -12.6101 -12.6099 -12.6097 -12.6094 -12.6087 -12.6080 -12.6080 -12.6069
    -6.8307  -6.5995  -6.5078  -6.4726  -5.9375  -5.9095  -5.7783  -5.2789
    -5.1710  -4.9821  -4.9669  -4.9283  -4.9223  -4.9154  -4.9145  -4.9077
    -4.9067  -4.9059  -4.9045  -4.9021  -4.8983  -4.8570  -4.8527  -4.8494
    -4.2586  -3.7102  -3.5781  -3.5088  -3.4294  -3.4166  -3.3910  -3.3714
    -3.3389  -3.3239  -3.1970  -3.1827  -3.1717  -3.1424  -3.1216  -3.0960
    -3.0756  -3.0238  -3.0049  -2.9585  -2.9528  -2.9392  -2.9198  -2.9101
    -2.8984  -2.8744  -2.8386  -2.8344  -2.8110  -2.7995  -2.7579  -2.7264
    -2.6449  -2.4804  -2.4402  -2.4214  -2.4098  -2.4020  -2.3785  -2.3567
    -2.3418  -2.2709  -2.1439  -2.1217  -2.1089  -2.0934  -2.0778  -2.0445
    -2.0426  -2.0283  -2.0266  -2.0107  -2.0015  -1.9908  -1.9374  -1.8842
    -1.7497  -1.6393  -1.6379  -1.5560  -1.5442  -1.5154  -1.5073  -1.4574
    -1.4413  -1.4072  -1.4059  -1.3332  -1.3219  -1.2972  -1.2153  -1.1687
    -1.0582  -1.0151  -1.0045  -0.9732  -0.9705  -0.9253  -0.7074  -0.6842
    -0.6815  -0.6567  -0.6370  -0.6155   4.3025   4.4482   4.5058   4.5124
     4.5155   4.5402   4.5475   4.5616   4.6227   4.6593   4.6724   4.7127
     4.7183   4.7209   5.1839   5.2884   5.2969   5.3070   5.3152   5.4840
     5.6851   5.7323   5.7779   5.8239   5.8428   5.9156   5.9297   5.9549
     5.9644   5.9766   5.9913   6.0115   6.0275   6.1311   6.1829   6.1982
     6.2201   6.2255   6.2357   6.2516

     occupation numbers 
     1.0000   1.0000   1.0000   1.0000   1.0000   1.0000   1.0000   1.0000
     1.0000   1.0000   1.0000   1.0000   1.0000   1.0000   1.0000   1.0000
     1.0000   1.0000   1.0000   1.0000   1.0000   1.0000   1.0000   1.0000
     1.0000   1.0000   1.0000   1.0000   1.0000   1.0000   1.0000   1.0000
     1.0000   1.0000   1.0000   1.0000   1.0000   1.0000   1.0000   1.0000
     1.0000   1.0000   1.0000   1.0000   1.0000   1.0000   1.0000   1.0000
     1.0000   1.0000   1.0000   1.0000   1.0000   1.0000   1.0000   1.0000
     1.0000   1.0000   1.0000   1.0000   1.0000   1.0000   1.0000   1.0000
     1.0000   1.0000   1.0000   1.0000   1.0000   1.0000   1.0000   1.0000
     1.0000   1.0000   1.0000   1.0000   1.0000   1.0000   1.0000   1.0000
     1.0000   1.0000   1.0000   1.0000   1.0000   1.0000   1.0000   1.0000
     1.0000   1.0000   1.0000   1.0000   1.0000   1.0000   1.0000   1.0000
     1.0000   1.0000   1.0000   1.0000   1.0000   1.0000   1.0000   1.0000
     1.0000   1.0000   1.0000   1.0000   1.0000   1.0000   1.0000   1.0000
     1.0000   1.0000   1.0000   1.0000   1.0000   1.0000   1.0000   1.0000
     1.0000   1.0000   1.0000   1.0000   1.0000   1.0000   1.0000   1.0000
     1.0000   1.0000   1.0000   1.0000   1.0000   1.0000   1.0000   1.0000
     1.0000   1.0000   1.0000   1.0000   1.0000   1.0000   1.0000   1.0000
     1.0000   1.0000   1.0000   1.0000   1.0000   1.0000   1.0000   1.0000
     1.0000   1.0000   1.0000   1.0000   1.0000   1.0000   1.0000   1.0000
     1.0000   1.0000   1.0000   1.0000   1.0000   1.0000   1.0000   1.0000
     1.0000   1.0000   1.0000   1.0000   1.0000   1.0000   1.0000   1.0000
     1.0000   1.0000   1.0000   1.0000   0.0000   0.0000   0.0000   0.0000
     0.0000   0.0000   0.0000   0.0000   0.0000   0.0000   0.0000   0.0000
     0.0000   0.0000   0.0000   0.0000   0.0000   0.0000   0.0000   0.0000
     0.0000   0.0000   0.0000   0.0000   0.0000   0.0000   0.0000   0.0000
     0.0000   0.0000   0.0000   0.0000   0.0000   0.0000   0.0000   0.0000
     0.0000   0.0000   0.0000   0.0000

          k = 0.0000 0.0000-0.5000 (159956 PWs)   bands (ev):

   -71.5576 -71.4301 -71.4301 -71.4269 -59.7424 -59.7413 -59.7361 -59.7361
   -42.9667 -42.9126 -42.9111 -42.8057 -42.8057 -42.8056 -42.8056 -42.8051
   -42.8051 -42.8026 -42.8024 -42.8024 -33.6231 -33.6205 -33.6165 -33.6164
   -33.6163 -33.6141 -33.6141 -33.6108 -33.6108 -33.6101 -33.6101 -33.6024
   -29.1649 -29.1649 -29.1640 -29.1640 -16.2490 -16.2470 -16.2074 -16.2032
   -16.1423 -16.1278 -16.1060 -16.0978 -16.0933 -16.0932 -16.0916 -16.0874
   -16.0870 -16.0866 -16.0859 -16.0856 -16.0600 -16.0559 -16.0554 -16.0521
   -16.0471 -16.0470 -16.0369 -16.0331 -12.6112 -12.6112 -12.6107 -12.6107
   -12.6100 -12.6100 -12.6096 -12.6095 -12.6088 -12.6088 -12.6076 -12.6075
    -6.7338  -6.6875  -6.4722  -6.4200  -5.9967  -5.9921  -5.5755  -5.5734
    -5.2010  -4.9583  -4.9537  -4.9534  -4.9375  -4.9142  -4.9136  -4.9075
    -4.9064  -4.9021  -4.8905  -4.8831  -4.8813  -4.8803  -4.8750  -4.8736
    -3.9670  -3.9179  -3.4932  -3.4494  -3.4219  -3.3902  -3.3728  -3.3594
    -3.2732  -3.2289  -3.2183  -3.2167  -3.2144  -3.2075  -3.2071  -3.2005
    -3.0247  -3.0144  -3.0112  -2.9516  -2.9325  -2.9266  -2.9201  -2.9128
    -2.8744  -2.8302  -2.8302  -2.7930  -2.7868  -2.7382  -2.7237  -2.6944
    -2.5741  -2.5701  -2.5604  -2.4346  -2.4014  -2.3957  -2.3754  -2.3370
    -2.2594  -2.2487  -2.2346  -2.2324  -2.2081  -2.1574  -2.0618  -2.0609
    -2.0196  -1.9959  -1.9893  -1.9862  -1.9769  -1.9668  -1.8895  -1.8889
    -1.7467  -1.7451  -1.5562  -1.5443  -1.5418  -1.5375  -1.5228  -1.4974
    -1.4598  -1.4543  -1.4470  -1.4418  -1.2628  -1.2611  -1.2590  -1.2024
    -1.0587  -1.0146  -0.8674  -0.8133  -0.8114  -0.8068  -0.8045  -0.8038
    -0.7868  -0.7533  -0.6370  -0.6163   4.3034   4.4627   4.5115   4.5219
     4.5240   4.5363   4.5566   4.5738   4.6284   4.6596   4.7988   4.8530
     4.8913   4.9225   4.9292   4.9355   4.9868   4.9915   5.4630   5.5906
     5.6005   5.6854   5.7533   5.8258   5.8744   5.8935   5.9106   5.9230
     5.9432   5.9451   5.9500   6.0262   6.1176   6.1231   6.1656   6.1748
     6.1987   6.2025   6.2216   6.2874

     occupation numbers 
     1.0000   1.0000   1.0000   1.0000   1.0000   1.0000   1.0000   1.0000
     1.0000   1.0000   1.0000   1.0000   1.0000   1.0000   1.0000   1.0000
     1.0000   1.0000   1.0000   1.0000   1.0000   1.0000   1.0000   1.0000
     1.0000   1.0000   1.0000   1.0000   1.0000   1.0000   1.0000   1.0000
     1.0000   1.0000   1.0000   1.0000   1.0000   1.0000   1.0000   1.0000
     1.0000   1.0000   1.0000   1.0000   1.0000   1.0000   1.0000   1.0000
     1.0000   1.0000   1.0000   1.0000   1.0000   1.0000   1.0000   1.0000
     1.0000   1.0000   1.0000   1.0000   1.0000   1.0000   1.0000   1.0000
     1.0000   1.0000   1.0000   1.0000   1.0000   1.0000   1.0000   1.0000
     1.0000   1.0000   1.0000   1.0000   1.0000   1.0000   1.0000   1.0000
     1.0000   1.0000   1.0000   1.0000   1.0000   1.0000   1.0000   1.0000
     1.0000   1.0000   1.0000   1.0000   1.0000   1.0000   1.0000   1.0000
     1.0000   1.0000   1.0000   1.0000   1.0000   1.0000   1.0000   1.0000
     1.0000   1.0000   1.0000   1.0000   1.0000   1.0000   1.0000   1.0000
     1.0000   1.0000   1.0000   1.0000   1.0000   1.0000   1.0000   1.0000
     1.0000   1.0000   1.0000   1.0000   1.0000   1.0000   1.0000   1.0000
     1.0000   1.0000   1.0000   1.0000   1.0000   1.0000   1.0000   1.0000
     1.0000   1.0000   1.0000   1.0000   1.0000   1.0000   1.0000   1.0000
     1.0000   1.0000   1.0000   1.0000   1.0000   1.0000   1.0000   1.0000
     1.0000   1.0000   1.0000   1.0000   1.0000   1.0000   1.0000   1.0000
     1.0000   1.0000   1.0000   1.0000   1.0000   1.0000   1.0000   1.0000
     1.0000   1.0000   1.0000   1.0000   1.0000   1.0000   1.0000   1.0000
     1.0000   1.0000   1.0000   1.0000   0.0000   0.0000   0.0000   0.0000
     0.0000   0.0000   0.0000   0.0000   0.0000   0.0000   0.0000   0.0000
     0.0000   0.0000   0.0000   0.0000   0.0000   0.0000   0.0000   0.0000
     0.0000   0.0000   0.0000   0.0000   0.0000   0.0000   0.0000   0.0000
     0.0000   0.0000   0.0000   0.0000   0.0000   0.0000   0.0000   0.0000
     0.0000   0.0000   0.0000   0.0000

          k = 0.0000 0.2500 0.2500 (160136 PWs)   bands (ev):

   -71.5576 -71.4301 -71.4301 -71.4269 -59.7424 -59.7413 -59.7361 -59.7361
   -42.9667 -42.9126 -42.9111 -42.8057 -42.8057 -42.8056 -42.8056 -42.8051
   -42.8051 -42.8026 -42.8024 -42.8024 -33.6231 -33.6205 -33.6165 -33.6164
   -33.6163 -33.6141 -33.6141 -33.6108 -33.6108 -33.6101 -33.6101 -33.6024
   -29.1649 -29.1649 -29.1640 -29.1640 -16.2606 -16.2211 -16.2191 -16.2071
   -16.1395 -16.1222 -16.1197 -16.1031 -16.0977 -16.0869 -16.0869 -16.0856
   -16.0841 -16.0818 -16.0800 -16.0778 -16.0720 -16.0692 -16.0629 -16.0446
   -16.0426 -16.0406 -16.0375 -16.0362 -12.6117 -12.6115 -12.6108 -12.6101
   -12.6100 -12.6100 -12.6098 -12.6097 -12.6089 -12.6080 -12.6077 -12.6074
    -6.7834  -6.5755  -6.5174  -6.4535  -5.9784  -5.8657  -5.8510  -5.4184
    -5.1969  -4.9712  -4.9591  -4.9254  -4.9246  -4.9153  -4.9125  -4.9121
    -4.9069  -4.9060  -4.9037  -4.9008  -4.8975  -4.8679  -4.8629  -4.8623
    -4.1102  -3.6688  -3.6180  -3.5187  -3.4094  -3.3978  -3.3594  -3.3475
    -3.3200  -3.2900  -3.1955  -3.1678  -3.1592  -3.1526  -3.1090  -3.0878
    -3.0676  -3.0459  -3.0346  -2.9994  -2.9991  -2.9369  -2.9298  -2.9005
    -2.8895  -2.8749  -2.8184  -2.7986  -2.7611  -2.7443  -2.7398  -2.7348
    -2.6310  -2.5551  -2.4878  -2.4296  -2.3886  -2.3832  -2.3709  -2.3485
    -2.3472  -2.2889  -2.2093  -2.1816  -2.1537  -2.1128  -2.0759  -2.0107
    -2.0103  -2.0041  -1.9923  -1.9904  -1.9858  -1.9847  -1.9390  -1.8201
    -1.7916  -1.6876  -1.6372  -1.6331  -1.5884  -1.4828  -1.4817  -1.4700
    -1.4673  -1.4557  -1.3554  -1.3421  -1.3296  -1.3044  -1.2869  -1.1946
    -0.9767  -0.9661  -0.9530  -0.9298  -0.9236  -0.9200  -0.7397  -0.7177
    -0.6852  -0.6786  -0.6614  -0.6485   4.3031   4.4630   4.5188   4.5203
     4.5273   4.5487   4.5500   4.5658   4.6583   4.6838   4.7118   4.7366
     4.7634   4.7687   5.1150   5.1743   5.1802   5.2706   5.2728   5.3965
     5.3974   5.7097   5.7226   5.7342   5.8529   5.8569   5.8941   5.9569
     5.9601   5.9909   5.9978   6.0122   6.0710   6.1158   6.1247   6.1874
     6.2142   6.2383   6.2416   6.2886

     occupation numbers 
     1.0000   1.0000   1.0000   1.0000   1.0000   1.0000   1.0000   1.0000
     1.0000   1.0000   1.0000   1.0000   1.0000   1.0000   1.0000   1.0000
     1.0000   1.0000   1.0000   1.0000   1.0000   1.0000   1.0000   1.0000
     1.0000   1.0000   1.0000   1.0000   1.0000   1.0000   1.0000   1.0000
     1.0000   1.0000   1.0000   1.0000   1.0000   1.0000   1.0000   1.0000
     1.0000   1.0000   1.0000   1.0000   1.0000   1.0000   1.0000   1.0000
     1.0000   1.0000   1.0000   1.0000   1.0000   1.0000   1.0000   1.0000
     1.0000   1.0000   1.0000   1.0000   1.0000   1.0000   1.0000   1.0000
     1.0000   1.0000   1.0000   1.0000   1.0000   1.0000   1.0000   1.0000
     1.0000   1.0000   1.0000   1.0000   1.0000   1.0000   1.0000   1.0000
     1.0000   1.0000   1.0000   1.0000   1.0000   1.0000   1.0000   1.0000
     1.0000   1.0000   1.0000   1.0000   1.0000   1.0000   1.0000   1.0000
     1.0000   1.0000   1.0000   1.0000   1.0000   1.0000   1.0000   1.0000
     1.0000   1.0000   1.0000   1.0000   1.0000   1.0000   1.0000   1.0000
     1.0000   1.0000   1.0000   1.0000   1.0000   1.0000   1.0000   1.0000
     1.0000   1.0000   1.0000   1.0000   1.0000   1.0000   1.0000   1.0000
     1.0000   1.0000   1.0000   1.0000   1.0000   1.0000   1.0000   1.0000
     1.0000   1.0000   1.0000   1.0000   1.0000   1.0000   1.0000   1.0000
     1.0000   1.0000   1.0000   1.0000   1.0000   1.0000   1.0000   1.0000
     1.0000   1.0000   1.0000   1.0000   1.0000   1.0000   1.0000   1.0000
     1.0000   1.0000   1.0000   1.0000   1.0000   1.0000   1.0000   1.0000
     1.0000   1.0000   1.0000   1.0000   1.0000   1.0000   1.0000   1.0000
     1.0000   1.0000   1.0000   1.0000   0.0000   0.0000   0.0000   0.0000
     0.0000   0.0000   0.0000   0.0000   0.0000   0.0000   0.0000   0.0000
     0.0000   0.0000   0.0000   0.0000   0.0000   0.0000   0.0000   0.0000
     0.0000   0.0000   0.0000   0.0000   0.0000   0.0000   0.0000   0.0000
     0.0000   0.0000   0.0000   0.0000   0.0000   0.0000   0.0000   0.0000
     0.0000   0.0000   0.0000   0.0000

          k = 0.0000 0.2500-0.5000 (160210 PWs)   bands (ev):

   -71.5576 -71.4301 -71.4301 -71.4269 -59.7424 -59.7413 -59.7361 -59.7361
   -42.9667 -42.9126 -42.9111 -42.8057 -42.8057 -42.8056 -42.8056 -42.8051
   -42.8051 -42.8026 -42.8024 -42.8024 -33.6231 -33.6205 -33.6165 -33.6164
   -33.6163 -33.6141 -33.6141 -33.6108 -33.6108 -33.6101 -33.6101 -33.6024
   -29.1649 -29.1649 -29.1640 -29.1640 -16.2422 -16.2408 -16.2119 -16.2084
   -16.1467 -16.1319 -16.1180 -16.1120 -16.0983 -16.0869 -16.0867 -16.0858
   -16.0818 -16.0779 -16.0776 -16.0744 -16.0592 -16.0566 -16.0556 -16.0526
   -16.0482 -16.0477 -16.0406 -16.0368 -12.6112 -12.6112 -12.6107 -12.6106
   -12.6101 -12.6100 -12.6096 -12.6096 -12.6090 -12.6084 -12.6080 -12.6073
    -6.6906  -6.6373  -6.4809  -6.4314  -5.9898  -5.9790  -5.6806  -5.6782
    -5.2070  -4.9502  -4.9461  -4.9429  -4.9310  -4.9194  -4.9170  -4.9058
    -4.9055  -4.9008  -4.8963  -4.8907  -4.8860  -4.8851  -4.8842  -4.8820
    -3.8778  -3.8315  -3.5674  -3.5111  -3.3969  -3.3638  -3.3388  -3.3133
    -3.2475  -3.2170  -3.2098  -3.2017  -3.1933  -3.1851  -3.1487  -3.1339
    -3.0935  -3.0620  -2.9987  -2.9950  -2.9596  -2.9561  -2.8936  -2.8799
    -2.8711  -2.8127  -2.7855  -2.7758  -2.7657  -2.7585  -2.7455  -2.6993
    -2.6074  -2.6054  -2.5855  -2.4276  -2.4011  -2.3868  -2.3753  -2.3405
    -2.2960  -2.2884  -2.2491  -2.2449  -2.2118  -2.1771  -2.0811  -2.0519
    -1.9959  -1.9952  -1.9504  -1.9483  -1.9224  -1.9084  -1.8801  -1.8750
    -1.7408  -1.7402  -1.6255  -1.6189  -1.6077  -1.6025  -1.5485  -1.5354
    -1.4256  -1.4176  -1.3940  -1.3878  -1.3189  -1.3118  -1.2779  -1.2320
    -0.9722  -0.9286  -0.8674  -0.8121  -0.8108  -0.8072  -0.8046  -0.8037
    -0.7869  -0.7538  -0.6807  -0.6544   4.3035   4.4787   4.5265   4.5306
     4.5342   4.5493   4.5613   4.5758   4.6726   4.7101   4.8058   4.8505
     4.8980   4.9282   4.9360   4.9409   4.9813   4.9830   5.2377   5.3408
     5.6220   5.6328   5.7061   5.7546   5.7704   5.7779   5.8674   5.9181
     5.9476   5.9612   5.9951   6.0010   6.0192   6.0992   6.1372   6.2029
     6.2215   6.2464   6.2568   6.2812

     occupation numbers 
     1.0000   1.0000   1.0000   1.0000   1.0000   1.0000   1.0000   1.0000
     1.0000   1.0000   1.0000   1.0000   1.0000   1.0000   1.0000   1.0000
     1.0000   1.0000   1.0000   1.0000   1.0000   1.0000   1.0000   1.0000
     1.0000   1.0000   1.0000   1.0000   1.0000   1.0000   1.0000   1.0000
     1.0000   1.0000   1.0000   1.0000   1.0000   1.0000   1.0000   1.0000
     1.0000   1.0000   1.0000   1.0000   1.0000   1.0000   1.0000   1.0000
     1.0000   1.0000   1.0000   1.0000   1.0000   1.0000   1.0000   1.0000
     1.0000   1.0000   1.0000   1.0000   1.0000   1.0000   1.0000   1.0000
     1.0000   1.0000   1.0000   1.0000   1.0000   1.0000   1.0000   1.0000
     1.0000   1.0000   1.0000   1.0000   1.0000   1.0000   1.0000   1.0000
     1.0000   1.0000   1.0000   1.0000   1.0000   1.0000   1.0000   1.0000
     1.0000   1.0000   1.0000   1.0000   1.0000   1.0000   1.0000   1.0000
     1.0000   1.0000   1.0000   1.0000   1.0000   1.0000   1.0000   1.0000
     1.0000   1.0000   1.0000   1.0000   1.0000   1.0000   1.0000   1.0000
     1.0000   1.0000   1.0000   1.0000   1.0000   1.0000   1.0000   1.0000
     1.0000   1.0000   1.0000   1.0000   1.0000   1.0000   1.0000   1.0000
     1.0000   1.0000   1.0000   1.0000   1.0000   1.0000   1.0000   1.0000
     1.0000   1.0000   1.0000   1.0000   1.0000   1.0000   1.0000   1.0000
     1.0000   1.0000   1.0000   1.0000   1.0000   1.0000   1.0000   1.0000
     1.0000   1.0000   1.0000   1.0000   1.0000   1.0000   1.0000   1.0000
     1.0000   1.0000   1.0000   1.0000   1.0000   1.0000   1.0000   1.0000
     1.0000   1.0000   1.0000   1.0000   1.0000   1.0000   1.0000   1.0000
     1.0000   1.0000   1.0000   1.0000   0.0000   0.0000   0.0000   0.0000
     0.0000   0.0000   0.0000   0.0000   0.0000   0.0000   0.0000   0.0000
     0.0000   0.0000   0.0000   0.0000   0.0000   0.0000   0.0000   0.0000
     0.0000   0.0000   0.0000   0.0000   0.0000   0.0000   0.0000   0.0000
     0.0000   0.0000   0.0000   0.0000   0.0000   0.0000   0.0000   0.0000
     0.0000   0.0000   0.0000   0.0000

          k = 0.0000-0.5000-0.5000 (160152 PWs)   bands (ev):

   -71.5576 -71.4301 -71.4301 -71.4270 -59.7424 -59.7413 -59.7361 -59.7361
   -42.9667 -42.9126 -42.9111 -42.8057 -42.8057 -42.8056 -42.8056 -42.8051
   -42.8051 -42.8026 -42.8024 -42.8024 -33.6231 -33.6205 -33.6165 -33.6164
   -33.6163 -33.6141 -33.6141 -33.6108 -33.6108 -33.6101 -33.6101 -33.6024
   -29.1649 -29.1649 -29.1640 -29.1640 -16.2268 -16.2268 -16.2248 -16.2232
   -16.1463 -16.1294 -16.1293 -16.1258 -16.0986 -16.0867 -16.0867 -16.0860
   -16.0718 -16.0697 -16.0696 -16.0658 -16.0595 -16.0556 -16.0556 -16.0535
   -16.0515 -16.0456 -16.0456 -16.0443 -12.6113 -12.6111 -12.6109 -12.6102
   -12.6102 -12.6100 -12.6100 -12.6094 -12.6089 -12.6083 -12.6083 -12.6072
    -6.6222  -6.5196  -6.5196  -6.5185  -5.8802  -5.8802  -5.8777  -5.8583
    -5.2121  -4.9363  -4.9321  -4.9319  -4.9294  -4.9171  -4.9168  -4.9165
    -4.9100  -4.9000  -4.8991  -4.8981  -4.8960  -4.8918  -4.8915  -4.8894
    -3.7100  -3.7088  -3.7087  -3.5999  -3.3615  -3.3508  -3.3190  -3.2935
    -3.2089  -3.2027  -3.1849  -3.1738  -3.1725  -3.1652  -3.1649  -3.1639
    -2.9962  -2.9903  -2.9856  -2.9790  -2.9653  -2.9640  -2.9620  -2.9373
    -2.8681  -2.8609  -2.8593  -2.8163  -2.6973  -2.6909  -2.6751  -2.6699
    -2.6590  -2.6552  -2.6329  -2.4038  -2.3776  -2.3750  -2.3645  -2.3439
    -2.3410  -2.3364  -2.3232  -2.2583  -2.2236  -2.1443  -2.1331  -2.1267
    -1.9422  -1.9398  -1.9360  -1.9357  -1.8208  -1.8201  -1.8176  -1.8165
    -1.7064  -1.7055  -1.6999  -1.6967  -1.6711  -1.6603  -1.6494  -1.6406
    -1.3928  -1.3907  -1.3858  -1.3699  -1.3288  -1.3280  -1.3175  -1.2742
    -0.8674  -0.8247  -0.8131  -0.8127  -0.8068  -0.8055  -0.8043  -0.7943
    -0.7925  -0.7805  -0.7630  -0.7364   4.3033   4.4966   4.5355   4.5370
     4.5398   4.5666   4.5718   4.5800   4.7770   4.7790   4.8077   4.8376
     4.9273   4.9430   4.9443   4.9586   4.9863   4.9878   5.0222   5.0268
     5.6254   5.6297   5.6321   5.6335   5.7951   5.8683   5.8927   5.9115
     5.9149   5.9975   5.9993   6.0114   6.0127   6.0266   6.0459   6.1367
     6.1744   6.2370   6.2656   6.2666

     occupation numbers 
     1.0000   1.0000   1.0000   1.0000   1.0000   1.0000   1.0000   1.0000
     1.0000   1.0000   1.0000   1.0000   1.0000   1.0000   1.0000   1.0000
     1.0000   1.0000   1.0000   1.0000   1.0000   1.0000   1.0000   1.0000
     1.0000   1.0000   1.0000   1.0000   1.0000   1.0000   1.0000   1.0000
     1.0000   1.0000   1.0000   1.0000   1.0000   1.0000   1.0000   1.0000
     1.0000   1.0000   1.0000   1.0000   1.0000   1.0000   1.0000   1.0000
     1.0000   1.0000   1.0000   1.0000   1.0000   1.0000   1.0000   1.0000
     1.0000   1.0000   1.0000   1.0000   1.0000   1.0000   1.0000   1.0000
     1.0000   1.0000   1.0000   1.0000   1.0000   1.0000   1.0000   1.0000
     1.0000   1.0000   1.0000   1.0000   1.0000   1.0000   1.0000   1.0000
     1.0000   1.0000   1.0000   1.0000   1.0000   1.0000   1.0000   1.0000
     1.0000   1.0000   1.0000   1.0000   1.0000   1.0000   1.0000   1.0000
     1.0000   1.0000   1.0000   1.0000   1.0000   1.0000   1.0000   1.0000
     1.0000   1.0000   1.0000   1.0000   1.0000   1.0000   1.0000   1.0000
     1.0000   1.0000   1.0000   1.0000   1.0000   1.0000   1.0000   1.0000
     1.0000   1.0000   1.0000   1.0000   1.0000   1.0000   1.0000   1.0000
     1.0000   1.0000   1.0000   1.0000   1.0000   1.0000   1.0000   1.0000
     1.0000   1.0000   1.0000   1.0000   1.0000   1.0000   1.0000   1.0000
     1.0000   1.0000   1.0000   1.0000   1.0000   1.0000   1.0000   1.0000
     1.0000   1.0000   1.0000   1.0000   1.0000   1.0000   1.0000   1.0000
     1.0000   1.0000   1.0000   1.0000   1.0000   1.0000   1.0000   1.0000
     1.0000   1.0000   1.0000   1.0000   1.0000   1.0000   1.0000   1.0000
     1.0000   1.0000   1.0000   1.0000   0.0000   0.0000   0.0000   0.0000
     0.0000   0.0000   0.0000   0.0000   0.0000   0.0000   0.0000   0.0000
     0.0000   0.0000   0.0000   0.0000   0.0000   0.0000   0.0000   0.0000
     0.0000   0.0000   0.0000   0.0000   0.0000   0.0000   0.0000   0.0000
     0.0000   0.0000   0.0000   0.0000   0.0000   0.0000   0.0000   0.0000
     0.0000   0.0000   0.0000   0.0000

          k = 0.2500 0.2500 0.2500 (160125 PWs)   bands (ev):

   -71.5576 -71.4301 -71.4301 -71.4269 -59.7424 -59.7413 -59.7361 -59.7361
   -42.9667 -42.9126 -42.9111 -42.8057 -42.8057 -42.8056 -42.8056 -42.8051
   -42.8051 -42.8026 -42.8024 -42.8024 -33.6231 -33.6205 -33.6165 -33.6164
   -33.6163 -33.6141 -33.6141 -33.6108 -33.6108 -33.6101 -33.6101 -33.6024
   -29.1649 -29.1648 -29.1640 -29.1640 -16.2538 -16.2186 -16.2180 -16.2115
   -16.1467 -16.1302 -16.1283 -16.1123 -16.0898 -16.0840 -16.0834 -16.0800
   -16.0791 -16.0785 -16.0778 -16.0778 -16.0704 -16.0647 -16.0616 -16.0450
   -16.0437 -16.0428 -16.0403 -16.0402 -12.6116 -12.6115 -12.6106 -12.6103
   -12.6101 -12.6100 -12.6099 -12.6099 -12.6088 -12.6079 -12.6078 -12.6073
    -6.7356  -6.5493  -6.4759  -6.4742  -5.9517  -5.9326  -5.9095  -5.5524
    -5.1737  -4.9623  -4.9533  -4.9190  -4.9173  -4.9167  -4.9156  -4.9148
    -4.9079  -4.9072  -4.9066  -4.8993  -4.8988  -4.8758  -4.8725  -4.8712
    -4.0026  -3.6384  -3.6317  -3.5580  -3.3828  -3.3619  -3.3400  -3.3314
    -3.2915  -3.2792  -3.1884  -3.1675  -3.1640  -3.1242  -3.1086  -3.0862
    -3.0771  -3.0761  -3.0434  -2.9705  -2.9524  -2.9414  -2.9232  -2.9027
    -2.8793  -2.8671  -2.8217  -2.8126  -2.7864  -2.7691  -2.7132  -2.7066
    -2.6539  -2.5734  -2.5385  -2.4113  -2.4005  -2.3966  -2.3804  -2.3626
    -2.3524  -2.2902  -2.2159  -2.2156  -2.1527  -2.1371  -2.1355  -1.9818
    -1.9754  -1.9730  -1.9615  -1.9344  -1.9306  -1.9277  -1.8970  -1.8470
    -1.8321  -1.6826  -1.6811  -1.6748  -1.6152  -1.5113  -1.5113  -1.4913
    -1.4434  -1.4394  -1.3568  -1.3525  -1.3512  -1.3059  -1.2922  -1.2697
    -0.9549  -0.9271  -0.9152  -0.9143  -0.8842  -0.8802  -0.7403  -0.7207
    -0.7176  -0.7097  -0.6926  -0.6784   4.3215   4.4657   4.5308   4.5369
     4.5386   4.5568   4.5571   4.5660   4.6845   4.7164   4.7467   4.7605
     4.7865   4.7895   5.0308   5.1227   5.1319   5.2006   5.2313   5.2549
     5.4837   5.6739   5.6999   5.7189   5.7406   5.8328   5.8622   5.8688
     5.8773   5.8904   5.9195   5.9316   5.9453   6.1052   6.1411   6.1697
     6.3174   6.3377   6.3642   6.3789

     occupation numbers 
     1.0000   1.0000   1.0000   1.0000   1.0000   1.0000   1.0000   1.0000
     1.0000   1.0000   1.0000   1.0000   1.0000   1.0000   1.0000   1.0000
     1.0000   1.0000   1.0000   1.0000   1.0000   1.0000   1.0000   1.0000
     1.0000   1.0000   1.0000   1.0000   1.0000   1.0000   1.0000   1.0000
     1.0000   1.0000   1.0000   1.0000   1.0000   1.0000   1.0000   1.0000
     1.0000   1.0000   1.0000   1.0000   1.0000   1.0000   1.0000   1.0000
     1.0000   1.0000   1.0000   1.0000   1.0000   1.0000   1.0000   1.0000
     1.0000   1.0000   1.0000   1.0000   1.0000   1.0000   1.0000   1.0000
     1.0000   1.0000   1.0000   1.0000   1.0000   1.0000   1.0000   1.0000
     1.0000   1.0000   1.0000   1.0000   1.0000   1.0000   1.0000   1.0000
     1.0000   1.0000   1.0000   1.0000   1.0000   1.0000   1.0000   1.0000
     1.0000   1.0000   1.0000   1.0000   1.0000   1.0000   1.0000   1.0000
     1.0000   1.0000   1.0000   1.0000   1.0000   1.0000   1.0000   1.0000
     1.0000   1.0000   1.0000   1.0000   1.0000   1.0000   1.0000   1.0000
     1.0000   1.0000   1.0000   1.0000   1.0000   1.0000   1.0000   1.0000
     1.0000   1.0000   1.0000   1.0000   1.0000   1.0000   1.0000   1.0000
     1.0000   1.0000   1.0000   1.0000   1.0000   1.0000   1.0000   1.0000
     1.0000   1.0000   1.0000   1.0000   1.0000   1.0000   1.0000   1.0000
     1.0000   1.0000   1.0000   1.0000   1.0000   1.0000   1.0000   1.0000
     1.0000   1.0000   1.0000   1.0000   1.0000   1.0000   1.0000   1.0000
     1.0000   1.0000   1.0000   1.0000   1.0000   1.0000   1.0000   1.0000
     1.0000   1.0000   1.0000   1.0000   1.0000   1.0000   1.0000   1.0000
     1.0000   1.0000   1.0000   1.0000   0.0000   0.0000   0.0000   0.0000
     0.0000   0.0000   0.0000   0.0000   0.0000   0.0000   0.0000   0.0000
     0.0000   0.0000   0.0000   0.0000   0.0000   0.0000   0.0000   0.0000
     0.0000   0.0000   0.0000   0.0000   0.0000   0.0000   0.0000   0.0000
     0.0000   0.0000   0.0000   0.0000   0.0000   0.0000   0.0000   0.0000
     0.0000   0.0000   0.0000   0.0000

          k = 0.2500 0.2500-0.5000 (160270 PWs)   bands (ev):

   -71.5576 -71.4301 -71.4301 -71.4270 -59.7424 -59.7413 -59.7361 -59.7361
   -42.9667 -42.9126 -42.9111 -42.8057 -42.8057 -42.8056 -42.8056 -42.8051
   -42.8051 -42.8026 -42.8024 -42.8024 -33.6231 -33.6205 -33.6165 -33.6164
   -33.6163 -33.6141 -33.6141 -33.6108 -33.6108 -33.6101 -33.6101 -33.6024
   -29.1649 -29.1649 -29.1640 -29.1640 -16.2365 -16.2354 -16.2138 -16.2097
   -16.1544 -16.1379 -16.1283 -16.1232 -16.0895 -16.0819 -16.0806 -16.0788
   -16.0776 -16.0770 -16.0740 -16.0726 -16.0601 -16.0564 -16.0557 -16.0524
   -16.0494 -16.0493 -16.0438 -16.0403 -12.6113 -12.6112 -12.6110 -12.6106
   -12.6103 -12.6101 -12.6099 -12.6093 -12.6091 -12.6081 -12.6078 -12.6071
    -6.6484  -6.5878  -6.4685  -6.4221  -6.0090  -6.0007  -5.7744  -5.7741
    -5.1898  -4.9422  -4.9384  -4.9370  -4.9272  -4.9163  -4.9154  -4.9092
    -4.9087  -4.9008  -4.8980  -4.8964  -4.8929  -4.8907  -4.8886  -4.8883
    -3.8070  -3.7730  -3.5963  -3.5505  -3.3692  -3.3330  -3.3110  -3.2892
    -3.2401  -3.2141  -3.2019  -3.1894  -3.1752  -3.1694  -3.1285  -3.1161
    -3.0921  -3.0825  -2.9806  -2.9755  -2.9161  -2.9005  -2.8952  -2.8921
    -2.8819  -2.8407  -2.8185  -2.7971  -2.7911  -2.7668  -2.7291  -2.7061
    -2.6658  -2.6446  -2.6108  -2.4549  -2.4003  -2.3902  -2.3825  -2.3615
    -2.3191  -2.3055  -2.2916  -2.2344  -2.1643  -2.1523  -2.0464  -2.0197
    -1.9597  -1.9559  -1.9231  -1.9172  -1.9023  -1.8806  -1.8689  -1.8612
    -1.7380  -1.7361  -1.6607  -1.6572  -1.6529  -1.6442  -1.5744  -1.5631
    -1.4095  -1.4014  -1.3891  -1.3854  -1.3355  -1.3229  -1.3179  -1.2952
    -0.9206  -0.8856  -0.8673  -0.8146  -0.8108  -0.8075  -0.8049  -0.8010
    -0.7848  -0.7541  -0.7133  -0.6842   4.3221   4.4809   4.5433   4.5445
     4.5503   4.5561   4.5663   4.5761   4.7003   4.7391   4.7979   4.8397
     4.8923   4.9212   4.9474   4.9663   4.9842   4.9912   5.1437   5.2248
     5.6092   5.6282   5.6988   5.7259   5.7533   5.8090   5.8239   5.8343
     5.8385   5.8433   5.8576   5.8803   5.9180   5.9463   6.1386   6.1849
     6.3590   6.3774   6.3901   6.4096

     occupation numbers 
     1.0000   1.0000   1.0000   1.0000   1.0000   1.0000   1.0000   1.0000
     1.0000   1.0000   1.0000   1.0000   1.0000   1.0000   1.0000   1.0000
     1.0000   1.0000   1.0000   1.0000   1.0000   1.0000   1.0000   1.0000
     1.0000   1.0000   1.0000   1.0000   1.0000   1.0000   1.0000   1.0000
     1.0000   1.0000   1.0000   1.0000   1.0000   1.0000   1.0000   1.0000
     1.0000   1.0000   1.0000   1.0000   1.0000   1.0000   1.0000   1.0000
     1.0000   1.0000   1.0000   1.0000   1.0000   1.0000   1.0000   1.0000
     1.0000   1.0000   1.0000   1.0000   1.0000   1.0000   1.0000   1.0000
     1.0000   1.0000   1.0000   1.0000   1.0000   1.0000   1.0000   1.0000
     1.0000   1.0000   1.0000   1.0000   1.0000   1.0000   1.0000   1.0000
     1.0000   1.0000   1.0000   1.0000   1.0000   1.0000   1.0000   1.0000
     1.0000   1.0000   1.0000   1.0000   1.0000   1.0000   1.0000   1.0000
     1.0000   1.0000   1.0000   1.0000   1.0000   1.0000   1.0000   1.0000
     1.0000   1.0000   1.0000   1.0000   1.0000   1.0000   1.0000   1.0000
     1.0000   1.0000   1.0000   1.0000   1.0000   1.0000   1.0000   1.0000
     1.0000   1.0000   1.0000   1.0000   1.0000   1.0000   1.0000   1.0000
     1.0000   1.0000   1.0000   1.0000   1.0000   1.0000   1.0000   1.0000
     1.0000   1.0000   1.0000   1.0000   1.0000   1.0000   1.0000   1.0000
     1.0000   1.0000   1.0000   1.0000   1.0000   1.0000   1.0000   1.0000
     1.0000   1.0000   1.0000   1.0000   1.0000   1.0000   1.0000   1.0000
     1.0000   1.0000   1.0000   1.0000   1.0000   1.0000   1.0000   1.0000
     1.0000   1.0000   1.0000   1.0000   1.0000   1.0000   1.0000   1.0000
     1.0000   1.0000   1.0000   1.0000   0.0000   0.0000   0.0000   0.0000
     0.0000   0.0000   0.0000   0.0000   0.0000   0.0000   0.0000   0.0000
     0.0000   0.0000   0.0000   0.0000   0.0000   0.0000   0.0000   0.0000
     0.0000   0.0000   0.0000   0.0000   0.0000   0.0000   0.0000   0.0000
     0.0000   0.0000   0.0000   0.0000   0.0000   0.0000   0.0000   0.0000
     0.0000   0.0000   0.0000   0.0000

          k = 0.2500-0.5000-0.5000 (160040 PWs)   bands (ev):

   -71.5576 -71.4301 -71.4301 -71.4270 -59.7424 -59.7413 -59.7361 -59.7361
   -42.9667 -42.9126 -42.9111 -42.8057 -42.8057 -42.8056 -42.8056 -42.8051
   -42.8051 -42.8026 -42.8024 -42.8024 -33.6231 -33.6205 -33.6165 -33.6164
   -33.6163 -33.6141 -33.6141 -33.6108 -33.6108 -33.6101 -33.6101 -33.6024
   -29.1649 -29.1649 -29.1640 -29.1640 -16.2238 -16.2238 -16.2219 -16.2185
   -16.1580 -16.1386 -16.1386 -16.1355 -16.0890 -16.0775 -16.0775 -16.0760
   -16.0718 -16.0695 -16.0694 -16.0658 -16.0595 -16.0557 -16.0557 -16.0541
   -16.0535 -16.0485 -16.0485 -16.0474 -12.6113 -12.6112 -12.6109 -12.6109
   -12.6104 -12.6102 -12.6102 -12.6093 -12.6088 -12.6078 -12.6077 -12.6069
    -6.5899  -6.4781  -6.4780  -6.4769  -5.9458  -5.9458  -5.9435  -5.9226
    -5.1988  -4.9313  -4.9272  -4.9270  -4.9243  -4.9170  -4.9164  -4.9162
    -4.9058  -4.9030  -4.9020  -4.9015  -4.9007  -4.8974  -4.8971  -4.8951
    -3.6828  -3.6819  -3.6792  -3.5941  -3.3282  -3.3177  -3.3010  -3.2720
    -3.2132  -3.2066  -3.1771  -3.1642  -3.1630  -3.1629  -3.1601  -3.1598
    -2.9762  -2.9687  -2.9601  -2.9415  -2.9344  -2.9333  -2.9288  -2.9227
    -2.8592  -2.8526  -2.8510  -2.8203  -2.7492  -2.7402  -2.7254  -2.7229
    -2.7194  -2.7193  -2.7087  -2.4732  -2.3835  -2.3817  -2.3717  -2.3583
    -2.3561  -2.3443  -2.3362  -2.2547  -2.1284  -2.0646  -2.0542  -2.0514
    -1.9115  -1.9095  -1.9087  -1.9053  -1.8177  -1.8174  -1.8150  -1.8129
    -1.7177  -1.7158  -1.7148  -1.7099  -1.7074  -1.6907  -1.6894  -1.6524
    -1.3864  -1.3843  -1.3802  -1.3675  -1.3595  -1.3527  -1.3522  -1.3401
    -0.8703  -0.8198  -0.8193  -0.8193  -0.8082  -0.7991  -0.7990  -0.7959
    -0.7940  -0.7743  -0.7636  -0.7363   4.3220   4.4971   4.5537   4.5568
     4.5599   4.5684   4.5728   4.5805   4.7598   4.7631   4.7966   4.8205
     4.9219   4.9418   4.9719   4.9848   4.9990   5.0044   5.0201   5.0254
     5.5998   5.6030   5.6052   5.6103   5.7804   5.7854   5.7902   5.7954
     5.8344   5.8345   5.8354   5.8375   5.9860   5.9881   6.0104   6.0192
     6.3992   6.4241   6.4338   6.4459

     occupation numbers 
     1.0000   1.0000   1.0000   1.0000   1.0000   1.0000   1.0000   1.0000
     1.0000   1.0000   1.0000   1.0000   1.0000   1.0000   1.0000   1.0000
     1.0000   1.0000   1.0000   1.0000   1.0000   1.0000   1.0000   1.0000
     1.0000   1.0000   1.0000   1.0000   1.0000   1.0000   1.0000   1.0000
     1.0000   1.0000   1.0000   1.0000   1.0000   1.0000   1.0000   1.0000
     1.0000   1.0000   1.0000   1.0000   1.0000   1.0000   1.0000   1.0000
     1.0000   1.0000   1.0000   1.0000   1.0000   1.0000   1.0000   1.0000
     1.0000   1.0000   1.0000   1.0000   1.0000   1.0000   1.0000   1.0000
     1.0000   1.0000   1.0000   1.0000   1.0000   1.0000   1.0000   1.0000
     1.0000   1.0000   1.0000   1.0000   1.0000   1.0000   1.0000   1.0000
     1.0000   1.0000   1.0000   1.0000   1.0000   1.0000   1.0000   1.0000
     1.0000   1.0000   1.0000   1.0000   1.0000   1.0000   1.0000   1.0000
     1.0000   1.0000   1.0000   1.0000   1.0000   1.0000   1.0000   1.0000
     1.0000   1.0000   1.0000   1.0000   1.0000   1.0000   1.0000   1.0000
     1.0000   1.0000   1.0000   1.0000   1.0000   1.0000   1.0000   1.0000
     1.0000   1.0000   1.0000   1.0000   1.0000   1.0000   1.0000   1.0000
     1.0000   1.0000   1.0000   1.0000   1.0000   1.0000   1.0000   1.0000
     1.0000   1.0000   1.0000   1.0000   1.0000   1.0000   1.0000   1.0000
     1.0000   1.0000   1.0000   1.0000   1.0000   1.0000   1.0000   1.0000
     1.0000   1.0000   1.0000   1.0000   1.0000   1.0000   1.0000   1.0000
     1.0000   1.0000   1.0000   1.0000   1.0000   1.0000   1.0000   1.0000
     1.0000   1.0000   1.0000   1.0000   1.0000   1.0000   1.0000   1.0000
     1.0000   1.0000   1.0000   1.0000   0.0000   0.0000   0.0000   0.0000
     0.0000   0.0000   0.0000   0.0000   0.0000   0.0000   0.0000   0.0000
     0.0000   0.0000   0.0000   0.0000   0.0000   0.0000   0.0000   0.0000
     0.0000   0.0000   0.0000   0.0000   0.0000   0.0000   0.0000   0.0000
     0.0000   0.0000   0.0000   0.0000   0.0000   0.0000   0.0000   0.0000
     0.0000   0.0000   0.0000   0.0000

          k =-0.5000-0.5000-0.5000 (160376 PWs)   bands (ev):

   -71.5576 -71.4301 -71.4301 -71.4270 -59.7424 -59.7413 -59.7361 -59.7361
   -42.9667 -42.9126 -42.9111 -42.8057 -42.8057 -42.8056 -42.8056 -42.8051
   -42.8051 -42.8026 -42.8024 -42.8024 -33.6231 -33.6205 -33.6165 -33.6164
   -33.6163 -33.6141 -33.6141 -33.6108 -33.6108 -33.6101 -33.6101 -33.6024
   -29.1649 -29.1649 -29.1640 -29.1640 -16.2205 -16.2205 -16.2186 -16.2122
   -16.1694 -16.1466 -16.1466 -16.1438 -16.0799 -16.0717 -16.0706 -16.0705
   -16.0665 -16.0665 -16.0658 -16.0656 -16.0595 -16.0580 -16.0565 -16.0564
   -16.0535 -16.0530 -16.0529 -16.0528 -12.6114 -12.6113 -12.6113 -12.6109
   -12.6107 -12.6104 -12.6102 -12.6095 -12.6084 -12.6075 -12.6074 -12.6066
    -6.5519  -6.4248  -6.4247  -6.4235  -6.0224  -6.0223  -6.0203  -5.9899
    -5.1879  -4.9229  -4.9191  -4.9189  -4.9155  -4.9146  -4.9146  -4.9142
    -4.9102  -4.9085  -4.9077  -4.9056  -4.9054  -4.9049  -4.9049  -4.9004
    -3.6606  -3.6602  -3.6542  -3.5894  -3.2802  -3.2774  -3.2666  -3.2467
    -3.2284  -3.2217  -3.1699  -3.1611  -3.1565  -3.1563  -3.1560  -3.1549
    -2.9361  -2.9269  -2.9045  -2.8896  -2.8603  -2.8540  -2.8515  -2.8484
    -2.8443  -2.8438  -2.8427  -2.8341  -2.8321  -2.8311  -2.8240  -2.8238
    -2.8207  -2.8199  -2.8071  -2.5252  -2.3861  -2.3848  -2.3721  -2.3692
    -2.3675  -2.3513  -2.3466  -2.2479  -2.0459  -1.9480  -1.9380  -1.9349
    -1.8849  -1.8839  -1.8820  -1.8700  -1.8109  -1.8107  -1.8100  -1.8092
    -1.8085  -1.7958  -1.7923  -1.7281  -1.7233  -1.7210  -1.7207  -1.6397
    -1.4288  -1.3854  -1.3822  -1.3800  -1.3779  -1.3756  -1.3744  -1.3549
    -0.8727  -0.8233  -0.8227  -0.8140  -0.8112  -0.7975  -0.7954  -0.7954
    -0.7953  -0.7690  -0.7638  -0.7360   4.3405   4.4975   4.5639   4.5724
     4.5788   4.5788   4.5808   4.5811   4.7428   4.7471   4.7872   4.8057
     4.9145   4.9351   4.9979   5.0132   5.0179   5.0180   5.0236   5.0239
     5.5491   5.5554   5.5571   5.5753   5.7247   5.7322   5.7323   5.7339
     5.7368   5.7420   5.7743   5.7818   5.9913   6.0095   6.0120   6.0415
     6.4632   6.5244   6.5273   6.5346

     occupation numbers 
     1.0000   1.0000   1.0000   1.0000   1.0000   1.0000   1.0000   1.0000
     1.0000   1.0000   1.0000   1.0000   1.0000   1.0000   1.0000   1.0000
     1.0000   1.0000   1.0000   1.0000   1.0000   1.0000   1.0000   1.0000
     1.0000   1.0000   1.0000   1.0000   1.0000   1.0000   1.0000   1.0000
     1.0000   1.0000   1.0000   1.0000   1.0000   1.0000   1.0000   1.0000
     1.0000   1.0000   1.0000   1.0000   1.0000   1.0000   1.0000   1.0000
     1.0000   1.0000   1.0000   1.0000   1.0000   1.0000   1.0000   1.0000
     1.0000   1.0000   1.0000   1.0000   1.0000   1.0000   1.0000   1.0000
     1.0000   1.0000   1.0000   1.0000   1.0000   1.0000   1.0000   1.0000
     1.0000   1.0000   1.0000   1.0000   1.0000   1.0000   1.0000   1.0000
     1.0000   1.0000   1.0000   1.0000   1.0000   1.0000   1.0000   1.0000
     1.0000   1.0000   1.0000   1.0000   1.0000   1.0000   1.0000   1.0000
     1.0000   1.0000   1.0000   1.0000   1.0000   1.0000   1.0000   1.0000
     1.0000   1.0000   1.0000   1.0000   1.0000   1.0000   1.0000   1.0000
     1.0000   1.0000   1.0000   1.0000   1.0000   1.0000   1.0000   1.0000
     1.0000   1.0000   1.0000   1.0000   1.0000   1.0000   1.0000   1.0000
     1.0000   1.0000   1.0000   1.0000   1.0000   1.0000   1.0000   1.0000
     1.0000   1.0000   1.0000   1.0000   1.0000   1.0000   1.0000   1.0000
     1.0000   1.0000   1.0000   1.0000   1.0000   1.0000   1.0000   1.0000
     1.0000   1.0000   1.0000   1.0000   1.0000   1.0000   1.0000   1.0000
     1.0000   1.0000   1.0000   1.0000   1.0000   1.0000   1.0000   1.0000
     1.0000   1.0000   1.0000   1.0000   1.0000   1.0000   1.0000   1.0000
     1.0000   1.0000   1.0000   1.0000   0.0000   0.0000   0.0000   0.0000
     0.0000   0.0000   0.0000   0.0000   0.0000   0.0000   0.0000   0.0000
     0.0000   0.0000   0.0000   0.0000   0.0000   0.0000   0.0000   0.0000
     0.0000   0.0000   0.0000   0.0000   0.0000   0.0000   0.0000   0.0000
     0.0000   0.0000   0.0000   0.0000   0.0000   0.0000   0.0000   0.0000
     0.0000   0.0000   0.0000   0.0000

          k = 0.2500 0.0000 0.0000 (160107 PWs)   bands (ev):

   -71.5576 -71.4301 -71.4301 -71.4269 -59.7424 -59.7413 -59.7361 -59.7361
   -42.9667 -42.9126 -42.9111 -42.8057 -42.8057 -42.8056 -42.8056 -42.8051
   -42.8051 -42.8026 -42.8024 -42.8024 -33.6231 -33.6205 -33.6165 -33.6164
   -33.6163 -33.6141 -33.6141 -33.6108 -33.6108 -33.6101 -33.6101 -33.6024
   -29.1649 -29.1648 -29.1641 -29.1640 -16.2682 -16.2252 -16.2116 -16.2067
   -16.1317 -16.1172 -16.1038 -16.0933 -16.0932 -16.0918 -16.0918 -16.0918
   -16.0871 -16.0871 -16.0859 -16.0859 -16.0799 -16.0691 -16.0689 -16.0408
   -16.0395 -16.0374 -16.0359 -16.0349 -12.6117 -12.6116 -12.6114 -12.6104
   -12.6099 -12.6098 -12.6098 -12.6093 -12.6088 -12.6082 -12.6078 -12.6069
    -6.8297  -6.5934  -6.5143  -6.4738  -5.9193  -5.9109  -5.8091  -5.3171
    -5.0848  -4.9823  -4.9819  -4.9287  -4.9283  -4.9137  -4.9078  -4.9075
    -4.9063  -4.9059  -4.9055  -4.9029  -4.8977  -4.8579  -4.8495  -4.8493
    -4.2711  -3.7388  -3.5668  -3.4998  -3.4236  -3.4146  -3.3961  -3.3651
    -3.3391  -3.3387  -3.2004  -3.1861  -3.1851  -3.1809  -3.1067  -3.0990
    -3.0917  -2.9805  -2.9645  -2.9618  -2.9605  -2.9533  -2.9127  -2.9049
    -2.8846  -2.8767  -2.8468  -2.8415  -2.8285  -2.7929  -2.7378  -2.7336
    -2.6748  -2.4450  -2.4445  -2.4140  -2.4109  -2.4058  -2.4048  -2.3363
    -2.3324  -2.3012  -2.1437  -2.1407  -2.1006  -2.0970  -2.0808  -2.0451
    -2.0422  -2.0379  -2.0270  -2.0024  -1.9981  -1.9232  -1.8904  -1.8898
    -1.8186  -1.6387  -1.6386  -1.5485  -1.5457  -1.5074  -1.5038  -1.4564
    -1.4451  -1.4095  -1.4040  -1.3307  -1.3259  -1.2434  -1.2186  -1.2050
    -1.0928  -1.0604  -0.9710  -0.9706  -0.9494  -0.9317  -0.6816  -0.6815
    -0.6670  -0.6637  -0.6512  -0.6397   4.3185   4.4376   4.5040   4.5156
     4.5167   4.5413   4.5465   4.5632   4.6488   4.6581   4.6680   4.6739
     4.7199   4.7224   5.2100   5.2303   5.3025   5.3041   5.3044   5.6628
     5.6807   5.6846   5.8048   5.8271   5.8286   5.9194   5.9224   5.9415
     5.9508   5.9614   5.9845   6.0142   6.0673   6.0995   6.1657   6.2016
     6.2136   6.2138   6.2208   6.2448

     occupation numbers 
     1.0000   1.0000   1.0000   1.0000   1.0000   1.0000   1.0000   1.0000
     1.0000   1.0000   1.0000   1.0000   1.0000   1.0000   1.0000   1.0000
     1.0000   1.0000   1.0000   1.0000   1.0000   1.0000   1.0000   1.0000
     1.0000   1.0000   1.0000   1.0000   1.0000   1.0000   1.0000   1.0000
     1.0000   1.0000   1.0000   1.0000   1.0000   1.0000   1.0000   1.0000
     1.0000   1.0000   1.0000   1.0000   1.0000   1.0000   1.0000   1.0000
     1.0000   1.0000   1.0000   1.0000   1.0000   1.0000   1.0000   1.0000
     1.0000   1.0000   1.0000   1.0000   1.0000   1.0000   1.0000   1.0000
     1.0000   1.0000   1.0000   1.0000   1.0000   1.0000   1.0000   1.0000
     1.0000   1.0000   1.0000   1.0000   1.0000   1.0000   1.0000   1.0000
     1.0000   1.0000   1.0000   1.0000   1.0000   1.0000   1.0000   1.0000
     1.0000   1.0000   1.0000   1.0000   1.0000   1.0000   1.0000   1.0000
     1.0000   1.0000   1.0000   1.0000   1.0000   1.0000   1.0000   1.0000
     1.0000   1.0000   1.0000   1.0000   1.0000   1.0000   1.0000   1.0000
     1.0000   1.0000   1.0000   1.0000   1.0000   1.0000   1.0000   1.0000
     1.0000   1.0000   1.0000   1.0000   1.0000   1.0000   1.0000   1.0000
     1.0000   1.0000   1.0000   1.0000   1.0000   1.0000   1.0000   1.0000
     1.0000   1.0000   1.0000   1.0000   1.0000   1.0000   1.0000   1.0000
     1.0000   1.0000   1.0000   1.0000   1.0000   1.0000   1.0000   1.0000
     1.0000   1.0000   1.0000   1.0000   1.0000   1.0000   1.0000   1.0000
     1.0000   1.0000   1.0000   1.0000   1.0000   1.0000   1.0000   1.0000
     1.0000   1.0000   1.0000   1.0000   1.0000   1.0000   1.0000   1.0000
     1.0000   1.0000   1.0000   1.0000   0.0000   0.0000   0.0000   0.0000
     0.0000   0.0000   0.0000   0.0000   0.0000   0.0000   0.0000   0.0000
     0.0000   0.0000   0.0000   0.0000   0.0000   0.0000   0.0000   0.0000
     0.0000   0.0000   0.0000   0.0000   0.0000   0.0000   0.0000   0.0000
     0.0000   0.0000   0.0000   0.0000   0.0000   0.0000   0.0000   0.0000
     0.0000   0.0000   0.0000   0.0000

          k =-0.5000 0.0000 0.0000 (159956 PWs)   bands (ev):

   -71.5576 -71.4301 -71.4301 -71.4269 -59.7424 -59.7413 -59.7361 -59.7361
   -42.9667 -42.9126 -42.9111 -42.8057 -42.8057 -42.8056 -42.8056 -42.8051
   -42.8051 -42.8026 -42.8024 -42.8024 -33.6231 -33.6205 -33.6165 -33.6164
   -33.6163 -33.6141 -33.6141 -33.6108 -33.6108 -33.6101 -33.6101 -33.6024
   -29.1649 -29.1648 -29.1641 -29.1640 -16.2524 -16.2438 -16.2081 -16.2024
   -16.1425 -16.1276 -16.1019 -16.0956 -16.0932 -16.0931 -16.0919 -16.0919
   -16.0869 -16.0869 -16.0861 -16.0861 -16.0688 -16.0535 -16.0525 -16.0493
   -16.0469 -16.0453 -16.0363 -16.0355 -12.6114 -12.6111 -12.6109 -12.6102
   -12.6102 -12.6101 -12.6099 -12.6093 -12.6089 -12.6083 -12.6082 -12.6072
    -6.7280  -6.6867  -6.4791  -6.4208  -5.9979  -5.9811  -5.6653  -5.5460
    -5.1064  -4.9571  -4.9563  -4.9555  -4.9555  -4.9133  -4.9082  -4.9051
    -4.9050  -4.9041  -4.8884  -4.8830  -4.8819  -4.8746  -4.8742  -4.8722
    -3.9986  -3.9312  -3.4971  -3.4444  -3.3969  -3.3853  -3.3787  -3.3765
    -3.2746  -3.2721  -3.2268  -3.2189  -3.2164  -3.2163  -3.2065  -3.2055
    -3.0328  -2.9877  -2.9577  -2.9539  -2.9390  -2.9274  -2.9238  -2.8962
    -2.8849  -2.8770  -2.8337  -2.8202  -2.7697  -2.7544  -2.7233  -2.5914
    -2.5884  -2.5640  -2.5632  -2.4542  -2.4049  -2.3981  -2.3930  -2.3591
    -2.2459  -2.2445  -2.2294  -2.2278  -2.2051  -2.1917  -2.0653  -2.0607
    -1.9927  -1.9908  -1.9887  -1.9858  -1.9744  -1.8903  -1.8864  -1.8503
    -1.7425  -1.7422  -1.6917  -1.5480  -1.5462  -1.5316  -1.5250  -1.4539
    -1.4536  -1.4429  -1.4320  -1.3959  -1.2621  -1.2617  -1.2541  -1.2394
    -1.0936  -1.0612  -0.8218  -0.8201  -0.8095  -0.8093  -0.8040  -0.8038
    -0.7656  -0.7345  -0.6638  -0.6397   4.3355   4.4405   4.5095   4.5269
     4.5291   4.5334   4.5569   4.5766   4.6546   4.6568   4.7753   4.7847
     4.8908   4.8993   4.9440   4.9561   4.9963   5.0064   5.5527   5.5880
     5.6807   5.6848   5.7608   5.8556   5.8732   5.8876   5.9104   5.9178
     5.9236   5.9458   5.9516   5.9527   6.0845   6.1059   6.1602   6.1630
     6.1979   6.2077   6.2169   6.2455

     occupation numbers 
     1.0000   1.0000   1.0000   1.0000   1.0000   1.0000   1.0000   1.0000
     1.0000   1.0000   1.0000   1.0000   1.0000   1.0000   1.0000   1.0000
     1.0000   1.0000   1.0000   1.0000   1.0000   1.0000   1.0000   1.0000
     1.0000   1.0000   1.0000   1.0000   1.0000   1.0000   1.0000   1.0000
     1.0000   1.0000   1.0000   1.0000   1.0000   1.0000   1.0000   1.0000
     1.0000   1.0000   1.0000   1.0000   1.0000   1.0000   1.0000   1.0000
     1.0000   1.0000   1.0000   1.0000   1.0000   1.0000   1.0000   1.0000
     1.0000   1.0000   1.0000   1.0000   1.0000   1.0000   1.0000   1.0000
     1.0000   1.0000   1.0000   1.0000   1.0000   1.0000   1.0000   1.0000
     1.0000   1.0000   1.0000   1.0000   1.0000   1.0000   1.0000   1.0000
     1.0000   1.0000   1.0000   1.0000   1.0000   1.0000   1.0000   1.0000
     1.0000   1.0000   1.0000   1.0000   1.0000   1.0000   1.0000   1.0000
     1.0000   1.0000   1.0000   1.0000   1.0000   1.0000   1.0000   1.0000
     1.0000   1.0000   1.0000   1.0000   1.0000   1.0000   1.0000   1.0000
     1.0000   1.0000   1.0000   1.0000   1.0000   1.0000   1.0000   1.0000
     1.0000   1.0000   1.0000   1.0000   1.0000   1.0000   1.0000   1.0000
     1.0000   1.0000   1.0000   1.0000   1.0000   1.0000   1.0000   1.0000
     1.0000   1.0000   1.0000   1.0000   1.0000   1.0000   1.0000   1.0000
     1.0000   1.0000   1.0000   1.0000   1.0000   1.0000   1.0000   1.0000
     1.0000   1.0000   1.0000   1.0000   1.0000   1.0000   1.0000   1.0000
     1.0000   1.0000   1.0000   1.0000   1.0000   1.0000   1.0000   1.0000
     1.0000   1.0000   1.0000   1.0000   1.0000   1.0000   1.0000   1.0000
     1.0000   1.0000   1.0000   1.0000   0.0000   0.0000   0.0000   0.0000
     0.0000   0.0000   0.0000   0.0000   0.0000   0.0000   0.0000   0.0000
     0.0000   0.0000   0.0000   0.0000   0.0000   0.0000   0.0000   0.0000
     0.0000   0.0000   0.0000   0.0000   0.0000   0.0000   0.0000   0.0000
     0.0000   0.0000   0.0000   0.0000   0.0000   0.0000   0.0000   0.0000
     0.0000   0.0000   0.0000   0.0000

          k = 0.2500 0.0000-0.2500 (160136 PWs)   bands (ev):

   -71.5576 -71.4301 -71.4301 -71.4269 -59.7424 -59.7413 -59.7361 -59.7361
   -42.9667 -42.9126 -42.9111 -42.8057 -42.8057 -42.8056 -42.8056 -42.8051
   -42.8051 -42.8026 -42.8024 -42.8024 -33.6231 -33.6205 -33.6165 -33.6164
   -33.6163 -33.6141 -33.6141 -33.6108 -33.6108 -33.6101 -33.6101 -33.6024
   -29.1649 -29.1648 -29.1641 -29.1640 -16.2609 -16.2224 -16.2177 -16.2070
   -16.1398 -16.1234 -16.1172 -16.1023 -16.0932 -16.0917 -16.0876 -16.0872
   -16.0860 -16.0805 -16.0786 -16.0781 -16.0740 -16.0667 -16.0639 -16.0441
   -16.0404 -16.0402 -16.0392 -16.0365 -12.6117 -12.6114 -12.6109 -12.6104
   -12.6101 -12.6100 -12.6097 -12.6094 -12.6089 -12.6082 -12.6080 -12.6071
    -6.7824  -6.5725  -6.5160  -6.4583  -5.9645  -5.8935  -5.8497  -5.4368
    -5.1498  -4.9718  -4.9627  -4.9241  -4.9182  -4.9181  -4.9174  -4.9105
    -4.9075  -4.9055  -4.9026  -4.9012  -4.8967  -4.8667  -4.8622  -4.8617
    -4.1188  -3.6826  -3.6364  -3.5103  -3.4024  -3.3761  -3.3666  -3.3515
    -3.3131  -3.3089  -3.2013  -3.1912  -3.1703  -3.1591  -3.1016  -3.0751
    -3.0596  -3.0427  -3.0264  -3.0178  -2.9844  -2.9297  -2.9155  -2.8958
    -2.8880  -2.8786  -2.8337  -2.7992  -2.7716  -2.7438  -2.7366  -2.7280
    -2.6608  -2.5259  -2.4761  -2.4397  -2.4008  -2.3766  -2.3651  -2.3591
    -2.3433  -2.2937  -2.1886  -2.1685  -2.1482  -2.1240  -2.1154  -2.0150
    -2.0097  -2.0015  -1.9929  -1.9893  -1.9576  -1.9431  -1.9167  -1.8606
    -1.8025  -1.6874  -1.6368  -1.6293  -1.5844  -1.4973  -1.4849  -1.4682
    -1.4558  -1.4472  -1.3500  -1.3424  -1.3375  -1.2988  -1.2546  -1.2260
    -1.0068  -0.9779  -0.9671  -0.9411  -0.9175  -0.8812  -0.7149  -0.7080
    -0.6890  -0.6864  -0.6793  -0.6562   4.3203   4.4516   4.5169   4.5238
     4.5262   4.5481   4.5537   4.5662   4.6657   4.7035   4.7098   4.7170
     4.7379   4.7690   5.0833   5.1770   5.1894   5.2754   5.3233   5.4030
     5.4114   5.6905   5.7303   5.7510   5.8529   5.8582   5.8836   5.9570
     5.9717   5.9846   6.0029   6.0202   6.0636   6.1325   6.1539   6.1794
     6.2000   6.2165   6.2367   6.2484

     occupation numbers 
     1.0000   1.0000   1.0000   1.0000   1.0000   1.0000   1.0000   1.0000
     1.0000   1.0000   1.0000   1.0000   1.0000   1.0000   1.0000   1.0000
     1.0000   1.0000   1.0000   1.0000   1.0000   1.0000   1.0000   1.0000
     1.0000   1.0000   1.0000   1.0000   1.0000   1.0000   1.0000   1.0000
     1.0000   1.0000   1.0000   1.0000   1.0000   1.0000   1.0000   1.0000
     1.0000   1.0000   1.0000   1.0000   1.0000   1.0000   1.0000   1.0000
     1.0000   1.0000   1.0000   1.0000   1.0000   1.0000   1.0000   1.0000
     1.0000   1.0000   1.0000   1.0000   1.0000   1.0000   1.0000   1.0000
     1.0000   1.0000   1.0000   1.0000   1.0000   1.0000   1.0000   1.0000
     1.0000   1.0000   1.0000   1.0000   1.0000   1.0000   1.0000   1.0000
     1.0000   1.0000   1.0000   1.0000   1.0000   1.0000   1.0000   1.0000
     1.0000   1.0000   1.0000   1.0000   1.0000   1.0000   1.0000   1.0000
     1.0000   1.0000   1.0000   1.0000   1.0000   1.0000   1.0000   1.0000
     1.0000   1.0000   1.0000   1.0000   1.0000   1.0000   1.0000   1.0000
     1.0000   1.0000   1.0000   1.0000   1.0000   1.0000   1.0000   1.0000
     1.0000   1.0000   1.0000   1.0000   1.0000   1.0000   1.0000   1.0000
     1.0000   1.0000   1.0000   1.0000   1.0000   1.0000   1.0000   1.0000
     1.0000   1.0000   1.0000   1.0000   1.0000   1.0000   1.0000   1.0000
     1.0000   1.0000   1.0000   1.0000   1.0000   1.0000   1.0000   1.0000
     1.0000   1.0000   1.0000   1.0000   1.0000   1.0000   1.0000   1.0000
     1.0000   1.0000   1.0000   1.0000   1.0000   1.0000   1.0000   1.0000
     1.0000   1.0000   1.0000   1.0000   1.0000   1.0000   1.0000   1.0000
     1.0000   1.0000   1.0000   1.0000   0.0000   0.0000   0.0000   0.0000
     0.0000   0.0000   0.0000   0.0000   0.0000   0.0000   0.0000   0.0000
     0.0000   0.0000   0.0000   0.0000   0.0000   0.0000   0.0000   0.0000
     0.0000   0.0000   0.0000   0.0000   0.0000   0.0000   0.0000   0.0000
     0.0000   0.0000   0.0000   0.0000   0.0000   0.0000   0.0000   0.0000
     0.0000   0.0000   0.0000   0.0000

          k = 0.0000 0.2500-0.2500 (160136 PWs)   bands (ev):

   -71.5576 -71.4301 -71.4301 -71.4269 -59.7424 -59.7413 -59.7361 -59.7361
   -42.9667 -42.9126 -42.9111 -42.8057 -42.8057 -42.8056 -42.8056 -42.8051
   -42.8051 -42.8026 -42.8024 -42.8024 -33.6231 -33.6205 -33.6165 -33.6164
   -33.6163 -33.6141 -33.6141 -33.6108 -33.6108 -33.6101 -33.6101 -33.6024
   -29.1649 -29.1649 -29.1640 -29.1640 -16.2606 -16.2211 -16.2191 -16.2071
   -16.1395 -16.1223 -16.1196 -16.1031 -16.0977 -16.0869 -16.0869 -16.0856
   -16.0840 -16.0818 -16.0800 -16.0778 -16.0720 -16.0691 -16.0630 -16.0446
   -16.0426 -16.0406 -16.0375 -16.0362 -12.6116 -12.6114 -12.6108 -12.6105
   -12.6104 -12.6099 -12.6098 -12.6089 -12.6089 -12.6084 -12.6082 -12.6069
    -6.7834  -6.5756  -6.5174  -6.4535  -5.9783  -5.8656  -5.8509  -5.4185
    -5.1971  -4.9709  -4.9585  -4.9252  -4.9249  -4.9157  -4.9134  -4.9126
    -4.9070  -4.9056  -4.9033  -4.9006  -4.8974  -4.8676  -4.8627  -4.8624
    -4.1098  -3.6681  -3.6241  -3.5149  -3.4061  -3.3919  -3.3670  -3.3514
    -3.3209  -3.2919  -3.1943  -3.1635  -3.1607  -3.1468  -3.0984  -3.0943
    -3.0591  -3.0582  -3.0423  -2.9996  -2.9985  -2.9350  -2.9265  -2.8917
    -2.8810  -2.8754  -2.8122  -2.7949  -2.7896  -2.7477  -2.7418  -2.7334
    -2.6318  -2.5570  -2.4874  -2.4303  -2.3977  -2.3773  -2.3733  -2.3600
    -2.3426  -2.2623  -2.1998  -2.1884  -2.1490  -2.1200  -2.0778  -2.0093
    -2.0073  -2.0073  -1.9915  -1.9890  -1.9866  -1.9865  -1.9403  -1.8228
    -1.7969  -1.6866  -1.6382  -1.6333  -1.5890  -1.4829  -1.4809  -1.4744
    -1.4579  -1.4567  -1.3544  -1.3367  -1.3321  -1.2993  -1.2967  -1.1928
    -0.9769  -0.9671  -0.9529  -0.9395  -0.9225  -0.9112  -0.7396  -0.7176
    -0.6850  -0.6788  -0.6629  -0.6473   4.3033   4.4629   4.5187   4.5232
     4.5251   4.5487   4.5495   4.5653   4.6577   4.6843   4.7127   4.7341
     4.7633   4.7653   5.1355   5.1748   5.1864   5.2420   5.2868   5.3876
     5.4067   5.7138   5.7158   5.7345   5.8403   5.8582   5.8671   5.9398
     5.9663   5.9956   6.0064   6.0354   6.0622   6.1220   6.1282   6.1957
     6.2012   6.2400   6.2411   6.2854

     occupation numbers 
     1.0000   1.0000   1.0000   1.0000   1.0000   1.0000   1.0000   1.0000
     1.0000   1.0000   1.0000   1.0000   1.0000   1.0000   1.0000   1.0000
     1.0000   1.0000   1.0000   1.0000   1.0000   1.0000   1.0000   1.0000
     1.0000   1.0000   1.0000   1.0000   1.0000   1.0000   1.0000   1.0000
     1.0000   1.0000   1.0000   1.0000   1.0000   1.0000   1.0000   1.0000
     1.0000   1.0000   1.0000   1.0000   1.0000   1.0000   1.0000   1.0000
     1.0000   1.0000   1.0000   1.0000   1.0000   1.0000   1.0000   1.0000
     1.0000   1.0000   1.0000   1.0000   1.0000   1.0000   1.0000   1.0000
     1.0000   1.0000   1.0000   1.0000   1.0000   1.0000   1.0000   1.0000
     1.0000   1.0000   1.0000   1.0000   1.0000   1.0000   1.0000   1.0000
     1.0000   1.0000   1.0000   1.0000   1.0000   1.0000   1.0000   1.0000
     1.0000   1.0000   1.0000   1.0000   1.0000   1.0000   1.0000   1.0000
     1.0000   1.0000   1.0000   1.0000   1.0000   1.0000   1.0000   1.0000
     1.0000   1.0000   1.0000   1.0000   1.0000   1.0000   1.0000   1.0000
     1.0000   1.0000   1.0000   1.0000   1.0000   1.0000   1.0000   1.0000
     1.0000   1.0000   1.0000   1.0000   1.0000   1.0000   1.0000   1.0000
     1.0000   1.0000   1.0000   1.0000   1.0000   1.0000   1.0000   1.0000
     1.0000   1.0000   1.0000   1.0000   1.0000   1.0000   1.0000   1.0000
     1.0000   1.0000   1.0000   1.0000   1.0000   1.0000   1.0000   1.0000
     1.0000   1.0000   1.0000   1.0000   1.0000   1.0000   1.0000   1.0000
     1.0000   1.0000   1.0000   1.0000   1.0000   1.0000   1.0000   1.0000
     1.0000   1.0000   1.0000   1.0000   1.0000   1.0000   1.0000   1.0000
     1.0000   1.0000   1.0000   1.0000   0.0000   0.0000   0.0000   0.0000
     0.0000   0.0000   0.0000   0.0000   0.0000   0.0000   0.0000   0.0000
     0.0000   0.0000   0.0000   0.0000   0.0000   0.0000   0.0000   0.0000
     0.0000   0.0000   0.0000   0.0000   0.0000   0.0000   0.0000   0.0000
     0.0000   0.0000   0.0000   0.0000   0.0000   0.0000   0.0000   0.0000
     0.0000   0.0000   0.0000   0.0000

          k = 0.2500 0.0000 0.5000 (160210 PWs)   bands (ev):

   -71.5576 -71.4301 -71.4301 -71.4269 -59.7424 -59.7413 -59.7361 -59.7361
   -42.9667 -42.9126 -42.9111 -42.8057 -42.8057 -42.8056 -42.8056 -42.8051
   -42.8051 -42.8026 -42.8024 -42.8024 -33.6231 -33.6205 -33.6165 -33.6164
   -33.6163 -33.6141 -33.6141 -33.6108 -33.6108 -33.6101 -33.6101 -33.6024
   -29.1649 -29.1649 -29.1640 -29.1640 -16.2427 -16.2408 -16.2119 -16.2079
   -16.1471 -16.1318 -16.1167 -16.1119 -16.0932 -16.0917 -16.0872 -16.0861
   -16.0860 -16.0775 -16.0750 -16.0741 -16.0608 -16.0559 -16.0551 -16.0521
   -16.0482 -16.0479 -16.0401 -16.0368 -12.6112 -12.6112 -12.6106 -12.6106
   -12.6102 -12.6102 -12.6095 -12.6095 -12.6088 -12.6088 -12.6076 -12.6075
    -6.6891  -6.6373  -6.4783  -6.4314  -5.9915  -5.9897  -5.6874  -5.6805
    -5.1791  -4.9479  -4.9458  -4.9432  -4.9331  -4.9171  -4.9136  -4.9079
    -4.9055  -4.9008  -4.8937  -4.8928  -4.8883  -4.8844  -4.8820  -4.8816
    -3.8783  -3.8433  -3.5724  -3.5356  -3.3960  -3.3481  -3.3271  -3.3156
    -3.2604  -3.2187  -3.2160  -3.2034  -3.1883  -3.1878  -3.1560  -3.1341
    -3.0921  -3.0538  -2.9986  -2.9955  -2.9616  -2.9448  -2.8934  -2.8797
    -2.8792  -2.8336  -2.7972  -2.7701  -2.7678  -2.7585  -2.7406  -2.6830
    -2.6064  -2.5898  -2.5749  -2.4507  -2.3943  -2.3934  -2.3670  -2.3641
    -2.2734  -2.2702  -2.2664  -2.2364  -2.2089  -2.1864  -2.0588  -2.0384
    -2.0008  -1.9950  -1.9564  -1.9539  -1.9191  -1.9156  -1.8789  -1.8727
    -1.7390  -1.7382  -1.6192  -1.6178  -1.6118  -1.6080  -1.5367  -1.5317
    -1.4370  -1.4257  -1.3889  -1.3811  -1.3216  -1.2806  -1.2710  -1.2693
    -0.9727  -0.9431  -0.8672  -0.8130  -0.8107  -0.8060  -0.8047  -0.8043
    -0.7863  -0.7540  -0.6810  -0.6576   4.3213   4.4665   4.5255   4.5310
     4.5328   4.5512   4.5651   4.5759   4.6725   4.7135   4.7872   4.8536
     4.8913   4.9213   4.9422   4.9439   4.9782   4.9827   5.2533   5.3441
     5.6228   5.6328   5.7134   5.7683   5.7846   5.7923   5.9149   5.9201
     5.9366   5.9750   6.0014   6.0066   6.0074   6.0433   6.1626   6.1845
     6.2121   6.2231   6.2643   6.2891

     occupation numbers 
     1.0000   1.0000   1.0000   1.0000   1.0000   1.0000   1.0000   1.0000
     1.0000   1.0000   1.0000   1.0000   1.0000   1.0000   1.0000   1.0000
     1.0000   1.0000   1.0000   1.0000   1.0000   1.0000   1.0000   1.0000
     1.0000   1.0000   1.0000   1.0000   1.0000   1.0000   1.0000   1.0000
     1.0000   1.0000   1.0000   1.0000   1.0000   1.0000   1.0000   1.0000
     1.0000   1.0000   1.0000   1.0000   1.0000   1.0000   1.0000   1.0000
     1.0000   1.0000   1.0000   1.0000   1.0000   1.0000   1.0000   1.0000
     1.0000   1.0000   1.0000   1.0000   1.0000   1.0000   1.0000   1.0000
     1.0000   1.0000   1.0000   1.0000   1.0000   1.0000   1.0000   1.0000
     1.0000   1.0000   1.0000   1.0000   1.0000   1.0000   1.0000   1.0000
     1.0000   1.0000   1.0000   1.0000   1.0000   1.0000   1.0000   1.0000
     1.0000   1.0000   1.0000   1.0000   1.0000   1.0000   1.0000   1.0000
     1.0000   1.0000   1.0000   1.0000   1.0000   1.0000   1.0000   1.0000
     1.0000   1.0000   1.0000   1.0000   1.0000   1.0000   1.0000   1.0000
     1.0000   1.0000   1.0000   1.0000   1.0000   1.0000   1.0000   1.0000
     1.0000   1.0000   1.0000   1.0000   1.0000   1.0000   1.0000   1.0000
     1.0000   1.0000   1.0000   1.0000   1.0000   1.0000   1.0000   1.0000
     1.0000   1.0000   1.0000   1.0000   1.0000   1.0000   1.0000   1.0000
     1.0000   1.0000   1.0000   1.0000   1.0000   1.0000   1.0000   1.0000
     1.0000   1.0000   1.0000   1.0000   1.0000   1.0000   1.0000   1.0000
     1.0000   1.0000   1.0000   1.0000   1.0000   1.0000   1.0000   1.0000
     1.0000   1.0000   1.0000   1.0000   1.0000   1.0000   1.0000   1.0000
     1.0000   1.0000   1.0000   1.0000   0.0000   0.0000   0.0000   0.0000
     0.0000   0.0000   0.0000   0.0000   0.0000   0.0000   0.0000   0.0000
     0.0000   0.0000   0.0000   0.0000   0.0000   0.0000   0.0000   0.0000
     0.0000   0.0000   0.0000   0.0000   0.0000   0.0000   0.0000   0.0000
     0.0000   0.0000   0.0000   0.0000   0.0000   0.0000   0.0000   0.0000
     0.0000   0.0000   0.0000   0.0000

          k =-0.5000-0.2500 0.0000 (160210 PWs)   bands (ev):

   -71.5576 -71.4301 -71.4301 -71.4269 -59.7424 -59.7413 -59.7361 -59.7361
   -42.9667 -42.9126 -42.9111 -42.8057 -42.8057 -42.8056 -42.8056 -42.8051
   -42.8051 -42.8026 -42.8024 -42.8024 -33.6231 -33.6205 -33.6165 -33.6164
   -33.6163 -33.6141 -33.6141 -33.6108 -33.6108 -33.6101 -33.6101 -33.6024
   -29.1649 -29.1648 -29.1641 -29.1640 -16.2458 -16.2376 -16.2130 -16.2070
   -16.1471 -16.1321 -16.1154 -16.1120 -16.0931 -16.0919 -16.0870 -16.0862
   -16.0835 -16.0794 -16.0756 -16.0740 -16.0679 -16.0540 -16.0527 -16.0500
   -16.0487 -16.0458 -16.0399 -16.0389 -12.6113 -12.6111 -12.6108 -12.6104
   -12.6103 -12.6097 -12.6097 -12.6094 -12.6092 -12.6084 -12.6079 -12.6073
    -6.6849  -6.6364  -6.4842  -6.4319  -5.9949  -5.9741  -5.7442  -5.6567
    -5.1401  -4.9465  -4.9459  -4.9451  -4.9431  -4.9149  -4.9120  -4.9049
    -4.9037  -4.9021  -4.8937  -4.8911  -4.8904  -4.8840  -4.8834  -4.8765
    -3.9018  -3.8443  -3.5758  -3.5274  -3.3653  -3.3541  -3.3433  -3.3238
    -3.2606  -3.2450  -3.2100  -3.2050  -3.1958  -3.1881  -3.1581  -3.1432
    -3.0640  -3.0585  -3.0109  -2.9758  -2.9587  -2.9443  -2.9035  -2.8944
    -2.8788  -2.8500  -2.7895  -2.7662  -2.7629  -2.7520  -2.7434  -2.6319
    -2.6151  -2.6018  -2.5789  -2.4596  -2.4048  -2.3998  -2.3914  -2.3164
    -2.2833  -2.2641  -2.2537  -2.2441  -2.2112  -2.2022  -2.0610  -2.0473
    -2.0018  -1.9978  -1.9520  -1.9319  -1.9185  -1.8953  -1.8728  -1.8211
    -1.7387  -1.7344  -1.7099  -1.6174  -1.6125  -1.5862  -1.5549  -1.5090
    -1.4379  -1.3930  -1.3848  -1.3778  -1.3213  -1.3082  -1.2768  -1.2605
    -1.0066  -0.9750  -0.8211  -0.8100  -0.8092  -0.8053  -0.8038  -0.8014
    -0.7664  -0.7362  -0.7065  -0.6831   4.3380   4.4546   4.5230   4.5339
     4.5359   4.5496   4.5661   4.5777   4.7064   4.7101   4.7775   4.7886
     4.8910   4.9024   4.9376   4.9633   4.9803   4.9926   5.3400   5.3429
     5.6110   5.6228   5.7412   5.7624   5.7733   5.7813   5.8995   5.9276
     5.9416   5.9805   5.9894   5.9986   6.0045   6.0551   6.1554   6.1843
     6.2074   6.2210   6.2602   6.2725

     occupation numbers 
     1.0000   1.0000   1.0000   1.0000   1.0000   1.0000   1.0000   1.0000
     1.0000   1.0000   1.0000   1.0000   1.0000   1.0000   1.0000   1.0000
     1.0000   1.0000   1.0000   1.0000   1.0000   1.0000   1.0000   1.0000
     1.0000   1.0000   1.0000   1.0000   1.0000   1.0000   1.0000   1.0000
     1.0000   1.0000   1.0000   1.0000   1.0000   1.0000   1.0000   1.0000
     1.0000   1.0000   1.0000   1.0000   1.0000   1.0000   1.0000   1.0000
     1.0000   1.0000   1.0000   1.0000   1.0000   1.0000   1.0000   1.0000
     1.0000   1.0000   1.0000   1.0000   1.0000   1.0000   1.0000   1.0000
     1.0000   1.0000   1.0000   1.0000   1.0000   1.0000   1.0000   1.0000
     1.0000   1.0000   1.0000   1.0000   1.0000   1.0000   1.0000   1.0000
     1.0000   1.0000   1.0000   1.0000   1.0000   1.0000   1.0000   1.0000
     1.0000   1.0000   1.0000   1.0000   1.0000   1.0000   1.0000   1.0000
     1.0000   1.0000   1.0000   1.0000   1.0000   1.0000   1.0000   1.0000
     1.0000   1.0000   1.0000   1.0000   1.0000   1.0000   1.0000   1.0000
     1.0000   1.0000   1.0000   1.0000   1.0000   1.0000   1.0000   1.0000
     1.0000   1.0000   1.0000   1.0000   1.0000   1.0000   1.0000   1.0000
     1.0000   1.0000   1.0000   1.0000   1.0000   1.0000   1.0000   1.0000
     1.0000   1.0000   1.0000   1.0000   1.0000   1.0000   1.0000   1.0000
     1.0000   1.0000   1.0000   1.0000   1.0000   1.0000   1.0000   1.0000
     1.0000   1.0000   1.0000   1.0000   1.0000   1.0000   1.0000   1.0000
     1.0000   1.0000   1.0000   1.0000   1.0000   1.0000   1.0000   1.0000
     1.0000   1.0000   1.0000   1.0000   1.0000   1.0000   1.0000   1.0000
     1.0000   1.0000   1.0000   1.0000   0.0000   0.0000   0.0000   0.0000
     0.0000   0.0000   0.0000   0.0000   0.0000   0.0000   0.0000   0.0000
     0.0000   0.0000   0.0000   0.0000   0.0000   0.0000   0.0000   0.0000
     0.0000   0.0000   0.0000   0.0000   0.0000   0.0000   0.0000   0.0000
     0.0000   0.0000   0.0000   0.0000   0.0000   0.0000   0.0000   0.0000
     0.0000   0.0000   0.0000   0.0000

          k =-0.5000 0.0000 0.5000 (160152 PWs)   bands (ev):

   -71.5576 -71.4301 -71.4301 -71.4270 -59.7424 -59.7413 -59.7361 -59.7361
   -42.9667 -42.9126 -42.9111 -42.8057 -42.8057 -42.8056 -42.8056 -42.8051
   -42.8051 -42.8026 -42.8024 -42.8024 -33.6231 -33.6205 -33.6165 -33.6164
   -33.6163 -33.6141 -33.6141 -33.6108 -33.6108 -33.6101 -33.6101 -33.6024
   -29.1649 -29.1649 -29.1640 -29.1640 -16.2314 -16.2266 -16.2251 -16.2185
   -16.1478 -16.1288 -16.1267 -16.1261 -16.0931 -16.0918 -16.0870 -16.0862
   -16.0774 -16.0695 -16.0665 -16.0657 -16.0624 -16.0558 -16.0530 -16.0530
   -16.0514 -16.0453 -16.0448 -16.0445 -12.6112 -12.6112 -12.6106 -12.6106
   -12.6101 -12.6101 -12.6096 -12.6096 -12.6088 -12.6088 -12.6076 -12.6075
    -6.6169  -6.5195  -6.5187  -6.5173  -5.9321  -5.8798  -5.8780  -5.8432
    -5.1646  -4.9314  -4.9299  -4.9270  -4.9225  -4.9207  -4.9188  -4.9170
    -4.9158  -4.9010  -4.8991  -4.8986  -4.8985  -4.8910  -4.8898  -4.8833
    -3.7311  -3.7137  -3.7096  -3.6363  -3.3578  -3.3136  -3.3125  -3.3088
    -3.2395  -3.2066  -3.1878  -3.1730  -3.1726  -3.1676  -3.1646  -3.1608
    -3.0044  -3.0014  -2.9866  -2.9831  -2.9675  -2.9662  -2.9603  -2.9286
    -2.8978  -2.8650  -2.8610  -2.7849  -2.6904  -2.6788  -2.6716  -2.6681
    -2.6460  -2.6362  -2.6348  -2.4680  -2.3808  -2.3601  -2.3562  -2.3456
    -2.3434  -2.3375  -2.3226  -2.2444  -2.1542  -2.1482  -2.1440  -2.1180
    -1.9571  -1.9460  -1.9409  -1.9267  -1.8181  -1.8173  -1.8071  -1.7917
    -1.7301  -1.7067  -1.6989  -1.6977  -1.6851  -1.6709  -1.6539  -1.5734
    -1.4278  -1.3901  -1.3872  -1.3616  -1.3236  -1.3185  -1.3177  -1.2957
    -0.8718  -0.8307  -0.8244  -0.8156  -0.8066  -0.8059  -0.8027  -0.7964
    -0.7925  -0.7855  -0.7647  -0.7348   4.3389   4.4698   4.5338   4.5363
     4.5400   4.5715   4.5779   4.5799   4.7641   4.7707   4.8290   4.8348
     4.8874   4.9313   4.9404   4.9581   4.9808   5.0184   5.0194   5.0466
     5.6244   5.6322   5.6405   5.6935   5.8373   5.8965   5.9062   5.9123
     5.9534   5.9651   5.9969   6.0066   6.0134   6.0209   6.0445   6.0716
     6.2468   6.2512   6.2645   6.2714

     occupation numbers 
     1.0000   1.0000   1.0000   1.0000   1.0000   1.0000   1.0000   1.0000
     1.0000   1.0000   1.0000   1.0000   1.0000   1.0000   1.0000   1.0000
     1.0000   1.0000   1.0000   1.0000   1.0000   1.0000   1.0000   1.0000
     1.0000   1.0000   1.0000   1.0000   1.0000   1.0000   1.0000   1.0000
     1.0000   1.0000   1.0000   1.0000   1.0000   1.0000   1.0000   1.0000
     1.0000   1.0000   1.0000   1.0000   1.0000   1.0000   1.0000   1.0000
     1.0000   1.0000   1.0000   1.0000   1.0000   1.0000   1.0000   1.0000
     1.0000   1.0000   1.0000   1.0000   1.0000   1.0000   1.0000   1.0000
     1.0000   1.0000   1.0000   1.0000   1.0000   1.0000   1.0000   1.0000
     1.0000   1.0000   1.0000   1.0000   1.0000   1.0000   1.0000   1.0000
     1.0000   1.0000   1.0000   1.0000   1.0000   1.0000   1.0000   1.0000
     1.0000   1.0000   1.0000   1.0000   1.0000   1.0000   1.0000   1.0000
     1.0000   1.0000   1.0000   1.0000   1.0000   1.0000   1.0000   1.0000
     1.0000   1.0000   1.0000   1.0000   1.0000   1.0000   1.0000   1.0000
     1.0000   1.0000   1.0000   1.0000   1.0000   1.0000   1.0000   1.0000
     1.0000   1.0000   1.0000   1.0000   1.0000   1.0000   1.0000   1.0000
     1.0000   1.0000   1.0000   1.0000   1.0000   1.0000   1.0000   1.0000
     1.0000   1.0000   1.0000   1.0000   1.0000   1.0000   1.0000   1.0000
     1.0000   1.0000   1.0000   1.0000   1.0000   1.0000   1.0000   1.0000
     1.0000   1.0000   1.0000   1.0000   1.0000   1.0000   1.0000   1.0000
     1.0000   1.0000   1.0000   1.0000   1.0000   1.0000   1.0000   1.0000
     1.0000   1.0000   1.0000   1.0000   1.0000   1.0000   1.0000   1.0000
     1.0000   1.0000   1.0000   1.0000   0.0000   0.0000   0.0000   0.0000
     0.0000   0.0000   0.0000   0.0000   0.0000   0.0000   0.0000   0.0000
     0.0000   0.0000   0.0000   0.0000   0.0000   0.0000   0.0000   0.0000
     0.0000   0.0000   0.0000   0.0000   0.0000   0.0000   0.0000   0.0000
     0.0000   0.0000   0.0000   0.0000   0.0000   0.0000   0.0000   0.0000
     0.0000   0.0000   0.0000   0.0000

          k = 0.2500 0.2500-0.2500 (160125 PWs)   bands (ev):

   -71.5576 -71.4301 -71.4301 -71.4269 -59.7424 -59.7413 -59.7361 -59.7361
   -42.9667 -42.9126 -42.9111 -42.8057 -42.8057 -42.8056 -42.8056 -42.8051
   -42.8051 -42.8026 -42.8024 -42.8024 -33.6231 -33.6205 -33.6165 -33.6164
   -33.6163 -33.6141 -33.6141 -33.6108 -33.6108 -33.6101 -33.6101 -33.6024
   -29.1649 -29.1648 -29.1640 -29.1640 -16.2538 -16.2186 -16.2180 -16.2114
   -16.1467 -16.1301 -16.1284 -16.1123 -16.0898 -16.0839 -16.0833 -16.0800
   -16.0791 -16.0785 -16.0778 -16.0778 -16.0704 -16.0647 -16.0616 -16.0450
   -16.0437 -16.0428 -16.0403 -16.0402 -12.6115 -12.6114 -12.6106 -12.6106
   -12.6103 -12.6101 -12.6096 -12.6095 -12.6088 -12.6085 -12.6079 -12.6069
    -6.7356  -6.5494  -6.4759  -6.4743  -5.9516  -5.9326  -5.9094  -5.5525
    -5.1740  -4.9620  -4.9530  -4.9187  -4.9174  -4.9168  -4.9157  -4.9151
    -4.9090  -4.9071  -4.9061  -4.8993  -4.8985  -4.8757  -4.8723  -4.8712
    -4.0021  -3.6374  -3.6313  -3.5655  -3.3707  -3.3658  -3.3455  -3.3290
    -3.2927  -3.2810  -3.1807  -3.1664  -3.1652  -3.1279  -3.1010  -3.0853
    -3.0814  -3.0757  -3.0526  -2.9630  -2.9518  -2.9395  -2.9229  -2.8934
    -2.8824  -2.8675  -2.8353  -2.8023  -2.7844  -2.7749  -2.7141  -2.7080
    -2.6585  -2.5776  -2.5375  -2.4397  -2.4001  -2.3798  -2.3788  -2.3552
    -2.3537  -2.2733  -2.2259  -2.2126  -2.1489  -2.1405  -2.1269  -1.9796
    -1.9752  -1.9717  -1.9624  -1.9372  -1.9368  -1.9306  -1.9013  -1.8496
    -1.8282  -1.6817  -1.6810  -1.6741  -1.6159  -1.5148  -1.5092  -1.4922
    -1.4490  -1.4330  -1.3562  -1.3521  -1.3437  -1.3063  -1.2985  -1.2684
    -0.9552  -0.9274  -0.9154  -0.9151  -0.8931  -0.8701  -0.7400  -0.7209
    -0.7174  -0.7097  -0.6948  -0.6769   4.3218   4.4657   4.5339   4.5359
     4.5373   4.5564   4.5566   4.5654   4.6864   4.7145   4.7462   4.7600
     4.7831   4.7898   5.0486   5.1172   5.1316   5.1842   5.2355   5.2597
     5.4914   5.6873   5.7076   5.7096   5.7283   5.8447   5.8496   5.8616
     5.8744   5.8757   5.9157   5.9373   5.9528   6.1183   6.1415   6.1625
     6.3101   6.3341   6.3649   6.4059

     occupation numbers 
     1.0000   1.0000   1.0000   1.0000   1.0000   1.0000   1.0000   1.0000
     1.0000   1.0000   1.0000   1.0000   1.0000   1.0000   1.0000   1.0000
     1.0000   1.0000   1.0000   1.0000   1.0000   1.0000   1.0000   1.0000
     1.0000   1.0000   1.0000   1.0000   1.0000   1.0000   1.0000   1.0000
     1.0000   1.0000   1.0000   1.0000   1.0000   1.0000   1.0000   1.0000
     1.0000   1.0000   1.0000   1.0000   1.0000   1.0000   1.0000   1.0000
     1.0000   1.0000   1.0000   1.0000   1.0000   1.0000   1.0000   1.0000
     1.0000   1.0000   1.0000   1.0000   1.0000   1.0000   1.0000   1.0000
     1.0000   1.0000   1.0000   1.0000   1.0000   1.0000   1.0000   1.0000
     1.0000   1.0000   1.0000   1.0000   1.0000   1.0000   1.0000   1.0000
     1.0000   1.0000   1.0000   1.0000   1.0000   1.0000   1.0000   1.0000
     1.0000   1.0000   1.0000   1.0000   1.0000   1.0000   1.0000   1.0000
     1.0000   1.0000   1.0000   1.0000   1.0000   1.0000   1.0000   1.0000
     1.0000   1.0000   1.0000   1.0000   1.0000   1.0000   1.0000   1.0000
     1.0000   1.0000   1.0000   1.0000   1.0000   1.0000   1.0000   1.0000
     1.0000   1.0000   1.0000   1.0000   1.0000   1.0000   1.0000   1.0000
     1.0000   1.0000   1.0000   1.0000   1.0000   1.0000   1.0000   1.0000
     1.0000   1.0000   1.0000   1.0000   1.0000   1.0000   1.0000   1.0000
     1.0000   1.0000   1.0000   1.0000   1.0000   1.0000   1.0000   1.0000
     1.0000   1.0000   1.0000   1.0000   1.0000   1.0000   1.0000   1.0000
     1.0000   1.0000   1.0000   1.0000   1.0000   1.0000   1.0000   1.0000
     1.0000   1.0000   1.0000   1.0000   1.0000   1.0000   1.0000   1.0000
     1.0000   1.0000   1.0000   1.0000   0.0000   0.0000   0.0000   0.0000
     0.0000   0.0000   0.0000   0.0000   0.0000   0.0000   0.0000   0.0000
     0.0000   0.0000   0.0000   0.0000   0.0000   0.0000   0.0000   0.0000
     0.0000   0.0000   0.0000   0.0000   0.0000   0.0000   0.0000   0.0000
     0.0000   0.0000   0.0000   0.0000   0.0000   0.0000   0.0000   0.0000
     0.0000   0.0000   0.0000   0.0000

          k =-0.5000-0.2500 0.2500 (160270 PWs)   bands (ev):

   -71.5576 -71.4301 -71.4301 -71.4270 -59.7424 -59.7413 -59.7361 -59.7361
   -42.9667 -42.9126 -42.9111 -42.8057 -42.8057 -42.8056 -42.8056 -42.8051
   -42.8051 -42.8026 -42.8024 -42.8024 -33.6231 -33.6205 -33.6165 -33.6164
   -33.6163 -33.6141 -33.6141 -33.6108 -33.6108 -33.6101 -33.6101 -33.6024
   -29.1649 -29.1648 -29.1640 -29.1640 -16.2397 -16.2321 -16.2147 -16.2088
   -16.1545 -16.1387 -16.1263 -16.1239 -16.0849 -16.0835 -16.0834 -16.0788
   -16.0779 -16.0769 -16.0743 -16.0720 -16.0670 -16.0548 -16.0527 -16.0505
   -16.0496 -16.0480 -16.0433 -16.0424 -12.6112 -12.6112 -12.6109 -12.6107
   -12.6105 -12.6103 -12.6093 -12.6092 -12.6092 -12.6086 -12.6077 -12.6069
    -6.6445  -6.5870  -6.4720  -6.4227  -6.0101  -5.9940  -5.8193  -5.7526
    -5.1605  -4.9402  -4.9394  -4.9373  -4.9338  -4.9150  -4.9106  -4.9076
    -4.9039  -4.9038  -4.9005  -4.8961  -4.8933  -4.8922  -4.8917  -4.8813
    -3.8246  -3.7733  -3.6005  -3.5588  -3.3430  -3.3307  -3.3082  -3.3019
    -3.2497  -3.2294  -3.2075  -3.1878  -3.1809  -3.1709  -3.1223  -3.1151
    -3.0897  -3.0819  -2.9869  -2.9514  -2.9095  -2.9037  -2.8993  -2.8953
    -2.8880  -2.8845  -2.8186  -2.7904  -2.7901  -2.7398  -2.7396  -2.6776
    -2.6619  -2.6347  -2.6197  -2.4893  -2.3995  -2.3951  -2.3913  -2.3160
    -2.3103  -2.3002  -2.2924  -2.2658  -2.1633  -2.1494  -2.0359  -2.0077
    -1.9629  -1.9596  -1.9201  -1.9058  -1.9003  -1.8985  -1.8649  -1.8116
    -1.7365  -1.7316  -1.7251  -1.6555  -1.6494  -1.6258  -1.5886  -1.5466
    -1.4253  -1.3887  -1.3855  -1.3725  -1.3343  -1.3236  -1.3154  -1.3121
    -0.9551  -0.9228  -0.8143  -0.8098  -0.8074  -0.8047  -0.8011  -0.7978
    -0.7671  -0.7393  -0.7342  -0.7155   4.3402   4.4679   4.5401   4.5478
     4.5520   4.5545   4.5689   4.5775   4.7298   4.7476   4.7684   4.8075
     4.8813   4.9104   4.9225   4.9749   4.9801   5.0087   5.2212   5.2230
     5.6051   5.6180   5.7122   5.7177   5.8032   5.8120   5.8142   5.8199
     5.8394   5.8471   5.8472   5.8873   5.9153   5.9293   6.1292   6.1729
     6.3456   6.3789   6.3898   6.4183

     occupation numbers 
     1.0000   1.0000   1.0000   1.0000   1.0000   1.0000   1.0000   1.0000
     1.0000   1.0000   1.0000   1.0000   1.0000   1.0000   1.0000   1.0000
     1.0000   1.0000   1.0000   1.0000   1.0000   1.0000   1.0000   1.0000
     1.0000   1.0000   1.0000   1.0000   1.0000   1.0000   1.0000   1.0000
     1.0000   1.0000   1.0000   1.0000   1.0000   1.0000   1.0000   1.0000
     1.0000   1.0000   1.0000   1.0000   1.0000   1.0000   1.0000   1.0000
     1.0000   1.0000   1.0000   1.0000   1.0000   1.0000   1.0000   1.0000
     1.0000   1.0000   1.0000   1.0000   1.0000   1.0000   1.0000   1.0000
     1.0000   1.0000   1.0000   1.0000   1.0000   1.0000   1.0000   1.0000
     1.0000   1.0000   1.0000   1.0000   1.0000   1.0000   1.0000   1.0000
     1.0000   1.0000   1.0000   1.0000   1.0000   1.0000   1.0000   1.0000
     1.0000   1.0000   1.0000   1.0000   1.0000   1.0000   1.0000   1.0000
     1.0000   1.0000   1.0000   1.0000   1.0000   1.0000   1.0000   1.0000
     1.0000   1.0000   1.0000   1.0000   1.0000   1.0000   1.0000   1.0000
     1.0000   1.0000   1.0000   1.0000   1.0000   1.0000   1.0000   1.0000
     1.0000   1.0000   1.0000   1.0000   1.0000   1.0000   1.0000   1.0000
     1.0000   1.0000   1.0000   1.0000   1.0000   1.0000   1.0000   1.0000
     1.0000   1.0000   1.0000   1.0000   1.0000   1.0000   1.0000   1.0000
     1.0000   1.0000   1.0000   1.0000   1.0000   1.0000   1.0000   1.0000
     1.0000   1.0000   1.0000   1.0000   1.0000   1.0000   1.0000   1.0000
     1.0000   1.0000   1.0000   1.0000   1.0000   1.0000   1.0000   1.0000
     1.0000   1.0000   1.0000   1.0000   1.0000   1.0000   1.0000   1.0000
     1.0000   1.0000   1.0000   1.0000   0.0000   0.0000   0.0000   0.0000
     0.0000   0.0000   0.0000   0.0000   0.0000   0.0000   0.0000   0.0000
     0.0000   0.0000   0.0000   0.0000   0.0000   0.0000   0.0000   0.0000
     0.0000   0.0000   0.0000   0.0000   0.0000   0.0000   0.0000   0.0000
     0.0000   0.0000   0.0000   0.0000   0.0000   0.0000   0.0000   0.0000
     0.0000   0.0000   0.0000   0.0000

          k = 0.5000-0.2500-0.2500 (160270 PWs)   bands (ev):

   -71.5576 -71.4301 -71.4301 -71.4270 -59.7424 -59.7413 -59.7361 -59.7361
   -42.9667 -42.9126 -42.9111 -42.8057 -42.8057 -42.8056 -42.8056 -42.8051
   -42.8051 -42.8026 -42.8024 -42.8024 -33.6231 -33.6205 -33.6165 -33.6164
   -33.6163 -33.6141 -33.6141 -33.6108 -33.6108 -33.6101 -33.6101 -33.6024
   -29.1649 -29.1648 -29.1640 -29.1640 -16.2397 -16.2320 -16.2147 -16.2089
   -16.1544 -16.1388 -16.1263 -16.1239 -16.0850 -16.0835 -16.0834 -16.0786
   -16.0779 -16.0769 -16.0743 -16.0719 -16.0670 -16.0548 -16.0527 -16.0505
   -16.0496 -16.0479 -16.0433 -16.0424 -12.6114 -12.6112 -12.6110 -12.6104
   -12.6102 -12.6102 -12.6099 -12.6096 -12.6089 -12.6078 -12.6077 -12.6074
    -6.6446  -6.5869  -6.4718  -6.4228  -6.0101  -5.9942  -5.8193  -5.7525
    -5.1602  -4.9409  -4.9393  -4.9370  -4.9345  -4.9147  -4.9106  -4.9077
    -4.9040  -4.9037  -4.8986  -4.8971  -4.8937  -4.8919  -4.8918  -4.8814
    -3.8235  -3.7777  -3.6002  -3.5470  -3.3519  -3.3292  -3.3178  -3.2962
    -3.2477  -3.2347  -3.1999  -3.1882  -3.1834  -3.1707  -3.1252  -3.1141
    -3.0897  -3.0822  -2.9882  -2.9550  -2.9173  -2.9056  -2.8999  -2.8940
    -2.8830  -2.8694  -2.8140  -2.7936  -2.7919  -2.7418  -2.7410  -2.6802
    -2.6638  -2.6404  -2.6155  -2.4563  -2.3987  -2.3977  -2.3946  -2.3466
    -2.3103  -2.2968  -2.2907  -2.2518  -2.1789  -2.1502  -2.0325  -2.0195
    -1.9645  -1.9600  -1.9220  -1.9056  -1.8965  -1.8846  -1.8588  -1.8092
    -1.7407  -1.7330  -1.7234  -1.6555  -1.6493  -1.6267  -1.5889  -1.5496
    -1.4198  -1.3884  -1.3822  -1.3746  -1.3424  -1.3343  -1.3183  -1.2968
    -0.9547  -0.9224  -0.8138  -0.8118  -0.8056  -0.8052  -0.8010  -0.7974
    -0.7665  -0.7402  -0.7369  -0.7133   4.3400   4.4681   4.5370   4.5512
     4.5516   4.5543   4.5695   4.5780   4.7309   4.7440   4.7753   4.8024
     4.8663   4.9252   4.9339   4.9688   4.9780   5.0068   5.2213   5.2216
     5.6159   5.6353   5.6774   5.7104   5.7781   5.8087   5.8120   5.8311
     5.8423   5.8461   5.8688   5.8690   5.9077   5.9440   6.1696   6.1764
     6.3556   6.3855   6.3900   6.4137

     occupation numbers 
     1.0000   1.0000   1.0000   1.0000   1.0000   1.0000   1.0000   1.0000
     1.0000   1.0000   1.0000   1.0000   1.0000   1.0000   1.0000   1.0000
     1.0000   1.0000   1.0000   1.0000   1.0000   1.0000   1.0000   1.0000
     1.0000   1.0000   1.0000   1.0000   1.0000   1.0000   1.0000   1.0000
     1.0000   1.0000   1.0000   1.0000   1.0000   1.0000   1.0000   1.0000
     1.0000   1.0000   1.0000   1.0000   1.0000   1.0000   1.0000   1.0000
     1.0000   1.0000   1.0000   1.0000   1.0000   1.0000   1.0000   1.0000
     1.0000   1.0000   1.0000   1.0000   1.0000   1.0000   1.0000   1.0000
     1.0000   1.0000   1.0000   1.0000   1.0000   1.0000   1.0000   1.0000
     1.0000   1.0000   1.0000   1.0000   1.0000   1.0000   1.0000   1.0000
     1.0000   1.0000   1.0000   1.0000   1.0000   1.0000   1.0000   1.0000
     1.0000   1.0000   1.0000   1.0000   1.0000   1.0000   1.0000   1.0000
     1.0000   1.0000   1.0000   1.0000   1.0000   1.0000   1.0000   1.0000
     1.0000   1.0000   1.0000   1.0000   1.0000   1.0000   1.0000   1.0000
     1.0000   1.0000   1.0000   1.0000   1.0000   1.0000   1.0000   1.0000
     1.0000   1.0000   1.0000   1.0000   1.0000   1.0000   1.0000   1.0000
     1.0000   1.0000   1.0000   1.0000   1.0000   1.0000   1.0000   1.0000
     1.0000   1.0000   1.0000   1.0000   1.0000   1.0000   1.0000   1.0000
     1.0000   1.0000   1.0000   1.0000   1.0000   1.0000   1.0000   1.0000
     1.0000   1.0000   1.0000   1.0000   1.0000   1.0000   1.0000   1.0000
     1.0000   1.0000   1.0000   1.0000   1.0000   1.0000   1.0000   1.0000
     1.0000   1.0000   1.0000   1.0000   1.0000   1.0000   1.0000   1.0000
     1.0000   1.0000   1.0000   1.0000   0.0000   0.0000   0.0000   0.0000
     0.0000   0.0000   0.0000   0.0000   0.0000   0.0000   0.0000   0.0000
     0.0000   0.0000   0.0000   0.0000   0.0000   0.0000   0.0000   0.0000
     0.0000   0.0000   0.0000   0.0000   0.0000   0.0000   0.0000   0.0000
     0.0000   0.0000   0.0000   0.0000   0.0000   0.0000   0.0000   0.0000
     0.0000   0.0000   0.0000   0.0000

          k =-0.5000 0.2500 0.5000 (160040 PWs)   bands (ev):

   -71.5576 -71.4301 -71.4301 -71.4270 -59.7424 -59.7413 -59.7361 -59.7361
   -42.9667 -42.9126 -42.9111 -42.8057 -42.8057 -42.8056 -42.8056 -42.8051
   -42.8051 -42.8026 -42.8024 -42.8024 -33.6231 -33.6205 -33.6165 -33.6164
   -33.6163 -33.6141 -33.6141 -33.6108 -33.6108 -33.6101 -33.6101 -33.6024
   -29.1649 -29.1649 -29.1640 -29.1640 -16.2267 -16.2237 -16.2220 -16.2154
   -16.1588 -16.1384 -16.1376 -16.1357 -16.0843 -16.0815 -16.0776 -16.0763
   -16.0763 -16.0693 -16.0665 -16.0657 -16.0619 -16.0559 -16.0544 -16.0530
   -16.0529 -16.0483 -16.0481 -16.0479 -12.6113 -12.6112 -12.6110 -12.6106
   -12.6106 -12.6104 -12.6099 -12.6095 -12.6087 -12.6079 -12.6076 -12.6070
    -6.5868  -6.4780  -6.4770  -6.4764  -5.9755  -5.9455  -5.9437  -5.9109
    -5.1769  -4.9265  -4.9250  -4.9246  -4.9218  -4.9194  -4.9171  -4.9166
    -4.9137  -4.9041  -4.9027  -4.9022  -4.9013  -4.8967  -4.8954  -4.8893
    -3.6926  -3.6848  -3.6797  -3.6104  -3.3289  -3.2938  -3.2918  -3.2841
    -3.2327  -3.2111  -3.1761  -3.1658  -3.1643  -3.1625  -3.1601  -3.1580
    -2.9828  -2.9740  -2.9628  -2.9565  -2.9373  -2.9315  -2.9264  -2.9041
    -2.8838  -2.8542  -2.8524  -2.7960  -2.7532  -2.7314  -2.7237  -2.7189
    -2.7156  -2.7094  -2.7079  -2.4909  -2.3865  -2.3681  -2.3666  -2.3635
    -2.3596  -2.3478  -2.3371  -2.2483  -2.0993  -2.0673  -2.0589  -2.0442
    -1.9191  -1.9112  -1.9101  -1.9031  -1.8164  -1.8130  -1.8055  -1.7934
    -1.7456  -1.7187  -1.7145  -1.7123  -1.7095  -1.6999  -1.6949  -1.6052
    -1.4250  -1.3842  -1.3831  -1.3723  -1.3540  -1.3501  -1.3487  -1.3298
    -0.8722  -0.8238  -0.8206  -0.8172  -0.8115  -0.8002  -0.7989  -0.7984
    -0.7939  -0.7777  -0.7640  -0.7355   4.3406   4.4828   4.5504   4.5547
     4.5601   4.5729   4.5783   4.5804   4.7530   4.7577   4.8092   4.8196
     4.8988   4.9313   4.9782   4.9875   4.9982   5.0163   5.0192   5.0317
     5.5961   5.6082   5.6129   5.6484   5.7734   5.7835   5.7942   5.8103
     5.8312   5.8338   5.8361   5.8461   5.9767   5.9872   5.9936   6.0209
     6.3850   6.4307   6.4423   6.4437

     occupation numbers 
     1.0000   1.0000   1.0000   1.0000   1.0000   1.0000   1.0000   1.0000
     1.0000   1.0000   1.0000   1.0000   1.0000   1.0000   1.0000   1.0000
     1.0000   1.0000   1.0000   1.0000   1.0000   1.0000   1.0000   1.0000
     1.0000   1.0000   1.0000   1.0000   1.0000   1.0000   1.0000   1.0000
     1.0000   1.0000   1.0000   1.0000   1.0000   1.0000   1.0000   1.0000
     1.0000   1.0000   1.0000   1.0000   1.0000   1.0000   1.0000   1.0000
     1.0000   1.0000   1.0000   1.0000   1.0000   1.0000   1.0000   1.0000
     1.0000   1.0000   1.0000   1.0000   1.0000   1.0000   1.0000   1.0000
     1.0000   1.0000   1.0000   1.0000   1.0000   1.0000   1.0000   1.0000
     1.0000   1.0000   1.0000   1.0000   1.0000   1.0000   1.0000   1.0000
     1.0000   1.0000   1.0000   1.0000   1.0000   1.0000   1.0000   1.0000
     1.0000   1.0000   1.0000   1.0000   1.0000   1.0000   1.0000   1.0000
     1.0000   1.0000   1.0000   1.0000   1.0000   1.0000   1.0000   1.0000
     1.0000   1.0000   1.0000   1.0000   1.0000   1.0000   1.0000   1.0000
     1.0000   1.0000   1.0000   1.0000   1.0000   1.0000   1.0000   1.0000
     1.0000   1.0000   1.0000   1.0000   1.0000   1.0000   1.0000   1.0000
     1.0000   1.0000   1.0000   1.0000   1.0000   1.0000   1.0000   1.0000
     1.0000   1.0000   1.0000   1.0000   1.0000   1.0000   1.0000   1.0000
     1.0000   1.0000   1.0000   1.0000   1.0000   1.0000   1.0000   1.0000
     1.0000   1.0000   1.0000   1.0000   1.0000   1.0000   1.0000   1.0000
     1.0000   1.0000   1.0000   1.0000   1.0000   1.0000   1.0000   1.0000
     1.0000   1.0000   1.0000   1.0000   1.0000   1.0000   1.0000   1.0000
     1.0000   1.0000   1.0000   1.0000   0.0000   0.0000   0.0000   0.0000
     0.0000   0.0000   0.0000   0.0000   0.0000   0.0000   0.0000   0.0000
     0.0000   0.0000   0.0000   0.0000   0.0000   0.0000   0.0000   0.0000
     0.0000   0.0000   0.0000   0.0000   0.0000   0.0000   0.0000   0.0000
     0.0000   0.0000   0.0000   0.0000   0.0000   0.0000   0.0000   0.0000
     0.0000   0.0000   0.0000   0.0000

 ------ SPIN DOWN ----------


          k = 0.0000 0.0000 0.0000 (160467 PWs)   bands (ev):

   -68.6320 -68.5356 -68.5356 -68.5321 -62.2535 -62.2484 -62.2484 -62.2280
   -40.0050 -39.9502 -39.9465 -39.8732 -39.8732 -39.8729 -39.8729 -39.8728
   -39.8728 -39.8697 -39.8696 -39.8696 -36.1359 -36.1359 -36.1358 -36.1320
   -36.1320 -36.1310 -36.1310 -36.1307 -36.1307 -36.1182 -36.1174 -36.0925
   -29.1652 -29.1652 -29.1643 -29.1642 -16.2451 -16.1827 -16.1758 -16.1718
   -16.1182 -16.0713 -16.0616 -16.0573 -16.0573 -16.0568 -16.0549 -16.0547
   -16.0483 -16.0482 -16.0481 -16.0481 -16.0467 -16.0467 -16.0463 -16.0072
   -15.9964 -15.9932 -15.9896 -15.9896 -12.6122 -12.6121 -12.6120 -12.6104
   -12.6102 -12.6102 -12.6098 -12.6098 -12.6086 -12.6083 -12.6078 -12.6068
    -6.8856  -6.5311  -6.4809  -6.4772  -5.9526  -5.9163  -5.8917  -5.1936
    -5.0371  -5.0367  -5.0098  -4.9611  -4.9609  -4.9607  -4.9602  -4.9577
    -4.9167  -4.8811  -4.8809  -4.8781  -4.8739  -4.8722  -4.8679  -4.8673
    -4.4831  -3.6061  -3.5920  -3.4880  -3.2762  -3.2762  -3.2651  -3.1650
    -3.1645  -3.1640  -3.0895  -3.0888  -3.0782  -2.8918  -2.8833  -2.8686
    -2.8661  -2.8601  -2.8414  -2.8381  -2.7737  -2.7523  -2.6105  -2.6079
    -2.6069  -2.6056  -2.5784  -2.5754  -2.5180  -2.5129  -2.5121  -2.5094
    -2.5069  -2.4193  -2.4141  -2.3704  -2.3695  -2.3529  -2.3526  -2.3500
    -2.3490  -2.2474  -2.0707  -2.0687  -2.0664  -2.0403  -2.0386  -2.0336
    -2.0308  -2.0308  -2.0149  -2.0148  -2.0144  -1.9422  -1.9006  -1.8396
    -1.8396  -1.5278  -1.5252  -1.5144  -1.5112  -1.5092  -1.5091  -1.3967
    -1.3964  -1.3932  -1.3784  -1.3757  -1.3742  -1.1787  -1.1786  -1.1397
     0.8508   0.8539   0.8643   0.8645   0.8646   0.8688   1.3510   1.3536
     1.3799   1.3799   1.3831   1.3844   3.6804   3.6902   3.6931   3.6931
     3.7153   3.7160   3.7322   3.7415   3.7415   3.7433   3.8347   3.8469
     5.1920   5.4713   5.6243   5.6348   5.6439   5.6564   5.6573   5.6600
     5.6716   5.6777   5.6949   5.7138   5.7674   5.7795   5.7873   5.9517
     5.9754   6.0126   6.0193   6.0202   6.0540   6.0786   6.1004   6.1556
     6.1557   6.1630   6.1646   6.2568

     occupation numbers 
     1.0000   1.0000   1.0000   1.0000   1.0000   1.0000   1.0000   1.0000
     1.0000   1.0000   1.0000   1.0000   1.0000   1.0000   1.0000   1.0000
     1.0000   1.0000   1.0000   1.0000   1.0000   1.0000   1.0000   1.0000
     1.0000   1.0000   1.0000   1.0000   1.0000   1.0000   1.0000   1.0000
     1.0000   1.0000   1.0000   1.0000   1.0000   1.0000   1.0000   1.0000
     1.0000   1.0000   1.0000   1.0000   1.0000   1.0000   1.0000   1.0000
     1.0000   1.0000   1.0000   1.0000   1.0000   1.0000   1.0000   1.0000
     1.0000   1.0000   1.0000   1.0000   1.0000   1.0000   1.0000   1.0000
     1.0000   1.0000   1.0000   1.0000   1.0000   1.0000   1.0000   1.0000
     1.0000   1.0000   1.0000   1.0000   1.0000   1.0000   1.0000   1.0000
     1.0000   1.0000   1.0000   1.0000   1.0000   1.0000   1.0000   1.0000
     1.0000   1.0000   1.0000   1.0000   1.0000   1.0000   1.0000   1.0000
     1.0000   1.0000   1.0000   1.0000   1.0000   1.0000   1.0000   1.0000
     1.0000   1.0000   1.0000   1.0000   1.0000   1.0000   1.0000   1.0000
     1.0000   1.0000   1.0000   1.0000   1.0000   1.0000   1.0000   1.0000
     1.0000   1.0000   1.0000   1.0000   1.0000   1.0000   1.0000   1.0000
     1.0000   1.0000   1.0000   1.0000   1.0000   1.0000   1.0000   1.0000
     1.0000   1.0000   1.0000   1.0000   1.0000   1.0000   1.0000   1.0000
     1.0000   1.0000   1.0000   1.0000   1.0000   1.0000   1.0000   1.0000
     1.0000   1.0000   1.0000   1.0000   1.0000   1.0000   1.0000   1.0000
     1.0000   1.0000   1.0000   1.0000   1.0000   1.0000   1.0000   1.0000
     1.0000   1.0000   1.0000   1.0000   1.0000   1.0000   1.0000   1.0000
     1.0000   1.0000   1.0000   1.0000   0.0000   0.0000   0.0000   0.0000
     0.0000   0.0000   0.0000   0.0000   0.0000   0.0000   0.0000   0.0000
     0.0000   0.0000   0.0000   0.0000   0.0000   0.0000   0.0000   0.0000
     0.0000   0.0000   0.0000   0.0000   0.0000   0.0000   0.0000   0.0000
     0.0000   0.0000   0.0000   0.0000   0.0000   0.0000   0.0000   0.0000
     0.0000   0.0000   0.0000   0.0000

          k = 0.0000 0.0000 0.2500 (160107 PWs)   bands (ev):

   -68.6320 -68.5356 -68.5356 -68.5321 -62.2535 -62.2484 -62.2484 -62.2280
   -40.0050 -39.9502 -39.9465 -39.8732 -39.8732 -39.8729 -39.8729 -39.8728
   -39.8728 -39.8697 -39.8696 -39.8696 -36.1359 -36.1359 -36.1358 -36.1320
   -36.1320 -36.1310 -36.1310 -36.1307 -36.1307 -36.1182 -36.1174 -36.0925
   -29.1652 -29.1652 -29.1643 -29.1643 -16.2374 -16.1908 -16.1745 -16.1692
   -16.1238 -16.0815 -16.0793 -16.0622 -16.0573 -16.0548 -16.0530 -16.0483
   -16.0481 -16.0479 -16.0467 -16.0464 -16.0437 -16.0325 -16.0291 -16.0084
   -15.9998 -15.9974 -15.9937 -15.9896 -12.6118 -12.6118 -12.6116 -12.6104
   -12.6104 -12.6101 -12.6099 -12.6096 -12.6089 -12.6082 -12.6082 -12.6071
    -6.8337  -6.5636  -6.4551  -6.4211  -6.0274  -5.9933  -5.8397  -5.3112
    -5.1614  -5.0265  -5.0035  -4.9724  -4.9601  -4.9534  -4.9528  -4.9501
    -4.9140  -4.8933  -4.8826  -4.8787  -4.8703  -4.8677  -4.8640  -4.8626
    -4.2530  -3.6780  -3.5476  -3.4666  -3.2770  -3.2650  -3.2241  -3.1694
    -3.1371  -3.1328  -3.0954  -3.0825  -3.0346  -2.9580  -2.9495  -2.9456
    -2.9256  -2.8400  -2.8208  -2.7485  -2.7145  -2.6999  -2.6425  -2.6127
    -2.6081  -2.5962  -2.5881  -2.5323  -2.5257  -2.5183  -2.5111  -2.5042
    -2.4849  -2.4191  -2.4108  -2.3862  -2.3793  -2.3705  -2.3570  -2.3464
    -2.3460  -2.2409  -2.0935  -2.0774  -2.0741  -2.0603  -2.0560  -2.0230
    -2.0214  -1.9882  -1.9832  -1.9786  -1.9751  -1.9514  -1.9444  -1.9002
    -1.7561  -1.6108  -1.6091  -1.5271  -1.5093  -1.4919  -1.4821  -1.4590
    -1.4414  -1.4018  -1.3989  -1.3240  -1.3184  -1.2803  -1.1969  -1.1613
     0.8525   0.8641   0.9528   0.9696   0.9706   0.9740   1.3085   1.3371
     1.3402   1.3415   1.3524   1.3799   3.6058   3.6144   3.6178   3.6409
     3.6535   3.6624   3.6630   3.6931   3.7158   3.7413   3.7674   3.8413
     5.2894   5.5094   5.5633   5.5961   5.6571   5.6752   5.6896   5.7181
     5.7543   5.7624   5.7686   5.7789   5.8137   5.8341   5.8701   5.9315
     5.9770   6.0071   6.0146   6.0218   6.0363   6.0811   6.1387   6.1594
     6.2188   6.2613   6.2878   6.2894

     occupation numbers 
     1.0000   1.0000   1.0000   1.0000   1.0000   1.0000   1.0000   1.0000
     1.0000   1.0000   1.0000   1.0000   1.0000   1.0000   1.0000   1.0000
     1.0000   1.0000   1.0000   1.0000   1.0000   1.0000   1.0000   1.0000
     1.0000   1.0000   1.0000   1.0000   1.0000   1.0000   1.0000   1.0000
     1.0000   1.0000   1.0000   1.0000   1.0000   1.0000   1.0000   1.0000
     1.0000   1.0000   1.0000   1.0000   1.0000   1.0000   1.0000   1.0000
     1.0000   1.0000   1.0000   1.0000   1.0000   1.0000   1.0000   1.0000
     1.0000   1.0000   1.0000   1.0000   1.0000   1.0000   1.0000   1.0000
     1.0000   1.0000   1.0000   1.0000   1.0000   1.0000   1.0000   1.0000
     1.0000   1.0000   1.0000   1.0000   1.0000   1.0000   1.0000   1.0000
     1.0000   1.0000   1.0000   1.0000   1.0000   1.0000   1.0000   1.0000
     1.0000   1.0000   1.0000   1.0000   1.0000   1.0000   1.0000   1.0000
     1.0000   1.0000   1.0000   1.0000   1.0000   1.0000   1.0000   1.0000
     1.0000   1.0000   1.0000   1.0000   1.0000   1.0000   1.0000   1.0000
     1.0000   1.0000   1.0000   1.0000   1.0000   1.0000   1.0000   1.0000
     1.0000   1.0000   1.0000   1.0000   1.0000   1.0000   1.0000   1.0000
     1.0000   1.0000   1.0000   1.0000   1.0000   1.0000   1.0000   1.0000
     1.0000   1.0000   1.0000   1.0000   1.0000   1.0000   1.0000   1.0000
     1.0000   1.0000   1.0000   1.0000   1.0000   1.0000   1.0000   1.0000
     1.0000   1.0000   1.0000   1.0000   1.0000   1.0000   1.0000   1.0000
     1.0000   1.0000   1.0000   1.0000   1.0000   1.0000   1.0000   1.0000
     1.0000   1.0000   1.0000   1.0000   1.0000   1.0000   1.0000   1.0000
     1.0000   1.0000   1.0000   1.0000   0.0000   0.0000   0.0000   0.0000
     0.0000   0.0000   0.0000   0.0000   0.0000   0.0000   0.0000   0.0000
     0.0000   0.0000   0.0000   0.0000   0.0000   0.0000   0.0000   0.0000
     0.0000   0.0000   0.0000   0.0000   0.0000   0.0000   0.0000   0.0000
     0.0000   0.0000   0.0000   0.0000   0.0000   0.0000   0.0000   0.0000
     0.0000   0.0000   0.0000   0.0000

          k = 0.0000 0.0000-0.5000 (159956 PWs)   bands (ev):

   -68.6320 -68.5356 -68.5356 -68.5321 -62.2535 -62.2484 -62.2484 -62.2280
   -40.0050 -39.9502 -39.9465 -39.8732 -39.8732 -39.8729 -39.8729 -39.8728
   -39.8728 -39.8697 -39.8696 -39.8696 -36.1359 -36.1359 -36.1358 -36.1320
   -36.1320 -36.1310 -36.1310 -36.1307 -36.1307 -36.1182 -36.1174 -36.0925
   -29.1652 -29.1652 -29.1643 -29.1643 -16.2216 -16.2104 -16.1678 -16.1662
   -16.1318 -16.0909 -16.0856 -16.0589 -16.0581 -16.0573 -16.0547 -16.0484
   -16.0481 -16.0477 -16.0468 -16.0466 -16.0305 -16.0161 -16.0139 -16.0099
   -16.0096 -16.0064 -15.9988 -15.9896 -12.6114 -12.6113 -12.6109 -12.6109
   -12.6103 -12.6103 -12.6098 -12.6097 -12.6091 -12.6090 -12.6077 -12.6077
    -6.7155  -6.6865  -6.3804  -6.3275  -6.1304  -6.1194  -5.6299  -5.6187
    -5.1734  -5.0035  -4.9969  -4.9968  -4.9649  -4.9480  -4.9439  -4.9276
    -4.9190  -4.9173  -4.8866  -4.8736  -4.8735  -4.8677  -4.8568  -4.8540
    -3.9437  -3.9025  -3.4857  -3.4204  -3.2779  -3.2621  -3.1895  -3.1817
    -3.1012  -3.0881  -3.0599  -3.0582  -3.0517  -3.0371  -3.0146  -2.9993
    -2.8639  -2.8367  -2.7828  -2.7749  -2.6744  -2.6561  -2.6529  -2.6490
    -2.6406  -2.6279  -2.5603  -2.5422  -2.5362  -2.5195  -2.5115  -2.5038
    -2.4257  -2.3973  -2.3808  -2.3775  -2.3673  -2.3453  -2.3436  -2.2855
    -2.2511  -2.2474  -2.2423  -2.2091  -2.1852  -2.1132  -2.0456  -2.0365
    -1.9985  -1.9798  -1.9682  -1.9622  -1.9159  -1.9037  -1.8678  -1.8599
    -1.7166  -1.7117  -1.5362  -1.5355  -1.5275  -1.5267  -1.5093  -1.5064
    -1.4488  -1.4410  -1.4369  -1.4294  -1.2597  -1.2525  -1.2431  -1.1997
     0.8528   0.8639   1.1443   1.1721   1.1810   1.1811   1.1850   1.1883
     1.1907   1.1956   1.3523   1.3799   3.5485   3.5617   3.5656   3.5663
     3.5670   3.5691   3.5731   3.6931   3.6980   3.7161   3.7411   3.8410
     5.4681   5.5255   5.5309   5.5796   5.6600   5.6814   5.7188   5.7395
     5.7412   5.7690   5.8438   5.8853   5.9081   5.9356   5.9436   5.9438
     5.9467   5.9719   5.9734   5.9802   5.9992   6.0419   6.1126   6.1618
     6.2852   6.2871   6.2939   6.3674

     occupation numbers 
     1.0000   1.0000   1.0000   1.0000   1.0000   1.0000   1.0000   1.0000
     1.0000   1.0000   1.0000   1.0000   1.0000   1.0000   1.0000   1.0000
     1.0000   1.0000   1.0000   1.0000   1.0000   1.0000   1.0000   1.0000
     1.0000   1.0000   1.0000   1.0000   1.0000   1.0000   1.0000   1.0000
     1.0000   1.0000   1.0000   1.0000   1.0000   1.0000   1.0000   1.0000
     1.0000   1.0000   1.0000   1.0000   1.0000   1.0000   1.0000   1.0000
     1.0000   1.0000   1.0000   1.0000   1.0000   1.0000   1.0000   1.0000
     1.0000   1.0000   1.0000   1.0000   1.0000   1.0000   1.0000   1.0000
     1.0000   1.0000   1.0000   1.0000   1.0000   1.0000   1.0000   1.0000
     1.0000   1.0000   1.0000   1.0000   1.0000   1.0000   1.0000   1.0000
     1.0000   1.0000   1.0000   1.0000   1.0000   1.0000   1.0000   1.0000
     1.0000   1.0000   1.0000   1.0000   1.0000   1.0000   1.0000   1.0000
     1.0000   1.0000   1.0000   1.0000   1.0000   1.0000   1.0000   1.0000
     1.0000   1.0000   1.0000   1.0000   1.0000   1.0000   1.0000   1.0000
     1.0000   1.0000   1.0000   1.0000   1.0000   1.0000   1.0000   1.0000
     1.0000   1.0000   1.0000   1.0000   1.0000   1.0000   1.0000   1.0000
     1.0000   1.0000   1.0000   1.0000   1.0000   1.0000   1.0000   1.0000
     1.0000   1.0000   1.0000   1.0000   1.0000   1.0000   1.0000   1.0000
     1.0000   1.0000   1.0000   1.0000   1.0000   1.0000   1.0000   1.0000
     1.0000   1.0000   1.0000   1.0000   1.0000   1.0000   1.0000   1.0000
     1.0000   1.0000   1.0000   1.0000   1.0000   1.0000   1.0000   1.0000
     1.0000   1.0000   1.0000   1.0000   1.0000   1.0000   1.0000   1.0000
     1.0000   1.0000   1.0000   1.0000   0.0000   0.0000   0.0000   0.0000
     0.0000   0.0000   0.0000   0.0000   0.0000   0.0000   0.0000   0.0000
     0.0000   0.0000   0.0000   0.0000   0.0000   0.0000   0.0000   0.0000
     0.0000   0.0000   0.0000   0.0000   0.0000   0.0000   0.0000   0.0000
     0.0000   0.0000   0.0000   0.0000   0.0000   0.0000   0.0000   0.0000
     0.0000   0.0000   0.0000   0.0000

          k = 0.0000 0.2500 0.2500 (160136 PWs)   bands (ev):

   -68.6320 -68.5356 -68.5356 -68.5321 -62.2535 -62.2484 -62.2484 -62.2280
   -40.0050 -39.9502 -39.9465 -39.8732 -39.8732 -39.8729 -39.8729 -39.8728
   -39.8728 -39.8697 -39.8696 -39.8696 -36.1359 -36.1359 -36.1358 -36.1320
   -36.1320 -36.1310 -36.1310 -36.1307 -36.1307 -36.1182 -36.1174 -36.0925
   -29.1652 -29.1652 -29.1643 -29.1643 -16.2300 -16.1868 -16.1833 -16.1690
   -16.1282 -16.0887 -16.0824 -16.0773 -16.0635 -16.0480 -16.0480 -16.0473
   -16.0466 -16.0440 -16.0428 -16.0376 -16.0352 -16.0298 -16.0257 -16.0086
   -16.0037 -16.0011 -15.9947 -15.9930 -12.6119 -12.6116 -12.6110 -12.6103
   -12.6102 -12.6102 -12.6100 -12.6099 -12.6092 -12.6082 -12.6079 -12.6076
    -6.7811  -6.5247  -6.4848  -6.3831  -6.0895  -5.9400  -5.9332  -5.4669
    -5.1711  -5.0205  -4.9963  -4.9719  -4.9706  -4.9677  -4.9587  -4.9285
    -4.9188  -4.8883  -4.8837  -4.8761  -4.8620  -4.8611  -4.8572  -4.8552
    -4.1044  -3.6356  -3.5941  -3.4656  -3.2690  -3.2322  -3.2275  -3.1697
    -3.1218  -3.1163  -3.1046  -3.0826  -3.0525  -2.9569  -2.9351  -2.9001
    -2.8932  -2.8835  -2.8734  -2.6935  -2.6864  -2.6706  -2.6701  -2.6614
    -2.5852  -2.5675  -2.5608  -2.5491  -2.5317  -2.5305  -2.5045  -2.4776
    -2.4752  -2.4101  -2.4076  -2.3859  -2.3842  -2.3770  -2.3759  -2.3531
    -2.3485  -2.2400  -2.1741  -2.1594  -2.0947  -2.0807  -2.0220  -2.0130
    -1.9878  -1.9729  -1.9717  -1.9596  -1.9415  -1.9296  -1.9054  -1.8243
    -1.7923  -1.6588  -1.6054  -1.6031  -1.5557  -1.4892  -1.4711  -1.4657
    -1.4601  -1.4402  -1.3505  -1.3367  -1.3239  -1.2905  -1.2834  -1.1830
     0.9508   0.9546   0.9682   0.9711   1.0559   1.0587   1.3064   1.3107
     1.3205   1.3218   1.3362   1.3380   3.5290   3.5367   3.5712   3.5793
     3.6027   3.6252   3.6260   3.6520   3.6572   3.6744   3.7658   3.7775
     5.3801   5.5367   5.6005   5.6554   5.6839   5.6943   5.6947   5.7271
     5.7431   5.8049   5.8324   5.8651   5.8803   5.8864   5.9431   5.9468
     5.9843   6.0135   6.0291   6.0391   6.0639   6.1462   6.1560   6.2244
     6.2651   6.2659   6.2949   6.3106

     occupation numbers 
     1.0000   1.0000   1.0000   1.0000   1.0000   1.0000   1.0000   1.0000
     1.0000   1.0000   1.0000   1.0000   1.0000   1.0000   1.0000   1.0000
     1.0000   1.0000   1.0000   1.0000   1.0000   1.0000   1.0000   1.0000
     1.0000   1.0000   1.0000   1.0000   1.0000   1.0000   1.0000   1.0000
     1.0000   1.0000   1.0000   1.0000   1.0000   1.0000   1.0000   1.0000
     1.0000   1.0000   1.0000   1.0000   1.0000   1.0000   1.0000   1.0000
     1.0000   1.0000   1.0000   1.0000   1.0000   1.0000   1.0000   1.0000
     1.0000   1.0000   1.0000   1.0000   1.0000   1.0000   1.0000   1.0000
     1.0000   1.0000   1.0000   1.0000   1.0000   1.0000   1.0000   1.0000
     1.0000   1.0000   1.0000   1.0000   1.0000   1.0000   1.0000   1.0000
     1.0000   1.0000   1.0000   1.0000   1.0000   1.0000   1.0000   1.0000
     1.0000   1.0000   1.0000   1.0000   1.0000   1.0000   1.0000   1.0000
     1.0000   1.0000   1.0000   1.0000   1.0000   1.0000   1.0000   1.0000
     1.0000   1.0000   1.0000   1.0000   1.0000   1.0000   1.0000   1.0000
     1.0000   1.0000   1.0000   1.0000   1.0000   1.0000   1.0000   1.0000
     1.0000   1.0000   1.0000   1.0000   1.0000   1.0000   1.0000   1.0000
     1.0000   1.0000   1.0000   1.0000   1.0000   1.0000   1.0000   1.0000
     1.0000   1.0000   1.0000   1.0000   1.0000   1.0000   1.0000   1.0000
     1.0000   1.0000   1.0000   1.0000   1.0000   1.0000   1.0000   1.0000
     1.0000   1.0000   1.0000   1.0000   1.0000   1.0000   1.0000   1.0000
     1.0000   1.0000   1.0000   1.0000   1.0000   1.0000   1.0000   1.0000
     1.0000   1.0000   1.0000   1.0000   1.0000   1.0000   1.0000   1.0000
     1.0000   1.0000   1.0000   1.0000   0.0000   0.0000   0.0000   0.0000
     0.0000   0.0000   0.0000   0.0000   0.0000   0.0000   0.0000   0.0000
     0.0000   0.0000   0.0000   0.0000   0.0000   0.0000   0.0000   0.0000
     0.0000   0.0000   0.0000   0.0000   0.0000   0.0000   0.0000   0.0000
     0.0000   0.0000   0.0000   0.0000   0.0000   0.0000   0.0000   0.0000
     0.0000   0.0000   0.0000   0.0000

          k = 0.0000 0.2500-0.5000 (160210 PWs)   bands (ev):

   -68.6320 -68.5356 -68.5356 -68.5321 -62.2536 -62.2484 -62.2484 -62.2281
   -40.0050 -39.9502 -39.9465 -39.8732 -39.8732 -39.8729 -39.8729 -39.8728
   -39.8728 -39.8697 -39.8696 -39.8696 -36.1359 -36.1359 -36.1358 -36.1320
   -36.1320 -36.1310 -36.1310 -36.1307 -36.1307 -36.1182 -36.1174 -36.0925
   -29.1652 -29.1652 -29.1643 -29.1643 -16.2146 -16.2041 -16.1740 -16.1730
   -16.1326 -16.0951 -16.0886 -16.0743 -16.0739 -16.0480 -16.0478 -16.0467
   -16.0457 -16.0388 -16.0372 -16.0339 -16.0302 -16.0162 -16.0156 -16.0124
   -16.0110 -16.0066 -16.0013 -15.9937 -12.6114 -12.6114 -12.6109 -12.6108
   -12.6103 -12.6101 -12.6099 -12.6098 -12.6093 -12.6086 -12.6081 -12.6075
    -6.6632  -6.6303  -6.4005  -6.3513  -6.1151  -6.1035  -5.7446  -5.7362
    -5.1746  -5.0016  -4.9963  -4.9862  -4.9730  -4.9689  -4.9594  -4.9316
    -4.9097  -4.8988  -4.8839  -4.8734  -4.8571  -4.8538  -4.8501  -4.8473
    -3.8544  -3.8161  -3.5288  -3.4651  -3.2603  -3.2369  -3.1878  -3.1771
    -3.1353  -3.1115  -3.0781  -3.0734  -3.0227  -3.0175  -2.9313  -2.9291
    -2.8296  -2.8251  -2.8163  -2.8087  -2.7267  -2.7043  -2.6158  -2.6027
    -2.5975  -2.5895  -2.5822  -2.5796  -2.5214  -2.5121  -2.4664  -2.4534
    -2.4253  -2.4075  -2.3926  -2.3868  -2.3781  -2.3562  -2.3428  -2.3309
    -2.3185  -2.2823  -2.2403  -2.2312  -2.2150  -2.1351  -2.0567  -2.0329
    -1.9737  -1.9705  -1.9013  -1.8927  -1.8883  -1.8870  -1.8403  -1.8341
    -1.7078  -1.7055  -1.5968  -1.5907  -1.5844  -1.5781  -1.5622  -1.5509
    -1.4265  -1.4242  -1.3848  -1.3800  -1.3168  -1.3113  -1.2723  -1.2229
     0.9527   0.9693   1.1445   1.1727   1.1822   1.1862   1.2167   1.2220
     1.2224   1.2294   1.3090   1.3371   3.4657   3.4788   3.4810   3.4851
     3.5562   3.5639   3.5662   3.6182   3.6482   3.6614   3.7112   3.7731
     5.5143   5.5885   5.6151   5.6442   5.6863   5.7024   5.7450   5.7614
     5.7977   5.8139   5.8732   5.8937   5.9337   5.9421   5.9637   5.9694
     6.0007   6.0215   6.0323   6.0412   6.0545   6.0829   6.1956   6.2427
     6.2778   6.2912   6.2970   6.3163

     occupation numbers 
     1.0000   1.0000   1.0000   1.0000   1.0000   1.0000   1.0000   1.0000
     1.0000   1.0000   1.0000   1.0000   1.0000   1.0000   1.0000   1.0000
     1.0000   1.0000   1.0000   1.0000   1.0000   1.0000   1.0000   1.0000
     1.0000   1.0000   1.0000   1.0000   1.0000   1.0000   1.0000   1.0000
     1.0000   1.0000   1.0000   1.0000   1.0000   1.0000   1.0000   1.0000
     1.0000   1.0000   1.0000   1.0000   1.0000   1.0000   1.0000   1.0000
     1.0000   1.0000   1.0000   1.0000   1.0000   1.0000   1.0000   1.0000
     1.0000   1.0000   1.0000   1.0000   1.0000   1.0000   1.0000   1.0000
     1.0000   1.0000   1.0000   1.0000   1.0000   1.0000   1.0000   1.0000
     1.0000   1.0000   1.0000   1.0000   1.0000   1.0000   1.0000   1.0000
     1.0000   1.0000   1.0000   1.0000   1.0000   1.0000   1.0000   1.0000
     1.0000   1.0000   1.0000   1.0000   1.0000   1.0000   1.0000   1.0000
     1.0000   1.0000   1.0000   1.0000   1.0000   1.0000   1.0000   1.0000
     1.0000   1.0000   1.0000   1.0000   1.0000   1.0000   1.0000   1.0000
     1.0000   1.0000   1.0000   1.0000   1.0000   1.0000   1.0000   1.0000
     1.0000   1.0000   1.0000   1.0000   1.0000   1.0000   1.0000   1.0000
     1.0000   1.0000   1.0000   1.0000   1.0000   1.0000   1.0000   1.0000
     1.0000   1.0000   1.0000   1.0000   1.0000   1.0000   1.0000   1.0000
     1.0000   1.0000   1.0000   1.0000   1.0000   1.0000   1.0000   1.0000
     1.0000   1.0000   1.0000   1.0000   1.0000   1.0000   1.0000   1.0000
     1.0000   1.0000   1.0000   1.0000   1.0000   1.0000   1.0000   1.0000
     1.0000   1.0000   1.0000   1.0000   1.0000   1.0000   1.0000   1.0000
     1.0000   1.0000   1.0000   1.0000   0.0000   0.0000   0.0000   0.0000
     0.0000   0.0000   0.0000   0.0000   0.0000   0.0000   0.0000   0.0000
     0.0000   0.0000   0.0000   0.0000   0.0000   0.0000   0.0000   0.0000
     0.0000   0.0000   0.0000   0.0000   0.0000   0.0000   0.0000   0.0000
     0.0000   0.0000   0.0000   0.0000   0.0000   0.0000   0.0000   0.0000
     0.0000   0.0000   0.0000   0.0000

          k = 0.0000-0.5000-0.5000 (160152 PWs)   bands (ev):

   -68.6320 -68.5356 -68.5356 -68.5321 -62.2536 -62.2484 -62.2484 -62.2281
   -40.0050 -39.9502 -39.9465 -39.8732 -39.8732 -39.8729 -39.8729 -39.8728
   -39.8728 -39.8697 -39.8696 -39.8696 -36.1359 -36.1359 -36.1358 -36.1320
   -36.1320 -36.1310 -36.1310 -36.1307 -36.1307 -36.1182 -36.1174 -36.0925
   -29.1652 -29.1652 -29.1643 -29.1643 -16.2004 -16.1900 -16.1900 -16.1866
   -16.1310 -16.0924 -16.0923 -16.0880 -16.0811 -16.0478 -16.0478 -16.0469
   -16.0334 -16.0303 -16.0274 -16.0274 -16.0232 -16.0204 -16.0179 -16.0179
   -16.0136 -16.0036 -16.0036 -16.0020 -12.6115 -12.6112 -12.6111 -12.6104
   -12.6104 -12.6102 -12.6102 -12.6096 -12.6092 -12.6085 -12.6084 -12.6074
    -6.5607  -6.4889  -6.4889  -6.4867  -5.9623  -5.9622  -5.9609  -5.9585
    -5.1754  -4.9942  -4.9898  -4.9896  -4.9859  -4.9600  -4.9598  -4.9592
    -4.9067  -4.8835  -4.8831  -4.8816  -4.8431  -4.8430  -4.8421  -4.8392
    -3.6751  -3.6733  -3.6729  -3.5788  -3.2122  -3.2068  -3.1999  -3.1733
    -3.1222  -3.1201  -3.1160  -3.0817  -2.9530  -2.9520  -2.9498  -2.9484
    -2.8050  -2.8025  -2.7894  -2.7875  -2.7219  -2.7046  -2.7042  -2.7023
    -2.5357  -2.5224  -2.5195  -2.5180  -2.5045  -2.5008  -2.4960  -2.4905
    -2.4466  -2.4304  -2.4105  -2.3951  -2.3684  -2.3671  -2.3575  -2.3250
    -2.2578  -2.2575  -2.2540  -2.2488  -2.2287  -2.2216  -2.2169  -2.0700
    -1.9144  -1.9109  -1.9106  -1.9078  -1.7413  -1.7411  -1.7399  -1.7376
    -1.6910  -1.6782  -1.6778  -1.6760  -1.6672  -1.6645  -1.6605  -1.6558
    -1.4065  -1.4052  -1.3947  -1.3911  -1.3255  -1.3239  -1.3108  -1.2609
     1.1410   1.1469   1.1592   1.1810   1.1829   1.1830   1.1868   1.1918
     1.2526   1.2580   1.2580   1.2653   3.3857   3.3988   3.3989   3.4040
     3.5286   3.5432   3.5576   3.5586   3.6020   3.6071   3.7045   3.7164
     5.5538   5.6766   5.6923   5.6994   5.7132   5.7579   5.7606   5.7881
     5.7955   5.8639   5.8724   5.8973   5.9743   5.9870   5.9945   5.9982
     6.0199   6.0566   6.0596   6.0629   6.1324   6.1478   6.1843   6.2058
     6.3352   6.3400   6.3458   6.3495

     occupation numbers 
     1.0000   1.0000   1.0000   1.0000   1.0000   1.0000   1.0000   1.0000
     1.0000   1.0000   1.0000   1.0000   1.0000   1.0000   1.0000   1.0000
     1.0000   1.0000   1.0000   1.0000   1.0000   1.0000   1.0000   1.0000
     1.0000   1.0000   1.0000   1.0000   1.0000   1.0000   1.0000   1.0000
     1.0000   1.0000   1.0000   1.0000   1.0000   1.0000   1.0000   1.0000
     1.0000   1.0000   1.0000   1.0000   1.0000   1.0000   1.0000   1.0000
     1.0000   1.0000   1.0000   1.0000   1.0000   1.0000   1.0000   1.0000
     1.0000   1.0000   1.0000   1.0000   1.0000   1.0000   1.0000   1.0000
     1.0000   1.0000   1.0000   1.0000   1.0000   1.0000   1.0000   1.0000
     1.0000   1.0000   1.0000   1.0000   1.0000   1.0000   1.0000   1.0000
     1.0000   1.0000   1.0000   1.0000   1.0000   1.0000   1.0000   1.0000
     1.0000   1.0000   1.0000   1.0000   1.0000   1.0000   1.0000   1.0000
     1.0000   1.0000   1.0000   1.0000   1.0000   1.0000   1.0000   1.0000
     1.0000   1.0000   1.0000   1.0000   1.0000   1.0000   1.0000   1.0000
     1.0000   1.0000   1.0000   1.0000   1.0000   1.0000   1.0000   1.0000
     1.0000   1.0000   1.0000   1.0000   1.0000   1.0000   1.0000   1.0000
     1.0000   1.0000   1.0000   1.0000   1.0000   1.0000   1.0000   1.0000
     1.0000   1.0000   1.0000   1.0000   1.0000   1.0000   1.0000   1.0000
     1.0000   1.0000   1.0000   1.0000   1.0000   1.0000   1.0000   1.0000
     1.0000   1.0000   1.0000   1.0000   1.0000   1.0000   1.0000   1.0000
     1.0000   1.0000   1.0000   1.0000   1.0000   1.0000   1.0000   1.0000
     1.0000   1.0000   1.0000   1.0000   1.0000   1.0000   1.0000   1.0000
     1.0000   1.0000   1.0000   1.0000   0.0000   0.0000   0.0000   0.0000
     0.0000   0.0000   0.0000   0.0000   0.0000   0.0000   0.0000   0.0000
     0.0000   0.0000   0.0000   0.0000   0.0000   0.0000   0.0000   0.0000
     0.0000   0.0000   0.0000   0.0000   0.0000   0.0000   0.0000   0.0000
     0.0000   0.0000   0.0000   0.0000   0.0000   0.0000   0.0000   0.0000
     0.0000   0.0000   0.0000   0.0000

          k = 0.2500 0.2500 0.2500 (160125 PWs)   bands (ev):

   -68.6320 -68.5356 -68.5356 -68.5321 -62.2536 -62.2484 -62.2484 -62.2281
   -40.0050 -39.9502 -39.9465 -39.8732 -39.8732 -39.8729 -39.8729 -39.8728
   -39.8728 -39.8697 -39.8696 -39.8696 -36.1359 -36.1359 -36.1358 -36.1320
   -36.1320 -36.1310 -36.1310 -36.1307 -36.1307 -36.1182 -36.1174 -36.0925
   -29.1652 -29.1652 -29.1643 -29.1643 -16.2229 -16.1834 -16.1803 -16.1773
   -16.1361 -16.0934 -16.0922 -16.0781 -16.0646 -16.0475 -16.0448 -16.0444
   -16.0392 -16.0391 -16.0386 -16.0376 -16.0341 -16.0251 -16.0235 -16.0120
   -16.0044 -16.0012 -15.9977 -15.9977 -12.6117 -12.6117 -12.6107 -12.6105
   -12.6103 -12.6102 -12.6101 -12.6101 -12.6091 -12.6081 -12.6080 -12.6075
    -6.7276  -6.4856  -6.4277  -6.4233  -6.0539  -6.0269  -6.0030  -5.6042
    -5.1363  -5.0127  -4.9986  -4.9761  -4.9736  -4.9677  -4.9575  -4.9555
    -4.9179  -4.8749  -4.8739  -4.8672  -4.8602  -4.8571  -4.8547  -4.8547
    -3.9918  -3.5956  -3.5870  -3.5040  -3.2679  -3.2608  -3.2520  -3.1929
    -3.0858  -3.0820  -3.0755  -3.0740  -3.0392  -2.9426  -2.9312  -2.9294
    -2.8773  -2.8668  -2.8587  -2.6889  -2.6630  -2.6362  -2.6335  -2.6290
    -2.6280  -2.6137  -2.5971  -2.5448  -2.5358  -2.5350  -2.4589  -2.4495
    -2.4379  -2.4214  -2.4111  -2.3917  -2.3871  -2.3698  -2.3663  -2.3662
    -2.3637  -2.2753  -2.1898  -2.1839  -2.1488  -2.1392  -2.1014  -1.9960
    -1.9573  -1.9297  -1.9248  -1.9223  -1.8957  -1.8952  -1.8579  -1.8163
    -1.8103  -1.6537  -1.6512  -1.6467  -1.5864  -1.5075  -1.5049  -1.4841
    -1.4419  -1.4310  -1.3564  -1.3489  -1.3474  -1.2986  -1.2926  -1.2660
     1.0318   1.0340   1.0524   1.0554   1.0575   1.0583   1.2878   1.2918
     1.3167   1.3176   1.3207   1.3219   3.5019   3.5169   3.5227   3.5431
     3.5629   3.5679   3.5774   3.5917   3.5941   3.5946   3.6888   3.6991
     5.4435   5.5832   5.6538   5.6970   5.7261   5.7487   5.7516   5.7685
     5.7717   5.8286   5.8705   5.8851   5.9041   5.9471   5.9856   5.9928
     6.0062   6.0277   6.0859   6.0860   6.1106   6.1419   6.1862   6.2162
     6.3230   6.3319   6.3370   6.3488

     occupation numbers 
     1.0000   1.0000   1.0000   1.0000   1.0000   1.0000   1.0000   1.0000
     1.0000   1.0000   1.0000   1.0000   1.0000   1.0000   1.0000   1.0000
     1.0000   1.0000   1.0000   1.0000   1.0000   1.0000   1.0000   1.0000
     1.0000   1.0000   1.0000   1.0000   1.0000   1.0000   1.0000   1.0000
     1.0000   1.0000   1.0000   1.0000   1.0000   1.0000   1.0000   1.0000
     1.0000   1.0000   1.0000   1.0000   1.0000   1.0000   1.0000   1.0000
     1.0000   1.0000   1.0000   1.0000   1.0000   1.0000   1.0000   1.0000
     1.0000   1.0000   1.0000   1.0000   1.0000   1.0000   1.0000   1.0000
     1.0000   1.0000   1.0000   1.0000   1.0000   1.0000   1.0000   1.0000
     1.0000   1.0000   1.0000   1.0000   1.0000   1.0000   1.0000   1.0000
     1.0000   1.0000   1.0000   1.0000   1.0000   1.0000   1.0000   1.0000
     1.0000   1.0000   1.0000   1.0000   1.0000   1.0000   1.0000   1.0000
     1.0000   1.0000   1.0000   1.0000   1.0000   1.0000   1.0000   1.0000
     1.0000   1.0000   1.0000   1.0000   1.0000   1.0000   1.0000   1.0000
     1.0000   1.0000   1.0000   1.0000   1.0000   1.0000   1.0000   1.0000
     1.0000   1.0000   1.0000   1.0000   1.0000   1.0000   1.0000   1.0000
     1.0000   1.0000   1.0000   1.0000   1.0000   1.0000   1.0000   1.0000
     1.0000   1.0000   1.0000   1.0000   1.0000   1.0000   1.0000   1.0000
     1.0000   1.0000   1.0000   1.0000   1.0000   1.0000   1.0000   1.0000
     1.0000   1.0000   1.0000   1.0000   1.0000   1.0000   1.0000   1.0000
     1.0000   1.0000   1.0000   1.0000   1.0000   1.0000   1.0000   1.0000
     1.0000   1.0000   1.0000   1.0000   1.0000   1.0000   1.0000   1.0000
     1.0000   1.0000   1.0000   1.0000   0.0000   0.0000   0.0000   0.0000
     0.0000   0.0000   0.0000   0.0000   0.0000   0.0000   0.0000   0.0000
     0.0000   0.0000   0.0000   0.0000   0.0000   0.0000   0.0000   0.0000
     0.0000   0.0000   0.0000   0.0000   0.0000   0.0000   0.0000   0.0000
     0.0000   0.0000   0.0000   0.0000   0.0000   0.0000   0.0000   0.0000
     0.0000   0.0000   0.0000   0.0000

          k = 0.2500 0.2500-0.5000 (160270 PWs)   bands (ev):

   -68.6320 -68.5356 -68.5356 -68.5321 -62.2536 -62.2484 -62.2484 -62.2281
   -40.0050 -39.9502 -39.9465 -39.8732 -39.8732 -39.8729 -39.8729 -39.8728
   -39.8728 -39.8697 -39.8696 -39.8696 -36.1359 -36.1359 -36.1358 -36.1320
   -36.1320 -36.1310 -36.1310 -36.1307 -36.1307 -36.1182 -36.1174 -36.0925
   -29.1652 -29.1652 -29.1643 -29.1643 -16.2080 -16.1985 -16.1752 -16.1751
   -16.1430 -16.1014 -16.0946 -16.0858 -16.0671 -16.0459 -16.0423 -16.0389
   -16.0374 -16.0367 -16.0344 -16.0321 -16.0317 -16.0166 -16.0155 -16.0127
   -16.0107 -16.0087 -16.0050 -15.9977 -12.6114 -12.6114 -12.6112 -12.6108
   -12.6105 -12.6103 -12.6101 -12.6095 -12.6093 -12.6083 -12.6080 -12.6073
    -6.6104  -6.5734  -6.3806  -6.3280  -6.1519  -6.1390  -5.8499  -5.8404
    -5.1451  -4.9958  -4.9908  -4.9897  -4.9782  -4.9748  -4.9700  -4.9541
    -4.9161  -4.8727  -4.8679  -4.8573  -4.8557  -4.8554  -4.8485  -4.8467
    -3.7773  -3.7476  -3.5292  -3.4763  -3.3057  -3.2856  -3.2282  -3.2159
    -3.0720  -3.0598  -3.0408  -3.0348  -3.0170  -3.0010  -2.9414  -2.9292
    -2.8120  -2.8059  -2.7903  -2.7835  -2.7163  -2.7001  -2.6453  -2.6289
    -2.5871  -2.5826  -2.5664  -2.5630  -2.5136  -2.5069  -2.4566  -2.4356
    -2.4195  -2.4169  -2.4047  -2.4009  -2.3943  -2.3673  -2.3551  -2.3386
    -2.3330  -2.2816  -2.2756  -2.2546  -2.2207  -2.1576  -2.0897  -2.0721
    -1.9332  -1.9287  -1.8770  -1.8724  -1.8624  -1.8397  -1.8147  -1.8056
    -1.7057  -1.7023  -1.6303  -1.6267  -1.6218  -1.6157  -1.5798  -1.5591
    -1.4181  -1.4113  -1.3895  -1.3875  -1.3369  -1.3248  -1.3190  -1.2948
     1.0329   1.0542   1.1745   1.2065   1.2158   1.2161   1.2199   1.2226
     1.2240   1.2297   1.2904   1.3174   3.4401   3.4541   3.4554   3.4657
     3.4969   3.5033   3.5083   3.5536   3.5743   3.5857   3.6288   3.6964
     5.5456   5.6666   5.6917   5.7249   5.7337   5.7597   5.7872   5.8034
     5.8314   5.8423   5.8881   5.9076   5.9702   5.9834   6.0020   6.0242
     6.0348   6.0479   6.0521   6.0879   6.1063   6.1231   6.1992   6.2458
     6.3106   6.3204   6.3598   6.3767

     occupation numbers 
     1.0000   1.0000   1.0000   1.0000   1.0000   1.0000   1.0000   1.0000
     1.0000   1.0000   1.0000   1.0000   1.0000   1.0000   1.0000   1.0000
     1.0000   1.0000   1.0000   1.0000   1.0000   1.0000   1.0000   1.0000
     1.0000   1.0000   1.0000   1.0000   1.0000   1.0000   1.0000   1.0000
     1.0000   1.0000   1.0000   1.0000   1.0000   1.0000   1.0000   1.0000
     1.0000   1.0000   1.0000   1.0000   1.0000   1.0000   1.0000   1.0000
     1.0000   1.0000   1.0000   1.0000   1.0000   1.0000   1.0000   1.0000
     1.0000   1.0000   1.0000   1.0000   1.0000   1.0000   1.0000   1.0000
     1.0000   1.0000   1.0000   1.0000   1.0000   1.0000   1.0000   1.0000
     1.0000   1.0000   1.0000   1.0000   1.0000   1.0000   1.0000   1.0000
     1.0000   1.0000   1.0000   1.0000   1.0000   1.0000   1.0000   1.0000
     1.0000   1.0000   1.0000   1.0000   1.0000   1.0000   1.0000   1.0000
     1.0000   1.0000   1.0000   1.0000   1.0000   1.0000   1.0000   1.0000
     1.0000   1.0000   1.0000   1.0000   1.0000   1.0000   1.0000   1.0000
     1.0000   1.0000   1.0000   1.0000   1.0000   1.0000   1.0000   1.0000
     1.0000   1.0000   1.0000   1.0000   1.0000   1.0000   1.0000   1.0000
     1.0000   1.0000   1.0000   1.0000   1.0000   1.0000   1.0000   1.0000
     1.0000   1.0000   1.0000   1.0000   1.0000   1.0000   1.0000   1.0000
     1.0000   1.0000   1.0000   1.0000   1.0000   1.0000   1.0000   1.0000
     1.0000   1.0000   1.0000   1.0000   1.0000   1.0000   1.0000   1.0000
     1.0000   1.0000   1.0000   1.0000   1.0000   1.0000   1.0000   1.0000
     1.0000   1.0000   1.0000   1.0000   1.0000   1.0000   1.0000   1.0000
     1.0000   1.0000   1.0000   1.0000   0.0000   0.0000   0.0000   0.0000
     0.0000   0.0000   0.0000   0.0000   0.0000   0.0000   0.0000   0.0000
     0.0000   0.0000   0.0000   0.0000   0.0000   0.0000   0.0000   0.0000
     0.0000   0.0000   0.0000   0.0000   0.0000   0.0000   0.0000   0.0000
     0.0000   0.0000   0.0000   0.0000   0.0000   0.0000   0.0000   0.0000
     0.0000   0.0000   0.0000   0.0000

          k = 0.2500-0.5000-0.5000 (160040 PWs)   bands (ev):

   -68.6320 -68.5356 -68.5356 -68.5321 -62.2536 -62.2484 -62.2484 -62.2281
   -40.0050 -39.9502 -39.9465 -39.8732 -39.8732 -39.8729 -39.8729 -39.8728
   -39.8728 -39.8697 -39.8696 -39.8696 -36.1359 -36.1359 -36.1358 -36.1320
   -36.1320 -36.1310 -36.1310 -36.1307 -36.1307 -36.1182 -36.1174 -36.0925
   -29.1652 -29.1652 -29.1643 -29.1643 -16.1941 -16.1870 -16.1870 -16.1836
   -16.1455 -16.1022 -16.1021 -16.0985 -16.0693 -16.0374 -16.0374 -16.0357
   -16.0339 -16.0334 -16.0273 -16.0272 -16.0231 -16.0205 -16.0181 -16.0181
   -16.0136 -16.0071 -16.0071 -16.0056 -12.6115 -12.6113 -12.6111 -12.6111
   -12.6106 -12.6104 -12.6104 -12.6095 -12.6090 -12.6081 -12.6079 -12.6071
    -6.5140  -6.4316  -6.4315  -6.4293  -6.0468  -6.0467  -6.0433  -6.0411
    -5.1494  -4.9932  -4.9890  -4.9888  -4.9848  -4.9749  -4.9748  -4.9741
    -4.9123  -4.8606  -4.8601  -4.8586  -4.8447  -4.8445  -4.8437  -4.8408
    -3.6248  -3.6230  -3.6228  -3.5430  -3.2915  -3.2871  -3.2838  -3.2559
    -3.0365  -3.0342  -3.0326  -2.9936  -2.9644  -2.9626  -2.9621  -2.9599
    -2.7673  -2.7645  -2.7515  -2.7484  -2.7379  -2.7046  -2.7037  -2.6999
    -2.5392  -2.5180  -2.5160  -2.5160  -2.5118  -2.5010  -2.4956  -2.4905
    -2.4561  -2.4505  -2.4423  -2.4148  -2.3815  -2.3763  -2.3690  -2.3162
    -2.3130  -2.3130  -2.3090  -2.2803  -2.1793  -2.1654  -2.1624  -2.1076
    -1.8846  -1.8820  -1.8804  -1.8786  -1.7374  -1.7364  -1.7352  -1.7329
    -1.7037  -1.6941  -1.6931  -1.6805  -1.6790  -1.6749  -1.6708  -1.6346
    -1.4055  -1.4042  -1.3937  -1.3903  -1.3678  -1.3659  -1.3553  -1.3322
     1.1713   1.1774   1.1952   1.2169   1.2170   1.2173   1.2193   1.2243
     1.2527   1.2580   1.2580   1.2653   3.3672   3.3840   3.3841   3.3845
     3.4659   3.4823   3.4890   3.4896   3.5186   3.5235   3.6243   3.6349
     5.5971   5.7518   5.7713   5.7744   5.8001   5.8227   5.8234   5.8411
     5.8709   5.8728   5.8744   5.9075   6.0155   6.0240   6.0313   6.0436
     6.0478   6.0763   6.0951   6.1026   6.1429   6.1446   6.1678   6.1814
     6.3563   6.3610   6.3665   6.3681

     occupation numbers 
     1.0000   1.0000   1.0000   1.0000   1.0000   1.0000   1.0000   1.0000
     1.0000   1.0000   1.0000   1.0000   1.0000   1.0000   1.0000   1.0000
     1.0000   1.0000   1.0000   1.0000   1.0000   1.0000   1.0000   1.0000
     1.0000   1.0000   1.0000   1.0000   1.0000   1.0000   1.0000   1.0000
     1.0000   1.0000   1.0000   1.0000   1.0000   1.0000   1.0000   1.0000
     1.0000   1.0000   1.0000   1.0000   1.0000   1.0000   1.0000   1.0000
     1.0000   1.0000   1.0000   1.0000   1.0000   1.0000   1.0000   1.0000
     1.0000   1.0000   1.0000   1.0000   1.0000   1.0000   1.0000   1.0000
     1.0000   1.0000   1.0000   1.0000   1.0000   1.0000   1.0000   1.0000
     1.0000   1.0000   1.0000   1.0000   1.0000   1.0000   1.0000   1.0000
     1.0000   1.0000   1.0000   1.0000   1.0000   1.0000   1.0000   1.0000
     1.0000   1.0000   1.0000   1.0000   1.0000   1.0000   1.0000   1.0000
     1.0000   1.0000   1.0000   1.0000   1.0000   1.0000   1.0000   1.0000
     1.0000   1.0000   1.0000   1.0000   1.0000   1.0000   1.0000   1.0000
     1.0000   1.0000   1.0000   1.0000   1.0000   1.0000   1.0000   1.0000
     1.0000   1.0000   1.0000   1.0000   1.0000   1.0000   1.0000   1.0000
     1.0000   1.0000   1.0000   1.0000   1.0000   1.0000   1.0000   1.0000
     1.0000   1.0000   1.0000   1.0000   1.0000   1.0000   1.0000   1.0000
     1.0000   1.0000   1.0000   1.0000   1.0000   1.0000   1.0000   1.0000
     1.0000   1.0000   1.0000   1.0000   1.0000   1.0000   1.0000   1.0000
     1.0000   1.0000   1.0000   1.0000   1.0000   1.0000   1.0000   1.0000
     1.0000   1.0000   1.0000   1.0000   1.0000   1.0000   1.0000   1.0000
     1.0000   1.0000   1.0000   1.0000   0.0000   0.0000   0.0000   0.0000
     0.0000   0.0000   0.0000   0.0000   0.0000   0.0000   0.0000   0.0000
     0.0000   0.0000   0.0000   0.0000   0.0000   0.0000   0.0000   0.0000
     0.0000   0.0000   0.0000   0.0000   0.0000   0.0000   0.0000   0.0000
     0.0000   0.0000   0.0000   0.0000   0.0000   0.0000   0.0000   0.0000
     0.0000   0.0000   0.0000   0.0000

          k =-0.5000-0.5000-0.5000 (160376 PWs)   bands (ev):

   -68.6320 -68.5356 -68.5356 -68.5321 -62.2536 -62.2484 -62.2484 -62.2281
   -40.0050 -39.9502 -39.9465 -39.8732 -39.8732 -39.8729 -39.8729 -39.8728
   -39.8728 -39.8697 -39.8696 -39.8696 -36.1359 -36.1359 -36.1358 -36.1320
   -36.1320 -36.1310 -36.1310 -36.1307 -36.1307 -36.1182 -36.1174 -36.0925
   -29.1652 -29.1652 -29.1643 -29.1643 -16.1837 -16.1837 -16.1830 -16.1801
   -16.1624 -16.1106 -16.1105 -16.1073 -16.0573 -16.0401 -16.0334 -16.0285
   -16.0284 -16.0239 -16.0239 -16.0231 -16.0229 -16.0205 -16.0193 -16.0193
   -16.0136 -16.0131 -16.0131 -16.0129 -12.6115 -12.6115 -12.6115 -12.6111
   -12.6109 -12.6107 -12.6104 -12.6097 -12.6086 -12.6077 -12.6076 -12.6068
    -6.4483  -6.3298  -6.3297  -6.3274  -6.1744  -6.1744  -6.1712  -6.1374
    -5.1256  -4.9921  -4.9891  -4.9889  -4.9836  -4.9832  -4.9829  -4.9829
    -4.9184  -4.8475  -4.8464  -4.8463  -4.8430  -4.8429  -4.8425  -4.8423
    -3.5632  -3.5631  -3.5604  -3.4943  -3.3608  -3.3515  -3.3482  -3.3126
    -2.9872  -2.9786  -2.9779  -2.9731  -2.9687  -2.9617  -2.9563  -2.9185
    -2.7700  -2.7370  -2.7305  -2.7110  -2.7074  -2.7072  -2.7049  -2.7033
    -2.5402  -2.5214  -2.5119  -2.5003  -2.4972  -2.4967  -2.4906  -2.4830
    -2.4763  -2.4660  -2.4557  -2.4303  -2.4044  -2.3892  -2.3843  -2.3791
    -2.3790  -2.3785  -2.3678  -2.2091  -2.1793  -2.1231  -2.1067  -2.1041
    -1.8575  -1.8567  -1.8539  -1.8525  -1.7300  -1.7234  -1.7225  -1.7217
    -1.7204  -1.7176  -1.7168  -1.7035  -1.6999  -1.6958  -1.6945  -1.5425
    -1.4560  -1.4123  -1.4104  -1.4045  -1.4034  -1.4001  -1.3919  -1.3883
     1.2025   1.2088   1.2326   1.2523   1.2524   1.2526   1.2531   1.2552
     1.2580   1.2582   1.2582   1.2656   3.3220   3.3384   3.3476   3.3476
     3.4319   3.4384   3.4418   3.4419   3.4431   3.4500   3.5506   3.5602
     5.6371   5.8132   5.8270   5.8321   5.8649   5.9091   5.9148   5.9162
     5.9285   5.9299   5.9316   5.9316   6.0049   6.0345   6.0487   6.0494
     6.0518   6.0581   6.0842   6.0858   6.1245   6.1701   6.1913   6.2042
     6.3762   6.3765   6.3862   6.3883

     occupation numbers 
     1.0000   1.0000   1.0000   1.0000   1.0000   1.0000   1.0000   1.0000
     1.0000   1.0000   1.0000   1.0000   1.0000   1.0000   1.0000   1.0000
     1.0000   1.0000   1.0000   1.0000   1.0000   1.0000   1.0000   1.0000
     1.0000   1.0000   1.0000   1.0000   1.0000   1.0000   1.0000   1.0000
     1.0000   1.0000   1.0000   1.0000   1.0000   1.0000   1.0000   1.0000
     1.0000   1.0000   1.0000   1.0000   1.0000   1.0000   1.0000   1.0000
     1.0000   1.0000   1.0000   1.0000   1.0000   1.0000   1.0000   1.0000
     1.0000   1.0000   1.0000   1.0000   1.0000   1.0000   1.0000   1.0000
     1.0000   1.0000   1.0000   1.0000   1.0000   1.0000   1.0000   1.0000
     1.0000   1.0000   1.0000   1.0000   1.0000   1.0000   1.0000   1.0000
     1.0000   1.0000   1.0000   1.0000   1.0000   1.0000   1.0000   1.0000
     1.0000   1.0000   1.0000   1.0000   1.0000   1.0000   1.0000   1.0000
     1.0000   1.0000   1.0000   1.0000   1.0000   1.0000   1.0000   1.0000
     1.0000   1.0000   1.0000   1.0000   1.0000   1.0000   1.0000   1.0000
     1.0000   1.0000   1.0000   1.0000   1.0000   1.0000   1.0000   1.0000
     1.0000   1.0000   1.0000   1.0000   1.0000   1.0000   1.0000   1.0000
     1.0000   1.0000   1.0000   1.0000   1.0000   1.0000   1.0000   1.0000
     1.0000   1.0000   1.0000   1.0000   1.0000   1.0000   1.0000   1.0000
     1.0000   1.0000   1.0000   1.0000   1.0000   1.0000   1.0000   1.0000
     1.0000   1.0000   1.0000   1.0000   1.0000   1.0000   1.0000   1.0000
     1.0000   1.0000   1.0000   1.0000   1.0000   1.0000   1.0000   1.0000
     1.0000   1.0000   1.0000   1.0000   1.0000   1.0000   1.0000   1.0000
     1.0000   1.0000   1.0000   1.0000   0.0000   0.0000   0.0000   0.0000
     0.0000   0.0000   0.0000   0.0000   0.0000   0.0000   0.0000   0.0000
     0.0000   0.0000   0.0000   0.0000   0.0000   0.0000   0.0000   0.0000
     0.0000   0.0000   0.0000   0.0000   0.0000   0.0000   0.0000   0.0000
     0.0000   0.0000   0.0000   0.0000   0.0000   0.0000   0.0000   0.0000
     0.0000   0.0000   0.0000   0.0000

          k = 0.2500 0.0000 0.0000 (160107 PWs)   bands (ev):

   -68.6320 -68.5356 -68.5356 -68.5321 -62.2535 -62.2484 -62.2484 -62.2280
   -40.0050 -39.9502 -39.9465 -39.8732 -39.8732 -39.8729 -39.8729 -39.8728
   -39.8728 -39.8697 -39.8696 -39.8696 -36.1359 -36.1359 -36.1358 -36.1320
   -36.1320 -36.1310 -36.1310 -36.1307 -36.1307 -36.1182 -36.1174 -36.0925
   -29.1652 -29.1652 -29.1643 -29.1642 -16.2374 -16.1895 -16.1733 -16.1727
   -16.1252 -16.0799 -16.0699 -16.0628 -16.0572 -16.0572 -16.0549 -16.0548
   -16.0481 -16.0481 -16.0469 -16.0469 -16.0433 -16.0297 -16.0287 -16.0112
   -15.9981 -15.9947 -15.9933 -15.9920 -12.6119 -12.6117 -12.6115 -12.6106
   -12.6102 -12.6100 -12.6100 -12.6095 -12.6090 -12.6084 -12.6081 -12.6071
    -6.8333  -6.5591  -6.4590  -6.4240  -6.0059  -6.0053  -5.8568  -5.3342
    -5.0722  -5.0267  -5.0263  -4.9729  -4.9726  -4.9509  -4.9500  -4.9496
    -4.9203  -4.8934  -4.8932  -4.8731  -4.8727  -4.8708  -4.8637  -4.8616
    -4.2604  -3.6907  -3.5428  -3.4705  -3.2774  -3.2772  -3.2229  -3.1704
    -3.1361  -3.1357  -3.0957  -3.0957  -3.0290  -2.9509  -2.9490  -2.9309
    -2.9085  -2.8351  -2.8351  -2.7667  -2.7168  -2.6972  -2.6231  -2.6163
    -2.5958  -2.5938  -2.5922  -2.5324  -2.5164  -2.5125  -2.5100  -2.4936
    -2.4871  -2.4243  -2.4231  -2.3799  -2.3729  -2.3548  -2.3546  -2.3491
    -2.3484  -2.2840  -2.0982  -2.0966  -2.0663  -2.0661  -2.0589  -2.0229
    -2.0202  -2.0169  -1.9794  -1.9778  -1.9777  -1.9084  -1.9065  -1.8721
    -1.8199  -1.6170  -1.6140  -1.5140  -1.5116  -1.4848  -1.4837  -1.4575
    -1.4464  -1.4023  -1.4009  -1.3222  -1.3218  -1.2355  -1.1963  -1.1960
     0.8651   0.8681   0.9511   0.9547   0.9696   0.9698   1.3105   1.3130
     1.3371   1.3371   1.3831   1.3844   3.6178   3.6178   3.6376   3.6381
     3.6624   3.6624   3.6803   3.6901   3.7333   3.7421   3.7566   3.7670
     5.2730   5.4697   5.5888   5.6273   5.6607   5.6683   5.6948   5.7531
     5.7627   5.7652   5.7719   5.7810   5.7918   5.8249   5.8716   5.9725
     5.9961   6.0010   6.0084   6.0456   6.0523   6.0711   6.0878   6.1652
     6.1661   6.2365   6.2820   6.2923

     occupation numbers 
     1.0000   1.0000   1.0000   1.0000   1.0000   1.0000   1.0000   1.0000
     1.0000   1.0000   1.0000   1.0000   1.0000   1.0000   1.0000   1.0000
     1.0000   1.0000   1.0000   1.0000   1.0000   1.0000   1.0000   1.0000
     1.0000   1.0000   1.0000   1.0000   1.0000   1.0000   1.0000   1.0000
     1.0000   1.0000   1.0000   1.0000   1.0000   1.0000   1.0000   1.0000
     1.0000   1.0000   1.0000   1.0000   1.0000   1.0000   1.0000   1.0000
     1.0000   1.0000   1.0000   1.0000   1.0000   1.0000   1.0000   1.0000
     1.0000   1.0000   1.0000   1.0000   1.0000   1.0000   1.0000   1.0000
     1.0000   1.0000   1.0000   1.0000   1.0000   1.0000   1.0000   1.0000
     1.0000   1.0000   1.0000   1.0000   1.0000   1.0000   1.0000   1.0000
     1.0000   1.0000   1.0000   1.0000   1.0000   1.0000   1.0000   1.0000
     1.0000   1.0000   1.0000   1.0000   1.0000   1.0000   1.0000   1.0000
     1.0000   1.0000   1.0000   1.0000   1.0000   1.0000   1.0000   1.0000
     1.0000   1.0000   1.0000   1.0000   1.0000   1.0000   1.0000   1.0000
     1.0000   1.0000   1.0000   1.0000   1.0000   1.0000   1.0000   1.0000
     1.0000   1.0000   1.0000   1.0000   1.0000   1.0000   1.0000   1.0000
     1.0000   1.0000   1.0000   1.0000   1.0000   1.0000   1.0000   1.0000
     1.0000   1.0000   1.0000   1.0000   1.0000   1.0000   1.0000   1.0000
     1.0000   1.0000   1.0000   1.0000   1.0000   1.0000   1.0000   1.0000
     1.0000   1.0000   1.0000   1.0000   1.0000   1.0000   1.0000   1.0000
     1.0000   1.0000   1.0000   1.0000   1.0000   1.0000   1.0000   1.0000
     1.0000   1.0000   1.0000   1.0000   1.0000   1.0000   1.0000   1.0000
     1.0000   1.0000   1.0000   1.0000   0.0000   0.0000   0.0000   0.0000
     0.0000   0.0000   0.0000   0.0000   0.0000   0.0000   0.0000   0.0000
     0.0000   0.0000   0.0000   0.0000   0.0000   0.0000   0.0000   0.0000
     0.0000   0.0000   0.0000   0.0000   0.0000   0.0000   0.0000   0.0000
     0.0000   0.0000   0.0000   0.0000   0.0000   0.0000   0.0000   0.0000
     0.0000   0.0000   0.0000   0.0000

          k =-0.5000 0.0000 0.0000 (159956 PWs)   bands (ev):

   -68.6320 -68.5356 -68.5356 -68.5321 -62.2535 -62.2484 -62.2484 -62.2281
   -40.0050 -39.9502 -39.9465 -39.8732 -39.8732 -39.8729 -39.8729 -39.8728
   -39.8728 -39.8697 -39.8696 -39.8696 -36.1359 -36.1359 -36.1358 -36.1320
   -36.1320 -36.1310 -36.1310 -36.1307 -36.1307 -36.1182 -36.1174 -36.0925
   -29.1652 -29.1652 -29.1643 -29.1642 -16.2220 -16.2087 -16.1691 -16.1673
   -16.1343 -16.0908 -16.0706 -16.0629 -16.0571 -16.0571 -16.0550 -16.0549
   -16.0479 -16.0479 -16.0471 -16.0471 -16.0350 -16.0180 -16.0111 -16.0100
   -16.0079 -16.0070 -15.9935 -15.9932 -12.6116 -12.6111 -12.6111 -12.6104
   -12.6104 -12.6103 -12.6102 -12.6096 -12.6092 -12.6084 -12.6084 -12.6074
    -6.7135  -6.6847  -6.3870  -6.3288  -6.1317  -6.1107  -5.6936  -5.5889
    -5.0678  -5.0011  -5.0005  -4.9999  -4.9998  -4.9461  -4.9267  -4.9258
    -4.9229  -4.9186  -4.9183  -4.8728  -4.8708  -4.8697  -4.8606  -4.8536
    -3.9738  -3.8965  -3.4892  -3.4323  -3.2785  -3.2782  -3.1899  -3.1842
    -3.1021  -3.1020  -3.0636  -3.0619  -3.0510  -3.0509  -2.9802  -2.9799
    -2.8857  -2.7986  -2.7780  -2.7766  -2.6798  -2.6511  -2.6498  -2.6480
    -2.6463  -2.6284  -2.5563  -2.5541  -2.5263  -2.5156  -2.5136  -2.4289
    -2.4108  -2.3905  -2.3861  -2.3854  -2.3530  -2.3464  -2.3404  -2.3376
    -2.2629  -2.2572  -2.2271  -2.2260  -2.1805  -2.1797  -2.0422  -2.0394
    -1.9862  -1.9855  -1.9798  -1.9736  -1.9056  -1.8751  -1.8688  -1.7697
    -1.7228  -1.7158  -1.6923  -1.5399  -1.5314  -1.5131  -1.5125  -1.4423
    -1.4419  -1.4318  -1.4287  -1.3909  -1.2593  -1.2567  -1.2379  -1.2349
     0.8665   0.8668   1.1254   1.1323   1.1808   1.1810   1.1873   1.1878
     1.1960   1.1967   1.3831   1.3844   3.5641   3.5642   3.5671   3.5676
     3.5691   3.5696   3.6803   3.6816   3.6901   3.6908   3.7350   3.7403
     5.3558   5.4990   5.6305   5.6593   5.6650   5.6931   5.7184   5.7303
     5.7697   5.7804   5.8862   5.8911   5.8968   5.9110   5.9281   5.9440
     5.9450   5.9707   5.9824   5.9858   5.9874   6.0045   6.1606   6.1687
     6.1775   6.2853   6.3150   6.3378

     occupation numbers 
     1.0000   1.0000   1.0000   1.0000   1.0000   1.0000   1.0000   1.0000
     1.0000   1.0000   1.0000   1.0000   1.0000   1.0000   1.0000   1.0000
     1.0000   1.0000   1.0000   1.0000   1.0000   1.0000   1.0000   1.0000
     1.0000   1.0000   1.0000   1.0000   1.0000   1.0000   1.0000   1.0000
     1.0000   1.0000   1.0000   1.0000   1.0000   1.0000   1.0000   1.0000
     1.0000   1.0000   1.0000   1.0000   1.0000   1.0000   1.0000   1.0000
     1.0000   1.0000   1.0000   1.0000   1.0000   1.0000   1.0000   1.0000
     1.0000   1.0000   1.0000   1.0000   1.0000   1.0000   1.0000   1.0000
     1.0000   1.0000   1.0000   1.0000   1.0000   1.0000   1.0000   1.0000
     1.0000   1.0000   1.0000   1.0000   1.0000   1.0000   1.0000   1.0000
     1.0000   1.0000   1.0000   1.0000   1.0000   1.0000   1.0000   1.0000
     1.0000   1.0000   1.0000   1.0000   1.0000   1.0000   1.0000   1.0000
     1.0000   1.0000   1.0000   1.0000   1.0000   1.0000   1.0000   1.0000
     1.0000   1.0000   1.0000   1.0000   1.0000   1.0000   1.0000   1.0000
     1.0000   1.0000   1.0000   1.0000   1.0000   1.0000   1.0000   1.0000
     1.0000   1.0000   1.0000   1.0000   1.0000   1.0000   1.0000   1.0000
     1.0000   1.0000   1.0000   1.0000   1.0000   1.0000   1.0000   1.0000
     1.0000   1.0000   1.0000   1.0000   1.0000   1.0000   1.0000   1.0000
     1.0000   1.0000   1.0000   1.0000   1.0000   1.0000   1.0000   1.0000
     1.0000   1.0000   1.0000   1.0000   1.0000   1.0000   1.0000   1.0000
     1.0000   1.0000   1.0000   1.0000   1.0000   1.0000   1.0000   1.0000
     1.0000   1.0000   1.0000   1.0000   1.0000   1.0000   1.0000   1.0000
     1.0000   1.0000   1.0000   1.0000   0.0000   0.0000   0.0000   0.0000
     0.0000   0.0000   0.0000   0.0000   0.0000   0.0000   0.0000   0.0000
     0.0000   0.0000   0.0000   0.0000   0.0000   0.0000   0.0000   0.0000
     0.0000   0.0000   0.0000   0.0000   0.0000   0.0000   0.0000   0.0000
     0.0000   0.0000   0.0000   0.0000   0.0000   0.0000   0.0000   0.0000
     0.0000   0.0000   0.0000   0.0000

          k = 0.2500 0.0000-0.2500 (160136 PWs)   bands (ev):

   -68.6320 -68.5356 -68.5356 -68.5321 -62.2535 -62.2484 -62.2484 -62.2281
   -40.0050 -39.9502 -39.9465 -39.8732 -39.8732 -39.8729 -39.8729 -39.8728
   -39.8728 -39.8697 -39.8696 -39.8696 -36.1359 -36.1359 -36.1358 -36.1320
   -36.1320 -36.1310 -36.1310 -36.1307 -36.1307 -36.1182 -36.1174 -36.0925
   -29.1652 -29.1652 -29.1643 -29.1643 -16.2300 -16.1873 -16.1811 -16.1709
   -16.1306 -16.0876 -16.0817 -16.0699 -16.0572 -16.0569 -16.0548 -16.0481
   -16.0469 -16.0445 -16.0402 -16.0387 -16.0357 -16.0277 -16.0243 -16.0119
   -16.0009 -15.9978 -15.9973 -15.9935 -12.6118 -12.6116 -12.6110 -12.6106
   -12.6103 -12.6102 -12.6099 -12.6097 -12.6091 -12.6084 -12.6081 -12.6073
    -6.7807  -6.5231  -6.4814  -6.3899  -6.0781  -5.9693  -5.9223  -5.4765
    -5.1221  -5.0160  -5.0061  -4.9694  -4.9667  -4.9621  -4.9615  -4.9410
    -4.9111  -4.9049  -4.8847  -4.8761  -4.8689  -4.8599  -4.8579  -4.8537
    -4.1093  -3.6471  -3.5953  -3.4692  -3.2772  -3.2305  -3.2212  -3.1762
    -3.1189  -3.1139  -3.1055  -3.0805  -3.0552  -2.9506  -2.9317  -2.9097
    -2.8959  -2.8859  -2.8582  -2.7176  -2.6877  -2.6686  -2.6648  -2.6361
    -2.5911  -2.5743  -2.5606  -2.5407  -2.5282  -2.5152  -2.5008  -2.4857
    -2.4667  -2.4177  -2.4123  -2.3873  -2.3774  -2.3723  -2.3668  -2.3489
    -2.3441  -2.2801  -2.1625  -2.1405  -2.0945  -2.0830  -2.0785  -1.9935
    -1.9830  -1.9784  -1.9713  -1.9603  -1.9429  -1.9167  -1.8698  -1.8634
    -1.7909  -1.6606  -1.6103  -1.6011  -1.5524  -1.4869  -1.4852  -1.4660
    -1.4533  -1.4318  -1.3451  -1.3382  -1.3304  -1.2878  -1.2498  -1.2139
     0.9526   0.9681   0.9728   0.9736   1.0331   1.0544   1.2897   1.3117
     1.3173   1.3367   1.3404   1.3418   3.5406   3.5611   3.5798   3.5918
     3.6055   3.6206   3.6356   3.6538   3.6703   3.6751   3.6863   3.7674
     5.3605   5.5361   5.6134   5.6508   5.6665   5.6924   5.7052   5.7351
     5.7632   5.8197   5.8474   5.8680   5.8775   5.8884   5.9345   5.9585
     5.9953   5.9965   6.0173   6.0366   6.0874   6.1176   6.1786   6.2260
     6.2486   6.2768   6.2896   6.3093

     occupation numbers 
     1.0000   1.0000   1.0000   1.0000   1.0000   1.0000   1.0000   1.0000
     1.0000   1.0000   1.0000   1.0000   1.0000   1.0000   1.0000   1.0000
     1.0000   1.0000   1.0000   1.0000   1.0000   1.0000   1.0000   1.0000
     1.0000   1.0000   1.0000   1.0000   1.0000   1.0000   1.0000   1.0000
     1.0000   1.0000   1.0000   1.0000   1.0000   1.0000   1.0000   1.0000
     1.0000   1.0000   1.0000   1.0000   1.0000   1.0000   1.0000   1.0000
     1.0000   1.0000   1.0000   1.0000   1.0000   1.0000   1.0000   1.0000
     1.0000   1.0000   1.0000   1.0000   1.0000   1.0000   1.0000   1.0000
     1.0000   1.0000   1.0000   1.0000   1.0000   1.0000   1.0000   1.0000
     1.0000   1.0000   1.0000   1.0000   1.0000   1.0000   1.0000   1.0000
     1.0000   1.0000   1.0000   1.0000   1.0000   1.0000   1.0000   1.0000
     1.0000   1.0000   1.0000   1.0000   1.0000   1.0000   1.0000   1.0000
     1.0000   1.0000   1.0000   1.0000   1.0000   1.0000   1.0000   1.0000
     1.0000   1.0000   1.0000   1.0000   1.0000   1.0000   1.0000   1.0000
     1.0000   1.0000   1.0000   1.0000   1.0000   1.0000   1.0000   1.0000
     1.0000   1.0000   1.0000   1.0000   1.0000   1.0000   1.0000   1.0000
     1.0000   1.0000   1.0000   1.0000   1.0000   1.0000   1.0000   1.0000
     1.0000   1.0000   1.0000   1.0000   1.0000   1.0000   1.0000   1.0000
     1.0000   1.0000   1.0000   1.0000   1.0000   1.0000   1.0000   1.0000
     1.0000   1.0000   1.0000   1.0000   1.0000   1.0000   1.0000   1.0000
     1.0000   1.0000   1.0000   1.0000   1.0000   1.0000   1.0000   1.0000
     1.0000   1.0000   1.0000   1.0000   1.0000   1.0000   1.0000   1.0000
     1.0000   1.0000   1.0000   1.0000   0.0000   0.0000   0.0000   0.0000
     0.0000   0.0000   0.0000   0.0000   0.0000   0.0000   0.0000   0.0000
     0.0000   0.0000   0.0000   0.0000   0.0000   0.0000   0.0000   0.0000
     0.0000   0.0000   0.0000   0.0000   0.0000   0.0000   0.0000   0.0000
     0.0000   0.0000   0.0000   0.0000   0.0000   0.0000   0.0000   0.0000
     0.0000   0.0000   0.0000   0.0000

          k = 0.0000 0.2500-0.2500 (160136 PWs)   bands (ev):

   -68.6320 -68.5356 -68.5356 -68.5321 -62.2535 -62.2484 -62.2484 -62.2280
   -40.0050 -39.9502 -39.9465 -39.8732 -39.8732 -39.8729 -39.8729 -39.8728
   -39.8728 -39.8697 -39.8696 -39.8696 -36.1359 -36.1359 -36.1358 -36.1320
   -36.1320 -36.1310 -36.1310 -36.1307 -36.1307 -36.1182 -36.1174 -36.0925
   -29.1652 -29.1652 -29.1643 -29.1643 -16.2300 -16.1869 -16.1833 -16.1690
   -16.1280 -16.0889 -16.0823 -16.0772 -16.0636 -16.0480 -16.0480 -16.0473
   -16.0466 -16.0440 -16.0428 -16.0376 -16.0352 -16.0298 -16.0257 -16.0086
   -16.0037 -16.0011 -15.9947 -15.9930 -12.6117 -12.6115 -12.6110 -12.6108
   -12.6106 -12.6102 -12.6100 -12.6092 -12.6091 -12.6086 -12.6084 -12.6071
    -6.7811  -6.5247  -6.4848  -6.3831  -6.0895  -5.9400  -5.9332  -5.4670
    -5.1714  -5.0203  -4.9961  -4.9715  -4.9703  -4.9678  -4.9589  -4.9323
    -4.9144  -4.8899  -4.8834  -4.8761  -4.8623  -4.8610  -4.8569  -4.8552
    -4.1040  -3.6344  -3.5996  -3.4628  -3.2845  -3.2314  -3.2018  -3.1720
    -3.1201  -3.1056  -3.1050  -3.0811  -3.0785  -2.9473  -2.9392  -2.8995
    -2.8905  -2.8829  -2.8691  -2.7156  -2.6834  -2.6707  -2.6661  -2.6623
    -2.5839  -2.5672  -2.5672  -2.5533  -2.5354  -2.5226  -2.4953  -2.4721
    -2.4706  -2.4251  -2.4000  -2.3874  -2.3842  -2.3787  -2.3762  -2.3528
    -2.3491  -2.2394  -2.1672  -2.1597  -2.0923  -2.0816  -2.0178  -2.0079
    -1.9885  -1.9716  -1.9674  -1.9618  -1.9588  -1.9306  -1.9063  -1.8204
    -1.7950  -1.6578  -1.6074  -1.6029  -1.5548  -1.4873  -1.4714  -1.4686
    -1.4576  -1.4412  -1.3499  -1.3354  -1.3244  -1.2903  -1.2835  -1.1835
     0.9475   0.9580   0.9681   0.9711   1.0559   1.0588   1.3037   1.3132
     1.3205   1.3217   1.3362   1.3380   3.5290   3.5367   3.5713   3.5793
     3.6027   3.6255   3.6255   3.6516   3.6577   3.6744   3.7655   3.7779
     5.3759   5.5556   5.5881   5.6566   5.6866   5.6927   5.6996   5.7389
     5.7499   5.8055   5.8499   5.8631   5.8707   5.8787   5.9026   5.9551
     5.9924   6.0050   6.0204   6.0363   6.0521   6.1531   6.1570   6.2098
     6.2677   6.2909   6.3005   6.3147

     occupation numbers 
     1.0000   1.0000   1.0000   1.0000   1.0000   1.0000   1.0000   1.0000
     1.0000   1.0000   1.0000   1.0000   1.0000   1.0000   1.0000   1.0000
     1.0000   1.0000   1.0000   1.0000   1.0000   1.0000   1.0000   1.0000
     1.0000   1.0000   1.0000   1.0000   1.0000   1.0000   1.0000   1.0000
     1.0000   1.0000   1.0000   1.0000   1.0000   1.0000   1.0000   1.0000
     1.0000   1.0000   1.0000   1.0000   1.0000   1.0000   1.0000   1.0000
     1.0000   1.0000   1.0000   1.0000   1.0000   1.0000   1.0000   1.0000
     1.0000   1.0000   1.0000   1.0000   1.0000   1.0000   1.0000   1.0000
     1.0000   1.0000   1.0000   1.0000   1.0000   1.0000   1.0000   1.0000
     1.0000   1.0000   1.0000   1.0000   1.0000   1.0000   1.0000   1.0000
     1.0000   1.0000   1.0000   1.0000   1.0000   1.0000   1.0000   1.0000
     1.0000   1.0000   1.0000   1.0000   1.0000   1.0000   1.0000   1.0000
     1.0000   1.0000   1.0000   1.0000   1.0000   1.0000   1.0000   1.0000
     1.0000   1.0000   1.0000   1.0000   1.0000   1.0000   1.0000   1.0000
     1.0000   1.0000   1.0000   1.0000   1.0000   1.0000   1.0000   1.0000
     1.0000   1.0000   1.0000   1.0000   1.0000   1.0000   1.0000   1.0000
     1.0000   1.0000   1.0000   1.0000   1.0000   1.0000   1.0000   1.0000
     1.0000   1.0000   1.0000   1.0000   1.0000   1.0000   1.0000   1.0000
     1.0000   1.0000   1.0000   1.0000   1.0000   1.0000   1.0000   1.0000
     1.0000   1.0000   1.0000   1.0000   1.0000   1.0000   1.0000   1.0000
     1.0000   1.0000   1.0000   1.0000   1.0000   1.0000   1.0000   1.0000
     1.0000   1.0000   1.0000   1.0000   1.0000   1.0000   1.0000   1.0000
     1.0000   1.0000   1.0000   1.0000   0.0000   0.0000   0.0000   0.0000
     0.0000   0.0000   0.0000   0.0000   0.0000   0.0000   0.0000   0.0000
     0.0000   0.0000   0.0000   0.0000   0.0000   0.0000   0.0000   0.0000
     0.0000   0.0000   0.0000   0.0000   0.0000   0.0000   0.0000   0.0000
     0.0000   0.0000   0.0000   0.0000   0.0000   0.0000   0.0000   0.0000
     0.0000   0.0000   0.0000   0.0000

          k = 0.2500 0.0000 0.5000 (160210 PWs)   bands (ev):

   -68.6320 -68.5356 -68.5356 -68.5321 -62.2536 -62.2484 -62.2484 -62.2281
   -40.0050 -39.9502 -39.9465 -39.8732 -39.8732 -39.8729 -39.8729 -39.8728
   -39.8728 -39.8697 -39.8696 -39.8696 -36.1359 -36.1359 -36.1358 -36.1320
   -36.1320 -36.1310 -36.1310 -36.1307 -36.1307 -36.1182 -36.1174 -36.0925
   -29.1652 -29.1652 -29.1643 -29.1643 -16.2147 -16.2041 -16.1731 -16.1724
   -16.1371 -16.0949 -16.0866 -16.0739 -16.0589 -16.0572 -16.0548 -16.0481
   -16.0469 -16.0373 -16.0349 -16.0335 -16.0327 -16.0166 -16.0138 -16.0102
   -16.0101 -16.0071 -16.0026 -15.9938 -12.6114 -12.6114 -12.6108 -12.6108
   -12.6104 -12.6104 -12.6097 -12.6097 -12.6091 -12.6090 -12.6077 -12.6077
    -6.6625  -6.6303  -6.3957  -6.3513  -6.1155  -6.1150  -5.7495  -5.7361
    -5.1395  -4.9962  -4.9928  -4.9863  -4.9779  -4.9688  -4.9401  -4.9382
    -4.9311  -4.8987  -4.8853  -4.8736  -4.8701  -4.8536  -4.8488  -4.8473
    -3.8544  -3.8237  -3.5290  -3.4819  -3.2515  -3.2337  -3.1937  -3.1863
    -3.1268  -3.1161  -3.0739  -3.0578  -3.0265  -3.0253  -2.9352  -2.9313
    -2.8353  -2.8252  -2.8163  -2.8032  -2.7102  -2.7089  -2.6431  -2.6024
    -2.5940  -2.5903  -2.5833  -2.5557  -2.5118  -2.5105  -2.4593  -2.4552
    -2.4264  -2.4013  -2.3959  -2.3902  -2.3803  -2.3502  -2.3430  -2.3197
    -2.3147  -2.2615  -2.2474  -2.2318  -2.2145  -2.1644  -2.0542  -2.0465
    -1.9814  -1.9712  -1.9138  -1.9039  -1.8940  -1.8614  -1.8392  -1.8376
    -1.7075  -1.7041  -1.6000  -1.5908  -1.5840  -1.5781  -1.5510  -1.5354
    -1.4434  -1.4308  -1.3783  -1.3733  -1.3223  -1.2778  -1.2653  -1.2598
     0.9530   0.9693   1.1735   1.1828   1.1866   1.1878   1.1938   1.2079
     1.2174   1.2213   1.3118   1.3371   3.4832   3.4838   3.4896   3.5405
     3.5558   3.5576   3.5583   3.6145   3.6314   3.6495   3.6694   3.7684
     5.4931   5.6039   5.6062   5.6627   5.6886   5.7118   5.7361   5.7425
     5.7860   5.8156   5.8568   5.8878   5.9345   5.9354   5.9785   5.9957
     6.0185   6.0257   6.0329   6.0534   6.0551   6.1158   6.1819   6.2499
     6.2800   6.2842   6.2993   6.3319

     occupation numbers 
     1.0000   1.0000   1.0000   1.0000   1.0000   1.0000   1.0000   1.0000
     1.0000   1.0000   1.0000   1.0000   1.0000   1.0000   1.0000   1.0000
     1.0000   1.0000   1.0000   1.0000   1.0000   1.0000   1.0000   1.0000
     1.0000   1.0000   1.0000   1.0000   1.0000   1.0000   1.0000   1.0000
     1.0000   1.0000   1.0000   1.0000   1.0000   1.0000   1.0000   1.0000
     1.0000   1.0000   1.0000   1.0000   1.0000   1.0000   1.0000   1.0000
     1.0000   1.0000   1.0000   1.0000   1.0000   1.0000   1.0000   1.0000
     1.0000   1.0000   1.0000   1.0000   1.0000   1.0000   1.0000   1.0000
     1.0000   1.0000   1.0000   1.0000   1.0000   1.0000   1.0000   1.0000
     1.0000   1.0000   1.0000   1.0000   1.0000   1.0000   1.0000   1.0000
     1.0000   1.0000   1.0000   1.0000   1.0000   1.0000   1.0000   1.0000
     1.0000   1.0000   1.0000   1.0000   1.0000   1.0000   1.0000   1.0000
     1.0000   1.0000   1.0000   1.0000   1.0000   1.0000   1.0000   1.0000
     1.0000   1.0000   1.0000   1.0000   1.0000   1.0000   1.0000   1.0000
     1.0000   1.0000   1.0000   1.0000   1.0000   1.0000   1.0000   1.0000
     1.0000   1.0000   1.0000   1.0000   1.0000   1.0000   1.0000   1.0000
     1.0000   1.0000   1.0000   1.0000   1.0000   1.0000   1.0000   1.0000
     1.0000   1.0000   1.0000   1.0000   1.0000   1.0000   1.0000   1.0000
     1.0000   1.0000   1.0000   1.0000   1.0000   1.0000   1.0000   1.0000
     1.0000   1.0000   1.0000   1.0000   1.0000   1.0000   1.0000   1.0000
     1.0000   1.0000   1.0000   1.0000   1.0000   1.0000   1.0000   1.0000
     1.0000   1.0000   1.0000   1.0000   1.0000   1.0000   1.0000   1.0000
     1.0000   1.0000   1.0000   1.0000   0.0000   0.0000   0.0000   0.0000
     0.0000   0.0000   0.0000   0.0000   0.0000   0.0000   0.0000   0.0000
     0.0000   0.0000   0.0000   0.0000   0.0000   0.0000   0.0000   0.0000
     0.0000   0.0000   0.0000   0.0000   0.0000   0.0000   0.0000   0.0000
     0.0000   0.0000   0.0000   0.0000   0.0000   0.0000   0.0000   0.0000
     0.0000   0.0000   0.0000   0.0000

          k =-0.5000-0.2500 0.0000 (160210 PWs)   bands (ev):

   -68.6320 -68.5356 -68.5356 -68.5321 -62.2536 -62.2484 -62.2484 -62.2281
   -40.0050 -39.9502 -39.9465 -39.8732 -39.8732 -39.8729 -39.8729 -39.8728
   -39.8728 -39.8697 -39.8696 -39.8696 -36.1359 -36.1359 -36.1358 -36.1320
   -36.1320 -36.1310 -36.1310 -36.1307 -36.1307 -36.1182 -36.1174 -36.0925
   -29.1652 -29.1652 -29.1643 -29.1643 -16.2152 -16.2024 -16.1755 -16.1720
   -16.1376 -16.0956 -16.0808 -16.0767 -16.0571 -16.0549 -16.0526 -16.0479
   -16.0471 -16.0457 -16.0368 -16.0345 -16.0309 -16.0180 -16.0120 -16.0108
   -16.0086 -16.0081 -15.9973 -15.9971 -12.6115 -12.6113 -12.6110 -12.6106
   -12.6105 -12.6100 -12.6099 -12.6096 -12.6094 -12.6086 -12.6081 -12.6075
    -6.6613  -6.6282  -6.4026  -6.3510  -6.1243  -6.0971  -5.7919  -5.7115
    -5.0967  -4.9976  -4.9902  -4.9894  -4.9878  -4.9680  -4.9389  -4.9347
    -4.9339  -4.9008  -4.8957  -4.8747  -4.8690  -4.8539  -4.8495  -4.8470
    -3.8786  -3.8123  -3.5330  -3.4808  -3.2546  -3.2427  -3.1924  -3.1887
    -3.1266  -3.1210  -3.0758  -3.0634  -3.0341  -3.0187  -2.9212  -2.9094
    -2.8646  -2.8238  -2.8166  -2.7821  -2.7219  -2.6973  -2.6199  -2.6003
    -2.5940  -2.5914  -2.5894  -2.5736  -2.5167  -2.4723  -2.4699  -2.4566
    -2.4213  -2.4060  -2.3911  -2.3820  -2.3648  -2.3463  -2.3366  -2.3244
    -2.3094  -2.3042  -2.2575  -2.2330  -2.2005  -2.1867  -2.0627  -2.0560
    -1.9778  -1.9734  -1.9127  -1.9041  -1.8886  -1.8758  -1.8367  -1.7510
    -1.7138  -1.7079  -1.6920  -1.5866  -1.5821  -1.5783  -1.5688  -1.4870
    -1.4467  -1.3902  -1.3810  -1.3704  -1.3238  -1.3058  -1.2715  -1.2539
     0.9720   0.9723   1.1286   1.1666   1.1822   1.1864   1.1955   1.2173
     1.2189   1.2214   1.3403   1.3415   3.4824   3.4846   3.4873   3.5521
     3.5571   3.5579   3.6082   3.6113   3.6232   3.6583   3.6643   3.7057
     5.4305   5.5787   5.6562   5.6717   5.7125   5.7273   5.7450   5.7811
     5.7990   5.8222   5.8842   5.8992   5.9066   5.9382   5.9568   5.9712
     6.0101   6.0282   6.0338   6.0406   6.0470   6.1077   6.1715   6.2437
     6.2647   6.2928   6.2964   6.3341

     occupation numbers 
     1.0000   1.0000   1.0000   1.0000   1.0000   1.0000   1.0000   1.0000
     1.0000   1.0000   1.0000   1.0000   1.0000   1.0000   1.0000   1.0000
     1.0000   1.0000   1.0000   1.0000   1.0000   1.0000   1.0000   1.0000
     1.0000   1.0000   1.0000   1.0000   1.0000   1.0000   1.0000   1.0000
     1.0000   1.0000   1.0000   1.0000   1.0000   1.0000   1.0000   1.0000
     1.0000   1.0000   1.0000   1.0000   1.0000   1.0000   1.0000   1.0000
     1.0000   1.0000   1.0000   1.0000   1.0000   1.0000   1.0000   1.0000
     1.0000   1.0000   1.0000   1.0000   1.0000   1.0000   1.0000   1.0000
     1.0000   1.0000   1.0000   1.0000   1.0000   1.0000   1.0000   1.0000
     1.0000   1.0000   1.0000   1.0000   1.0000   1.0000   1.0000   1.0000
     1.0000   1.0000   1.0000   1.0000   1.0000   1.0000   1.0000   1.0000
     1.0000   1.0000   1.0000   1.0000   1.0000   1.0000   1.0000   1.0000
     1.0000   1.0000   1.0000   1.0000   1.0000   1.0000   1.0000   1.0000
     1.0000   1.0000   1.0000   1.0000   1.0000   1.0000   1.0000   1.0000
     1.0000   1.0000   1.0000   1.0000   1.0000   1.0000   1.0000   1.0000
     1.0000   1.0000   1.0000   1.0000   1.0000   1.0000   1.0000   1.0000
     1.0000   1.0000   1.0000   1.0000   1.0000   1.0000   1.0000   1.0000
     1.0000   1.0000   1.0000   1.0000   1.0000   1.0000   1.0000   1.0000
     1.0000   1.0000   1.0000   1.0000   1.0000   1.0000   1.0000   1.0000
     1.0000   1.0000   1.0000   1.0000   1.0000   1.0000   1.0000   1.0000
     1.0000   1.0000   1.0000   1.0000   1.0000   1.0000   1.0000   1.0000
     1.0000   1.0000   1.0000   1.0000   1.0000   1.0000   1.0000   1.0000
     1.0000   1.0000   1.0000   1.0000   0.0000   0.0000   0.0000   0.0000
     0.0000   0.0000   0.0000   0.0000   0.0000   0.0000   0.0000   0.0000
     0.0000   0.0000   0.0000   0.0000   0.0000   0.0000   0.0000   0.0000
     0.0000   0.0000   0.0000   0.0000   0.0000   0.0000   0.0000   0.0000
     0.0000   0.0000   0.0000   0.0000   0.0000   0.0000   0.0000   0.0000
     0.0000   0.0000   0.0000   0.0000

          k =-0.5000 0.0000 0.5000 (160152 PWs)   bands (ev):

   -68.6320 -68.5356 -68.5356 -68.5321 -62.2536 -62.2484 -62.2484 -62.2281
   -40.0050 -39.9502 -39.9465 -39.8732 -39.8732 -39.8729 -39.8729 -39.8728
   -39.8728 -39.8697 -39.8696 -39.8696 -36.1359 -36.1359 -36.1358 -36.1320
   -36.1320 -36.1310 -36.1310 -36.1307 -36.1307 -36.1182 -36.1174 -36.0925
   -29.1652 -29.1652 -29.1643 -29.1643 -16.2020 -16.1897 -16.1869 -16.1865
   -16.1381 -16.0922 -16.0914 -16.0887 -16.0571 -16.0549 -16.0506 -16.0479
   -16.0471 -16.0377 -16.0273 -16.0238 -16.0231 -16.0181 -16.0131 -16.0131
   -16.0104 -16.0093 -16.0030 -16.0028 -12.6114 -12.6113 -12.6108 -12.6108
   -12.6103 -12.6103 -12.6098 -12.6097 -12.6090 -12.6090 -12.6077 -12.6077
    -6.5595  -6.4882  -6.4875  -6.4824  -6.0238  -5.9613  -5.9594  -5.9253
    -5.1130  -4.9897  -4.9856  -4.9853  -4.9669  -4.9656  -4.9600  -4.9594
    -4.9392  -4.8862  -4.8829  -4.8822  -4.8695  -4.8424  -4.8393  -4.8391
    -3.6990  -3.6744  -3.6729  -3.5889  -3.2082  -3.2062  -3.2046  -3.1939
    -3.1173  -3.1135  -3.1124  -3.0745  -2.9648  -2.9592  -2.9413  -2.9375
    -2.8245  -2.8057  -2.7842  -2.7477  -2.7356  -2.7319  -2.7021  -2.6991
    -2.5343  -2.5319  -2.5150  -2.5088  -2.5041  -2.4967  -2.4912  -2.4718
    -2.4276  -2.4191  -2.4145  -2.3808  -2.3644  -2.3620  -2.3547  -2.2751
    -2.2750  -2.2500  -2.2495  -2.2419  -2.2330  -2.2326  -2.1967  -2.1884
    -1.9292  -1.9137  -1.9096  -1.9008  -1.7782  -1.7469  -1.7388  -1.7364
    -1.7100  -1.6924  -1.6834  -1.6656  -1.6606  -1.6579  -1.6535  -1.5420
    -1.4507  -1.4037  -1.4035  -1.3701  -1.3201  -1.3127  -1.3115  -1.2912
     1.1283   1.1788   1.1798   1.1836   1.1879   1.1906   1.1970   1.1974
     1.2064   1.2431   1.2528   1.2569   3.4027   3.4040   3.4088   3.5189
     3.5288   3.5292   3.5350   3.5491   3.5986   3.6073   3.6074   3.7032
     5.5195   5.6617   5.6856   5.6984   5.7330   5.7485   5.7818   5.7978
     5.8459   5.8488   5.8642   5.8837   5.9536   5.9809   6.0088   6.0170
     6.0247   6.0249   6.0399   6.0632   6.1872   6.1884   6.1908   6.2432
     6.3324   6.3329   6.3477   6.3478

     occupation numbers 
     1.0000   1.0000   1.0000   1.0000   1.0000   1.0000   1.0000   1.0000
     1.0000   1.0000   1.0000   1.0000   1.0000   1.0000   1.0000   1.0000
     1.0000   1.0000   1.0000   1.0000   1.0000   1.0000   1.0000   1.0000
     1.0000   1.0000   1.0000   1.0000   1.0000   1.0000   1.0000   1.0000
     1.0000   1.0000   1.0000   1.0000   1.0000   1.0000   1.0000   1.0000
     1.0000   1.0000   1.0000   1.0000   1.0000   1.0000   1.0000   1.0000
     1.0000   1.0000   1.0000   1.0000   1.0000   1.0000   1.0000   1.0000
     1.0000   1.0000   1.0000   1.0000   1.0000   1.0000   1.0000   1.0000
     1.0000   1.0000   1.0000   1.0000   1.0000   1.0000   1.0000   1.0000
     1.0000   1.0000   1.0000   1.0000   1.0000   1.0000   1.0000   1.0000
     1.0000   1.0000   1.0000   1.0000   1.0000   1.0000   1.0000   1.0000
     1.0000   1.0000   1.0000   1.0000   1.0000   1.0000   1.0000   1.0000
     1.0000   1.0000   1.0000   1.0000   1.0000   1.0000   1.0000   1.0000
     1.0000   1.0000   1.0000   1.0000   1.0000   1.0000   1.0000   1.0000
     1.0000   1.0000   1.0000   1.0000   1.0000   1.0000   1.0000   1.0000
     1.0000   1.0000   1.0000   1.0000   1.0000   1.0000   1.0000   1.0000
     1.0000   1.0000   1.0000   1.0000   1.0000   1.0000   1.0000   1.0000
     1.0000   1.0000   1.0000   1.0000   1.0000   1.0000   1.0000   1.0000
     1.0000   1.0000   1.0000   1.0000   1.0000   1.0000   1.0000   1.0000
     1.0000   1.0000   1.0000   1.0000   1.0000   1.0000   1.0000   1.0000
     1.0000   1.0000   1.0000   1.0000   1.0000   1.0000   1.0000   1.0000
     1.0000   1.0000   1.0000   1.0000   1.0000   1.0000   1.0000   1.0000
     1.0000   1.0000   1.0000   1.0000   0.0000   0.0000   0.0000   0.0000
     0.0000   0.0000   0.0000   0.0000   0.0000   0.0000   0.0000   0.0000
     0.0000   0.0000   0.0000   0.0000   0.0000   0.0000   0.0000   0.0000
     0.0000   0.0000   0.0000   0.0000   0.0000   0.0000   0.0000   0.0000
     0.0000   0.0000   0.0000   0.0000   0.0000   0.0000   0.0000   0.0000
     0.0000   0.0000   0.0000   0.0000

          k = 0.2500 0.2500-0.2500 (160125 PWs)   bands (ev):

   -68.6320 -68.5356 -68.5356 -68.5321 -62.2536 -62.2484 -62.2484 -62.2281
   -40.0050 -39.9502 -39.9465 -39.8732 -39.8732 -39.8729 -39.8729 -39.8728
   -39.8728 -39.8697 -39.8696 -39.8696 -36.1359 -36.1359 -36.1358 -36.1320
   -36.1320 -36.1310 -36.1310 -36.1307 -36.1307 -36.1182 -36.1174 -36.0925
   -29.1652 -29.1652 -29.1643 -29.1643 -16.2229 -16.1835 -16.1803 -16.1773
   -16.1360 -16.0934 -16.0923 -16.0781 -16.0646 -16.0475 -16.0448 -16.0443
   -16.0392 -16.0391 -16.0386 -16.0376 -16.0341 -16.0251 -16.0235 -16.0120
   -16.0044 -16.0012 -15.9977 -15.9977 -12.6116 -12.6116 -12.6108 -12.6108
   -12.6106 -12.6103 -12.6098 -12.6097 -12.6090 -12.6088 -12.6081 -12.6071
    -6.7276  -6.4857  -6.4276  -6.4234  -6.0538  -6.0269  -6.0030  -5.6043
    -5.1367  -5.0125  -4.9984  -4.9760  -4.9735  -4.9677  -4.9574  -4.9557
    -4.9176  -4.8749  -4.8744  -4.8677  -4.8597  -4.8570  -4.8547  -4.8547
    -3.9913  -3.5954  -3.5856  -3.5126  -3.2693  -3.2637  -3.2310  -3.1949
    -3.0827  -3.0823  -3.0743  -3.0728  -3.0579  -2.9472  -2.9279  -2.9218
    -2.8785  -2.8586  -2.8570  -2.7026  -2.6614  -2.6385  -2.6324  -2.6281
    -2.6264  -2.6145  -2.6017  -2.5550  -2.5326  -2.5321  -2.4508  -2.4491
    -2.4403  -2.4274  -2.3992  -2.3978  -2.3849  -2.3737  -2.3668  -2.3650
    -2.3644  -2.2707  -2.1831  -2.1815  -2.1467  -2.1416  -2.1025  -1.9952
    -1.9583  -1.9302  -1.9239  -1.9220  -1.9004  -1.8949  -1.8651  -1.8187
    -1.8045  -1.6561  -1.6500  -1.6451  -1.5854  -1.5079  -1.5067  -1.4820
    -1.4434  -1.4299  -1.3560  -1.3488  -1.3455  -1.2983  -1.2937  -1.2667
     1.0283   1.0377   1.0523   1.0554   1.0575   1.0584   1.2853   1.2942
     1.3166   1.3177   1.3207   1.3218   3.5020   3.5169   3.5223   3.5429
     3.5629   3.5677   3.5777   3.5919   3.5941   3.5946   3.6886   3.6993
     5.4349   5.6052   5.6462   5.6994   5.7261   5.7455   5.7483   5.7655
     5.7841   5.8557   5.8774   5.8881   5.8979   5.9390   5.9747   5.9924
     6.0041   6.0250   6.0425   6.0866   6.0955   6.1751   6.1812   6.1959
     6.3307   6.3321   6.3371   6.3533

     occupation numbers 
     1.0000   1.0000   1.0000   1.0000   1.0000   1.0000   1.0000   1.0000
     1.0000   1.0000   1.0000   1.0000   1.0000   1.0000   1.0000   1.0000
     1.0000   1.0000   1.0000   1.0000   1.0000   1.0000   1.0000   1.0000
     1.0000   1.0000   1.0000   1.0000   1.0000   1.0000   1.0000   1.0000
     1.0000   1.0000   1.0000   1.0000   1.0000   1.0000   1.0000   1.0000
     1.0000   1.0000   1.0000   1.0000   1.0000   1.0000   1.0000   1.0000
     1.0000   1.0000   1.0000   1.0000   1.0000   1.0000   1.0000   1.0000
     1.0000   1.0000   1.0000   1.0000   1.0000   1.0000   1.0000   1.0000
     1.0000   1.0000   1.0000   1.0000   1.0000   1.0000   1.0000   1.0000
     1.0000   1.0000   1.0000   1.0000   1.0000   1.0000   1.0000   1.0000
     1.0000   1.0000   1.0000   1.0000   1.0000   1.0000   1.0000   1.0000
     1.0000   1.0000   1.0000   1.0000   1.0000   1.0000   1.0000   1.0000
     1.0000   1.0000   1.0000   1.0000   1.0000   1.0000   1.0000   1.0000
     1.0000   1.0000   1.0000   1.0000   1.0000   1.0000   1.0000   1.0000
     1.0000   1.0000   1.0000   1.0000   1.0000   1.0000   1.0000   1.0000
     1.0000   1.0000   1.0000   1.0000   1.0000   1.0000   1.0000   1.0000
     1.0000   1.0000   1.0000   1.0000   1.0000   1.0000   1.0000   1.0000
     1.0000   1.0000   1.0000   1.0000   1.0000   1.0000   1.0000   1.0000
     1.0000   1.0000   1.0000   1.0000   1.0000   1.0000   1.0000   1.0000
     1.0000   1.0000   1.0000   1.0000   1.0000   1.0000   1.0000   1.0000
     1.0000   1.0000   1.0000   1.0000   1.0000   1.0000   1.0000   1.0000
     1.0000   1.0000   1.0000   1.0000   1.0000   1.0000   1.0000   1.0000
     1.0000   1.0000   1.0000   1.0000   0.0000   0.0000   0.0000   0.0000
     0.0000   0.0000   0.0000   0.0000   0.0000   0.0000   0.0000   0.0000
     0.0000   0.0000   0.0000   0.0000   0.0000   0.0000   0.0000   0.0000
     0.0000   0.0000   0.0000   0.0000   0.0000   0.0000   0.0000   0.0000
     0.0000   0.0000   0.0000   0.0000   0.0000   0.0000   0.0000   0.0000
     0.0000   0.0000   0.0000   0.0000

          k =-0.5000-0.2500 0.2500 (160270 PWs)   bands (ev):

   -68.6320 -68.5356 -68.5356 -68.5321 -62.2536 -62.2484 -62.2484 -62.2281
   -40.0050 -39.9502 -39.9465 -39.8732 -39.8732 -39.8729 -39.8729 -39.8728
   -39.8728 -39.8697 -39.8696 -39.8696 -36.1359 -36.1359 -36.1358 -36.1320
   -36.1320 -36.1310 -36.1310 -36.1307 -36.1307 -36.1182 -36.1174 -36.0925
   -29.1652 -29.1652 -29.1643 -29.1643 -16.2086 -16.1968 -16.1768 -16.1744
   -16.1446 -16.1024 -16.0907 -16.0881 -16.0570 -16.0474 -16.0466 -16.0441
   -16.0377 -16.0368 -16.0368 -16.0327 -16.0293 -16.0181 -16.0131 -16.0111
   -16.0102 -16.0095 -16.0011 -16.0010 -12.6114 -12.6113 -12.6111 -12.6109
   -12.6107 -12.6106 -12.6095 -12.6094 -12.6094 -12.6088 -12.6079 -12.6071
    -6.6094  -6.5710  -6.3839  -6.3292  -6.1534  -6.1335  -5.8838  -5.8193
    -5.1100  -4.9942  -4.9937  -4.9904  -4.9821  -4.9735  -4.9584  -4.9578
    -4.9257  -4.8756  -4.8749  -4.8598  -4.8580  -4.8532  -4.8486  -4.8463
    -3.7969  -3.7375  -3.5294  -3.4925  -3.3001  -3.2761  -3.2340  -3.2168
    -3.0755  -3.0715  -3.0315  -3.0288  -3.0259  -3.0171  -2.9304  -2.9078
    -2.8410  -2.8012  -2.7867  -2.7568  -2.7141  -2.7084  -2.6357  -2.6299
    -2.6043  -2.5843  -2.5675  -2.5591  -2.5128  -2.4828  -2.4597  -2.4401
    -2.4170  -2.4157  -2.4144  -2.4037  -2.3830  -2.3564  -2.3379  -2.3354
    -2.3319  -2.2984  -2.2754  -2.2546  -2.2093  -2.1842  -2.0996  -2.0778
    -1.9374  -1.9293  -1.8755  -1.8691  -1.8671  -1.8610  -1.8127  -1.7426
    -1.7142  -1.6997  -1.6917  -1.6249  -1.6201  -1.6115  -1.5950  -1.4997
    -1.4407  -1.3939  -1.3887  -1.3759  -1.3415  -1.3306  -1.3206  -1.3073
     1.0569   1.0575   1.1630   1.1699   1.2131   1.2158   1.2168   1.2216
     1.2220   1.2243   1.3205   1.3217   3.4460   3.4567   3.4661   3.4712
     3.5021   3.5048   3.5444   3.5504   3.5716   3.5875   3.6250   3.6291
     5.4972   5.6579   5.6997   5.7180   5.7745   5.7870   5.8001   5.8126
     5.8409   5.8474   5.9034   5.9259   5.9549   5.9962   6.0116   6.0142
     6.0210   6.0281   6.0593   6.0710   6.0946   6.1112   6.1900   6.2344
     6.3003   6.3278   6.3720   6.3800

     occupation numbers 
     1.0000   1.0000   1.0000   1.0000   1.0000   1.0000   1.0000   1.0000
     1.0000   1.0000   1.0000   1.0000   1.0000   1.0000   1.0000   1.0000
     1.0000   1.0000   1.0000   1.0000   1.0000   1.0000   1.0000   1.0000
     1.0000   1.0000   1.0000   1.0000   1.0000   1.0000   1.0000   1.0000
     1.0000   1.0000   1.0000   1.0000   1.0000   1.0000   1.0000   1.0000
     1.0000   1.0000   1.0000   1.0000   1.0000   1.0000   1.0000   1.0000
     1.0000   1.0000   1.0000   1.0000   1.0000   1.0000   1.0000   1.0000
     1.0000   1.0000   1.0000   1.0000   1.0000   1.0000   1.0000   1.0000
     1.0000   1.0000   1.0000   1.0000   1.0000   1.0000   1.0000   1.0000
     1.0000   1.0000   1.0000   1.0000   1.0000   1.0000   1.0000   1.0000
     1.0000   1.0000   1.0000   1.0000   1.0000   1.0000   1.0000   1.0000
     1.0000   1.0000   1.0000   1.0000   1.0000   1.0000   1.0000   1.0000
     1.0000   1.0000   1.0000   1.0000   1.0000   1.0000   1.0000   1.0000
     1.0000   1.0000   1.0000   1.0000   1.0000   1.0000   1.0000   1.0000
     1.0000   1.0000   1.0000   1.0000   1.0000   1.0000   1.0000   1.0000
     1.0000   1.0000   1.0000   1.0000   1.0000   1.0000   1.0000   1.0000
     1.0000   1.0000   1.0000   1.0000   1.0000   1.0000   1.0000   1.0000
     1.0000   1.0000   1.0000   1.0000   1.0000   1.0000   1.0000   1.0000
     1.0000   1.0000   1.0000   1.0000   1.0000   1.0000   1.0000   1.0000
     1.0000   1.0000   1.0000   1.0000   1.0000   1.0000   1.0000   1.0000
     1.0000   1.0000   1.0000   1.0000   1.0000   1.0000   1.0000   1.0000
     1.0000   1.0000   1.0000   1.0000   1.0000   1.0000   1.0000   1.0000
     1.0000   1.0000   1.0000   1.0000   0.0000   0.0000   0.0000   0.0000
     0.0000   0.0000   0.0000   0.0000   0.0000   0.0000   0.0000   0.0000
     0.0000   0.0000   0.0000   0.0000   0.0000   0.0000   0.0000   0.0000
     0.0000   0.0000   0.0000   0.0000   0.0000   0.0000   0.0000   0.0000
     0.0000   0.0000   0.0000   0.0000   0.0000   0.0000   0.0000   0.0000
     0.0000   0.0000   0.0000   0.0000

          k = 0.5000-0.2500-0.2500 (160270 PWs)   bands (ev):

   -68.6320 -68.5356 -68.5356 -68.5321 -62.2536 -62.2484 -62.2484 -62.2281
   -40.0050 -39.9502 -39.9465 -39.8732 -39.8732 -39.8729 -39.8729 -39.8728
   -39.8728 -39.8697 -39.8696 -39.8696 -36.1359 -36.1359 -36.1358 -36.1320
   -36.1320 -36.1310 -36.1310 -36.1307 -36.1307 -36.1182 -36.1174 -36.0925
   -29.1652 -29.1652 -29.1643 -29.1643 -16.2086 -16.1968 -16.1768 -16.1743
   -16.1447 -16.1024 -16.0907 -16.0881 -16.0568 -16.0474 -16.0468 -16.0442
   -16.0377 -16.0368 -16.0368 -16.0327 -16.0293 -16.0181 -16.0131 -16.0111
   -16.0102 -16.0095 -16.0011 -16.0010 -12.6116 -12.6113 -12.6112 -12.6106
   -12.6104 -12.6104 -12.6101 -12.6098 -12.6092 -12.6080 -12.6078 -12.6076
    -6.6094  -6.5710  -6.3838  -6.3293  -6.1534  -6.1336  -5.8839  -5.8191
    -5.1095  -4.9946  -4.9936  -4.9906  -4.9824  -4.9734  -4.9581  -4.9581
    -4.9261  -4.8748  -4.8748  -4.8603  -4.8579  -4.8530  -4.8485  -4.8465
    -3.7959  -3.7417  -3.5312  -3.4728  -3.3073  -3.2975  -3.2294  -3.2165
    -3.0718  -3.0691  -3.0383  -3.0237  -3.0167  -3.0147  -2.9310  -2.9075
    -2.8559  -2.8020  -2.7880  -2.7691  -2.7097  -2.6941  -2.6371  -2.6282
    -2.5857  -2.5844  -2.5655  -2.5647  -2.5195  -2.4929  -2.4289  -2.4278
    -2.4213  -2.4175  -2.4137  -2.4103  -2.3994  -2.3514  -2.3392  -2.3367
    -2.3234  -2.3023  -2.3009  -2.2568  -2.2037  -2.1857  -2.0945  -2.0827
    -1.9346  -1.9303  -1.8763  -1.8676  -1.8648  -1.8592  -1.8067  -1.7440
    -1.7087  -1.7061  -1.6917  -1.6279  -1.6204  -1.6109  -1.5925  -1.5072
    -1.4377  -1.3884  -1.3875  -1.3781  -1.3460  -1.3308  -1.3217  -1.3045
     1.0570   1.0573   1.1632   1.1698   1.2128   1.2159   1.2167   1.2216
     1.2217   1.2248   1.3205   1.3218   3.4459   3.4570   3.4658   3.4714
     3.5019   3.5048   3.5447   3.5504   3.5726   3.5873   3.6198   3.6334
     5.5040   5.6585   5.7013   5.7225   5.7642   5.7839   5.7859   5.8105
     5.8272   5.8465   5.9093   5.9164   5.9441   5.9717   6.0091   6.0218
     6.0249   6.0508   6.0666   6.0955   6.1032   6.1290   6.1781   6.2500
     6.3037   6.3251   6.3821   6.3899

     occupation numbers 
     1.0000   1.0000   1.0000   1.0000   1.0000   1.0000   1.0000   1.0000
     1.0000   1.0000   1.0000   1.0000   1.0000   1.0000   1.0000   1.0000
     1.0000   1.0000   1.0000   1.0000   1.0000   1.0000   1.0000   1.0000
     1.0000   1.0000   1.0000   1.0000   1.0000   1.0000   1.0000   1.0000
     1.0000   1.0000   1.0000   1.0000   1.0000   1.0000   1.0000   1.0000
     1.0000   1.0000   1.0000   1.0000   1.0000   1.0000   1.0000   1.0000
     1.0000   1.0000   1.0000   1.0000   1.0000   1.0000   1.0000   1.0000
     1.0000   1.0000   1.0000   1.0000   1.0000   1.0000   1.0000   1.0000
     1.0000   1.0000   1.0000   1.0000   1.0000   1.0000   1.0000   1.0000
     1.0000   1.0000   1.0000   1.0000   1.0000   1.0000   1.0000   1.0000
     1.0000   1.0000   1.0000   1.0000   1.0000   1.0000   1.0000   1.0000
     1.0000   1.0000   1.0000   1.0000   1.0000   1.0000   1.0000   1.0000
     1.0000   1.0000   1.0000   1.0000   1.0000   1.0000   1.0000   1.0000
     1.0000   1.0000   1.0000   1.0000   1.0000   1.0000   1.0000   1.0000
     1.0000   1.0000   1.0000   1.0000   1.0000   1.0000   1.0000   1.0000
     1.0000   1.0000   1.0000   1.0000   1.0000   1.0000   1.0000   1.0000
     1.0000   1.0000   1.0000   1.0000   1.0000   1.0000   1.0000   1.0000
     1.0000   1.0000   1.0000   1.0000   1.0000   1.0000   1.0000   1.0000
     1.0000   1.0000   1.0000   1.0000   1.0000   1.0000   1.0000   1.0000
     1.0000   1.0000   1.0000   1.0000   1.0000   1.0000   1.0000   1.0000
     1.0000   1.0000   1.0000   1.0000   1.0000   1.0000   1.0000   1.0000
     1.0000   1.0000   1.0000   1.0000   1.0000   1.0000   1.0000   1.0000
     1.0000   1.0000   1.0000   1.0000   0.0000   0.0000   0.0000   0.0000
     0.0000   0.0000   0.0000   0.0000   0.0000   0.0000   0.0000   0.0000
     0.0000   0.0000   0.0000   0.0000   0.0000   0.0000   0.0000   0.0000
     0.0000   0.0000   0.0000   0.0000   0.0000   0.0000   0.0000   0.0000
     0.0000   0.0000   0.0000   0.0000   0.0000   0.0000   0.0000   0.0000
     0.0000   0.0000   0.0000   0.0000

          k =-0.5000 0.2500 0.5000 (160040 PWs)   bands (ev):

   -68.6320 -68.5356 -68.5356 -68.5321 -62.2536 -62.2484 -62.2484 -62.2281
   -40.0050 -39.9502 -39.9465 -39.8732 -39.8732 -39.8729 -39.8729 -39.8728
   -39.8728 -39.8697 -39.8696 -39.8696 -36.1359 -36.1359 -36.1358 -36.1320
   -36.1320 -36.1310 -36.1310 -36.1307 -36.1307 -36.1182 -36.1174 -36.0925
   -29.1652 -29.1652 -29.1643 -29.1643 -16.1958 -16.1869 -16.1837 -16.1837
   -16.1489 -16.1022 -16.1017 -16.0989 -16.0571 -16.0466 -16.0409 -16.0373
   -16.0368 -16.0361 -16.0272 -16.0239 -16.0230 -16.0182 -16.0139 -16.0131
   -16.0130 -16.0129 -16.0066 -16.0064 -12.6114 -12.6114 -12.6112 -12.6108
   -12.6108 -12.6106 -12.6101 -12.6096 -12.6090 -12.6081 -12.6078 -12.6071
    -6.5136  -6.4309  -6.4300  -6.4254  -6.0900  -6.0460  -6.0440  -6.0125
    -5.1197  -4.9889  -4.9847  -4.9844  -4.9838  -4.9803  -4.9746  -4.9746
    -4.9233  -4.8635  -4.8602  -4.8589  -4.8575  -4.8440  -4.8411  -4.8407
    -3.6405  -3.6240  -3.6226  -3.5450  -3.2951  -3.2862  -3.2827  -3.2543
    -3.0377  -3.0301  -3.0272  -3.0211  -2.9691  -2.9680  -2.9501  -2.9319
    -2.8010  -2.7618  -2.7471  -2.7381  -2.7263  -2.7211  -2.7008  -2.6959
    -2.5399  -2.5309  -2.5118  -2.5109  -2.5044  -2.5019  -2.4968  -2.4755
    -2.4584  -2.4466  -2.4294  -2.3942  -2.3834  -2.3747  -2.3657  -2.3344
    -2.3232  -2.3111  -2.3063  -2.2258  -2.2044  -2.1682  -2.1656  -2.1490
    -1.8919  -1.8807  -1.8799  -1.8779  -1.7565  -1.7404  -1.7343  -1.7317
    -1.7148  -1.7045  -1.6980  -1.6832  -1.6740  -1.6737  -1.6692  -1.5392
    -1.4519  -1.4039  -1.4030  -1.3880  -1.3626  -1.3567  -1.3535  -1.3394
     1.1661   1.2051   1.2135   1.2154   1.2195   1.2203   1.2222   1.2235
     1.2302   1.2451   1.2529   1.2569   3.3776   3.3883   3.3894   3.4292
     3.4629   3.4685   3.4826   3.5156   3.5227   3.5259   3.5531   3.6267
     5.5795   5.7404   5.7634   5.7744   5.7945   5.8210   5.8532   5.8613
     5.8662   5.8704   5.8842   5.9064   5.9738   6.0246   6.0304   6.0320
     6.0494   6.0839   6.1010   6.1257   6.1439   6.1684   6.1730   6.2069
     6.3532   6.3567   6.3674   6.3756

     occupation numbers 
     1.0000   1.0000   1.0000   1.0000   1.0000   1.0000   1.0000   1.0000
     1.0000   1.0000   1.0000   1.0000   1.0000   1.0000   1.0000   1.0000
     1.0000   1.0000   1.0000   1.0000   1.0000   1.0000   1.0000   1.0000
     1.0000   1.0000   1.0000   1.0000   1.0000   1.0000   1.0000   1.0000
     1.0000   1.0000   1.0000   1.0000   1.0000   1.0000   1.0000   1.0000
     1.0000   1.0000   1.0000   1.0000   1.0000   1.0000   1.0000   1.0000
     1.0000   1.0000   1.0000   1.0000   1.0000   1.0000   1.0000   1.0000
     1.0000   1.0000   1.0000   1.0000   1.0000   1.0000   1.0000   1.0000
     1.0000   1.0000   1.0000   1.0000   1.0000   1.0000   1.0000   1.0000
     1.0000   1.0000   1.0000   1.0000   1.0000   1.0000   1.0000   1.0000
     1.0000   1.0000   1.0000   1.0000   1.0000   1.0000   1.0000   1.0000
     1.0000   1.0000   1.0000   1.0000   1.0000   1.0000   1.0000   1.0000
     1.0000   1.0000   1.0000   1.0000   1.0000   1.0000   1.0000   1.0000
     1.0000   1.0000   1.0000   1.0000   1.0000   1.0000   1.0000   1.0000
     1.0000   1.0000   1.0000   1.0000   1.0000   1.0000   1.0000   1.0000
     1.0000   1.0000   1.0000   1.0000   1.0000   1.0000   1.0000   1.0000
     1.0000   1.0000   1.0000   1.0000   1.0000   1.0000   1.0000   1.0000
     1.0000   1.0000   1.0000   1.0000   1.0000   1.0000   1.0000   1.0000
     1.0000   1.0000   1.0000   1.0000   1.0000   1.0000   1.0000   1.0000
     1.0000   1.0000   1.0000   1.0000   1.0000   1.0000   1.0000   1.0000
     1.0000   1.0000   1.0000   1.0000   1.0000   1.0000   1.0000   1.0000
     1.0000   1.0000   1.0000   1.0000   1.0000   1.0000   1.0000   1.0000
     1.0000   1.0000   1.0000   1.0000   0.0000   0.0000   0.0000   0.0000
     0.0000   0.0000   0.0000   0.0000   0.0000   0.0000   0.0000   0.0000
     0.0000   0.0000   0.0000   0.0000   0.0000   0.0000   0.0000   0.0000
     0.0000   0.0000   0.0000   0.0000   0.0000   0.0000   0.0000   0.0000
     0.0000   0.0000   0.0000   0.0000   0.0000   0.0000   0.0000   0.0000
     0.0000   0.0000   0.0000   0.0000

     the Fermi energy is     2.2491 ev
     (compare with:     1.9524 eV, computed in scf)

     Writing all to output data dir /tmp/scratch/KVCr_FLIP_lcm/KVCr_FLIP_lcm.save/ :
     XML data file, pseudopotentials, collected wavefunctions

     init_run     :     11.18s CPU     12.12s WALL (       1 calls)
     electrons    :   1554.48s CPU   1827.46s WALL (       1 calls)

     Called by init_run:
     wfcinit      :      7.91s CPU      8.28s WALL (       1 calls)
     wfcinit:atom :      0.21s CPU      0.21s WALL (       3 calls)
     wfcinit:wfcr :     43.10s CPU     59.29s WALL (       3 calls)
     potinit      :      1.52s CPU      1.95s WALL (       1 calls)
     hinit0       :      1.03s CPU      1.07s WALL (       1 calls)

     Called by electrons:
     c_bands      :   1554.20s CPU   1827.16s WALL (       1 calls)
     v_of_rho     :      1.28s CPU      1.59s WALL (       1 calls)
     v_h          :      0.08s CPU      0.10s WALL (       1 calls)
     v_xc         :      1.20s CPU      1.49s WALL (       1 calls)

     Called by c_bands:
     init_us_2    :      0.90s CPU      0.97s WALL (       6 calls)
     cegterg      :   1334.64s CPU   1586.25s WALL (      18 calls)

     Called by sum_band:

     Called by *egterg:
     cdiaghg      :     20.69s CPU     26.02s WALL (     363 calls)
     cegterg:over :    126.61s CPU    130.51s WALL (     360 calls)
     cegterg:upda :     77.50s CPU     80.48s WALL (     360 calls)
     cegterg:last :    122.68s CPU    126.43s WALL (     111 calls)
     cdiaghg:chol :      2.02s CPU      2.08s WALL (     363 calls)
     cdiaghg:inve :      0.29s CPU      0.27s WALL (     363 calls)
     cdiaghg:para :      7.84s CPU     11.43s WALL (     726 calls)
     h_psi        :   1006.96s CPU   1257.87s WALL (     381 calls)
     g_psi        :      4.32s CPU      4.56s WALL (     360 calls)

     Called by h_psi:
     h_psi:calbec :    112.51s CPU    116.25s WALL (     381 calls)
     vloc_psi     :    767.60s CPU   1011.16s WALL (     381 calls)
                                        0.00s GPU  (     381 calls)
     add_vuspsi   :     99.96s CPU    102.77s WALL (     381 calls)
     vhpsi        :     23.40s CPU     24.11s WALL (     381 calls)

     General routines
     calbec       :    127.83s CPU    131.87s WALL (     765 calls)
     fft          :      0.76s CPU      1.09s WALL (      19 calls)
     fftw         :    653.85s CPU    894.61s WALL (   49844 calls)

     Parallel routines

     Hubbard U routines
     vhpsi        :     23.40s CPU     24.11s WALL (     381 calls)

     PWSCF        :  26m 7.69s CPU  30m45.98s WALL


   This run was terminated on:  13:19:57   3Oct2026            

=------------------------------------------------------------------------------=
   JOB DONE.
=------------------------------------------------------------------------------=
Note: The following floating-point exceptions are signalling: IEEE_UNDERFLOW_FLAG IEEE_DENORMAL
Note: The following floating-point exceptions are signalling: IEEE_UNDERFLOW_FLAG IEEE_DENORMAL
Note: The following floating-point exceptions are signalling: IEEE_UNDERFLOW_FLAG IEEE_DENORMAL
Note: The following floating-point exceptions are signalling: IEEE_UNDERFLOW_FLAG IEEE_DENORMAL
Note: The following floating-point exceptions are signalling: IEEE_UNDERFLOW_FLAG IEEE_DENORMAL
Note: The following floating-point exceptions are signalling: IEEE_UNDERFLOW_FLAG IEEE_DENORMAL
Note: The following floating-point exceptions are signalling: IEEE_UNDERFLOW_FLAG IEEE_DENORMAL
Note: The following floating-point exceptions are signalling: IEEE_UNDERFLOW_FLAG IEEE_DENORMAL
Note: The following floating-point exceptions are signalling: IEEE_DENORMAL
Note: The following floating-point exceptions are signalling: IEEE_UNDERFLOW_FLAG IEEE_DENORMAL
Note: The following floating-point exceptions are signalling: IEEE_UNDERFLOW_FLAG IEEE_DENORMAL
Note: The following floating-point exceptions are signalling: IEEE_UNDERFLOW_FLAG IEEE_DENORMAL
Note: The following floating-point exceptions are signalling: IEEE_UNDERFLOW_FLAG IEEE_DENORMAL
Note: The following floating-point exceptions are signalling: IEEE_UNDERFLOW_FLAG IEEE_DENORMAL
Note: The following floating-point exceptions are signalling: IEEE_UNDERFLOW_FLAG IEEE_DENORMAL
Note: The following floating-point exceptions are signalling: IEEE_UNDERFLOW_FLAG IEEE_DENORMAL
Note: The following floating-point exceptions are signalling: IEEE_DENORMAL
Note: The following floating-point exceptions are signalling: IEEE_UNDERFLOW_FLAG IEEE_DENORMAL
Note: The following floating-point exceptions are signalling: IEEE_UNDERFLOW_FLAG IEEE_DENORMAL
Note: The following floating-point exceptions are signalling: IEEE_UNDERFLOW_FLAG IEEE_DENORMAL
Note: The following floating-point exceptions are signalling: IEEE_UNDERFLOW_FLAG IEEE_DENORMAL
Note: The following floating-point exceptions are signalling: IEEE_UNDERFLOW_FLAG IEEE_DENORMAL
Note: The following floating-point exceptions are signalling: IEEE_DENORMAL
Note: The following floating-point exceptions are signalling: IEEE_DENORMAL
Note: The following floating-point exceptions are signalling: IEEE_UNDERFLOW_FLAG IEEE_DENORMAL
Note: The following floating-point exceptions are signalling: IEEE_UNDERFLOW_FLAG IEEE_DENORMAL
Note: The following floating-point exceptions are signalling: IEEE_UNDERFLOW_FLAG IEEE_DENORMAL
Note: The following floating-point exceptions are signalling: IEEE_UNDERFLOW_FLAG IEEE_DENORMAL
Note: The following floating-point exceptions are signalling: IEEE_UNDERFLOW_FLAG IEEE_DENORMAL
Note: The following floating-point exceptions are signalling: IEEE_UNDERFLOW_FLAG IEEE_DENORMAL
Note: The following floating-point exceptions are signalling: IEEE_UNDERFLOW_FLAG IEEE_DENORMAL
Note: The following floating-point exceptions are signalling: IEEE_UNDERFLOW_FLAG IEEE_DENORMAL
