
     Program PWSCF v.7.5 starts on  3Oct2026 at 12:42:49 

     This program is part of the open-source Quantum ESPRESSO suite
     for quantum simulation of materials; please cite
         "P. Giannozzi et al., J. Phys.:Condens. Matter 21 395502 (2009);
         "P. Giannozzi et al., J. Phys.:Condens. Matter 29 465901 (2017);
         "P. Giannozzi et al., J. Chem. Phys. 152 154105 (2020);
          URL http://www.quantum-espresso.org", 
     in publications or presentations arising from this work. More details at
     http://www.quantum-espresso.org/quote

     Parallel version (MPI & OpenMP), running on      64 processor cores
     Number of MPI processes:                64
     Threads/MPI process:                     1

     MPI processes distributed on     1 nodes
     695149 MiB available memory on the printing compute node when the environment starts

     Reading input from KVCr_FLIP_lcm.in

     Current dimensions of program PWSCF are:
     Max number of different atomic species (ntypx) = 10
     Max number of k-points (npk) =  40000
     Max angular momentum in pseudopotentials (lmaxx) =  4
     Message from routine setup:
     using ibrav=0 with symmetry is DISCOURAGED, use correct ibrav instead

     K-points division:     npool     =       4
     R & G space division:  proc/nbgrp/npool/nimage =      16
     Subspace diagonalization in iterative solution of the eigenvalue problem:
     one sub-group per band group will be used
     ELPA distributed-memory algorithm (size of sub-group:  2*  2 procs)


     Parallelization info
     --------------------
     sticks:   dense  smooth     PW     G-vecs:    dense   smooth      PW
     Min         891     891    228                80071    80071   10396
     Max         893     893    229                80074    80074   10401
     Sum       14273   14273   3657              1281167  1281167  166365

     Using Slab Decomposition



     bravais-lattice index     =            0
     lattice parameter (alat)  =      20.1821  a.u.
     unit-cell volume          =    8220.5409 (a.u.)^3
     number of atoms/cell      =           60
     number of atomic types    =            5
     number of electrons       =       360.00
     number of Kohn-Sham states=          216
     kinetic-energy cutoff     =     110.0000  Ry
     charge density cutoff     =     440.0000  Ry
     scf convergence threshold =      6.0E-06
     mixing beta               =       0.3000
     number of iterations used =            8  local-TF  mixing
     Exchange-correlation= PBE
                           (   1   4   3   4   0   0   0)
     Hubbard projectors: ortho-atomic
     Hubbard parameters of DFT+U (Dudarev formulation) in eV:
     U(V-3d) =  3.0000
     U(Cr-3d) =  3.0000

     Internal variables: lda_plus_u =T, lda_plus_u_kind = 0

     Internal variables: orbital_resolved =F, hub_pot_fix =F, apply_U = F

     celldm(1)=  20.182121  celldm(2)=   0.000000  celldm(3)=   0.000000
     celldm(4)=   0.000000  celldm(5)=   0.000000  celldm(6)=   0.000000

     crystal axes: (cart. coord. in units of alat)
               a(1) = (   1.000000   0.000000   0.000000 )  
               a(2) = (   0.000000   1.000000   0.000000 )  
               a(3) = (   0.000000   0.000000   1.000000 )  

     reciprocal axes: (cart. coord. in units 2 pi/alat)
               b(1) = (  1.000000  0.000000  0.000000 )  
               b(2) = (  0.000000  1.000000  0.000000 )  
               b(3) = (  0.000000  0.000000  1.000000 )  


     PseudoPot. # 1 for K  read from file:
     /data/pseudo/dojo_sr/K.upf
     MD5 check sum: 0aa97b2c023445f040759afc9fdb6c80
     Pseudo is Norm-conserving + core correction, Zval =  9.0
     Generated using ONCVPSP code by D. R. Hamann
     Using radial grid of 2222 points,  6 beta functions with: 
                l(1) =   0
                l(2) =   0
                l(3) =   1
                l(4) =   1
                l(5) =   2
                l(6) =   2

     PseudoPot. # 2 for V  read from file:
     /data/pseudo/dojo_sr/V.upf
     MD5 check sum: 40fb93c06b4f9d8c28c5ccd071294a04
     Pseudo is Norm-conserving + core correction, Zval = 13.0
     Generated using ONCVPSP code by D. R. Hamann
     Using radial grid of 1536 points,  6 beta functions with: 
                l(1) =   0
                l(2) =   0
                l(3) =   1
                l(4) =   1
                l(5) =   2
                l(6) =   2

     PseudoPot. # 3 for Cr read from file:
     /data/pseudo/dojo_sr/Cr.upf
     MD5 check sum: 41892f80c335c8b1e803fd21ab4016b0
     Pseudo is Norm-conserving + core correction, Zval = 14.0
     Generated using ONCVPSP code by D. R. Hamann
     Using radial grid of 1638 points,  6 beta functions with: 
                l(1) =   0
                l(2) =   0
                l(3) =   1
                l(4) =   1
                l(5) =   2
                l(6) =   2

     PseudoPot. # 4 for N  read from file:
     /data/pseudo/dojo_sr/N.upf
     MD5 check sum: d34365f73bb0e2ee98afc20ec3e87676
     Pseudo is Norm-conserving + core correction, Zval =  5.0
     Generated using ONCVPSP code by D. R. Hamann
     Using radial grid of 1058 points,  4 beta functions with: 
                l(1) =   0
                l(2) =   0
                l(3) =   1
                l(4) =   1

     PseudoPot. # 5 for C  read from file:
     /data/pseudo/dojo_sr/C.upf
     MD5 check sum: 34a24e64c0a39f27c6c36b90a16ac686
     Pseudo is Norm-conserving + core correction, Zval =  4.0
     Generated using ONCVPSP code by D. R. Hamann
     Using radial grid of 1248 points,  4 beta functions with: 
                l(1) =   0
                l(2) =   0
                l(3) =   1
                l(4) =   1

     atomic species   valence    mass     pseudopotential
     K                 9.00    39.09830     K ( 1.00)
     V                13.00    50.94150     V ( 1.00)
     Cr               14.00    51.99610     Cr( 1.00)
     N                 5.00    14.00700     N ( 1.00)
     C                 4.00    12.01100     C ( 1.00)

     Starting magnetic structure 
     atomic species   magnetization
     K               0.000
     V              -0.231
     Cr              0.214
     N               0.000
     C               0.000

      4 Sym. Ops. (no inversion) found


                                    s                        frac. trans.

      isym =  1     identity                                     

 cryst.   s( 1) = (     1          0          0      )
                  (     0          1          0      )
                  (     0          0          1      )

 cart.    s( 1) = (  1.0000000  0.0000000  0.0000000 )
                  (  0.0000000  1.0000000  0.0000000 )
                  (  0.0000000  0.0000000  1.0000000 )


      isym =  2     180 deg rotation - cart. axis [1,0,0]        

 cryst.   s( 2) = (     1          0          0      )
                  (     0         -1          0      )
                  (     0          0         -1      )

 cart.    s( 2) = (  1.0000000  0.0000000  0.0000000 )
                  (  0.0000000 -1.0000000  0.0000000 )
                  (  0.0000000  0.0000000 -1.0000000 )


      isym =  3     inv. 180 deg rotation - cart. axis [0,1,1]   

 cryst.   s( 3) = (     1          0          0      )
                  (     0          0         -1      )
                  (     0         -1          0      )

 cart.    s( 3) = (  1.0000000  0.0000000  0.0000000 )
                  (  0.0000000  0.0000000 -1.0000000 )
                  (  0.0000000 -1.0000000  0.0000000 )


      isym =  4     inv. 180 deg rotation - cart. axis [0,1,-1]  

 cryst.   s( 4) = (     1          0          0      )
                  (     0          0          1      )
                  (     0          1          0      )

 cart.    s( 4) = (  1.0000000  0.0000000  0.0000000 )
                  (  0.0000000  0.0000000  1.0000000 )
                  (  0.0000000  1.0000000  0.0000000 )


   Cartesian axes

     site n.     atom                  positions (alat units)
         1        K      tau(   1) = (   0.2501072   0.2499798   0.2499798  )
         2        K      tau(   2) = (   0.2501072   0.7500202   0.7500202  )
         3        K      tau(   3) = (   0.7500200   0.2500506   0.7499494  )
         4        K      tau(   4) = (   0.7500200   0.7499494   0.2500506  )
         5        V      tau(   5) = (   0.9991580   0.0000000   0.0000000  )
         6        V      tau(   6) = (   0.0000008   0.5000000   0.5000000  )
         7        V      tau(   7) = (   0.4999548   0.0000000   0.5000000  )
         8        V      tau(   8) = (   0.4999548   0.5000000   0.0000000  )
         9        Cr     tau(   9) = (   0.4986228   0.0000000   0.0000000  )
        10        Cr     tau(  10) = (   0.5000010   0.5000000   0.5000000  )
        11        Cr     tau(  11) = (   0.0000328   0.0000000   0.5000000  )
        12        Cr     tau(  12) = (   0.0000328   0.5000000   0.0000000  )
        13        N      tau(  13) = (   0.3103092   0.0000000   0.0000000  )
        14        C      tau(  14) = (   0.6906217   0.0000000   0.0000000  )
        15        C      tau(  15) = (   0.0000212   0.3073198   0.9999954  )
        16        C      tau(  16) = (   0.0000212   0.6926802   0.0000046  )
        17        C      tau(  17) = (   0.0000212   0.9999954   0.3073198  )
        18        C      tau(  18) = (   0.0000212   0.0000046   0.6926802  )
        19        C      tau(  19) = (   0.3073486   0.5000000   0.5000000  )
        20        C      tau(  20) = (   0.6926519   0.5000000   0.5000000  )
        21        C      tau(  21) = (   0.0000029   0.8073491   0.4999994  )
        22        C      tau(  22) = (   0.0000029   0.1926509   0.5000006  )
        23        C      tau(  23) = (   0.0000029   0.4999994   0.8073491  )
        24        C      tau(  24) = (   0.0000029   0.5000006   0.1926509  )
        25        C      tau(  25) = (   0.8073396   0.0000000   0.5000000  )
        26        C      tau(  26) = (   0.1926441   0.0000000   0.5000000  )
        27        C      tau(  27) = (   0.5000020   0.3073502   0.5000004  )
        28        C      tau(  28) = (   0.5000020   0.6926498   0.4999996  )
        29        C      tau(  29) = (   0.5004008   0.9999857   0.8071075  )
        30        C      tau(  30) = (   0.5004008   0.0000143   0.1928925  )
        31        C      tau(  31) = (   0.8073396   0.5000000   0.0000000  )
        32        C      tau(  32) = (   0.1926441   0.5000000   0.0000000  )
        33        C      tau(  33) = (   0.5004008   0.8071075   0.9999857  )
        34        C      tau(  34) = (   0.5004008   0.1928925   0.0000143  )
        35        C      tau(  35) = (   0.5000020   0.5000004   0.3073502  )
        36        C      tau(  36) = (   0.5000020   0.4999996   0.6926498  )
        37        C      tau(  37) = (   0.2006958   0.0000000   0.0000000  )
        38        N      tau(  38) = (   0.8000025   0.0000000   0.0000000  )
        39        N      tau(  39) = (   0.9995001   0.1978920   0.9999676  )
        40        N      tau(  40) = (   0.9995001   0.8021080   0.0000324  )
        41        N      tau(  41) = (   0.9995001   0.9999676   0.1978920  )
        42        N      tau(  42) = (   0.9995001   0.0000324   0.8021080  )
        43        N      tau(  43) = (   0.1979463   0.5000000   0.5000000  )
        44        N      tau(  44) = (   0.8020545   0.5000000   0.5000000  )
        45        N      tau(  45) = (   0.9999982   0.6979486   0.4999987  )
        46        N      tau(  46) = (   0.9999982   0.3020514   0.5000013  )
        47        N      tau(  47) = (   0.9999982   0.4999987   0.6979486  )
        48        N      tau(  48) = (   0.9999982   0.5000013   0.3020514  )
        49        N      tau(  49) = (   0.6979390   0.0000000   0.5000000  )
        50        N      tau(  50) = (   0.3020433   0.0000000   0.5000000  )
        51        N      tau(  51) = (   0.4999945   0.1979493   0.4999987  )
        52        N      tau(  52) = (   0.4999945   0.8020507   0.5000013  )
        53        N      tau(  53) = (   0.5001867   0.0000034   0.6977643  )
        54        N      tau(  54) = (   0.5001867   0.9999966   0.3022357  )
        55        N      tau(  55) = (   0.6979390   0.5000000   0.0000000  )
        56        N      tau(  56) = (   0.3020433   0.5000000   0.0000000  )
        57        N      tau(  57) = (   0.5001867   0.6977643   0.0000034  )
        58        N      tau(  58) = (   0.5001867   0.3022357   0.9999966  )
        59        N      tau(  59) = (   0.4999945   0.4999987   0.1979493  )
        60        N      tau(  60) = (   0.4999945   0.5000013   0.8020507  )

   Crystallographic axes

     site n.     atom                  positions (cryst. coord.)
         1        K      tau(   1) = (  0.2501072  0.2499798  0.2499798  )
         2        K      tau(   2) = (  0.2501072  0.7500202  0.7500202  )
         3        K      tau(   3) = (  0.7500200  0.2500506  0.7499494  )
         4        K      tau(   4) = (  0.7500200  0.7499494  0.2500506  )
         5        V      tau(   5) = (  0.9991580  0.0000000  0.0000000  )
         6        V      tau(   6) = (  0.0000008  0.5000000  0.5000000  )
         7        V      tau(   7) = (  0.4999548  0.0000000  0.5000000  )
         8        V      tau(   8) = (  0.4999548  0.5000000  0.0000000  )
         9        Cr     tau(   9) = (  0.4986228  0.0000000  0.0000000  )
        10        Cr     tau(  10) = (  0.5000010  0.5000000  0.5000000  )
        11        Cr     tau(  11) = (  0.0000328  0.0000000  0.5000000  )
        12        Cr     tau(  12) = (  0.0000328  0.5000000  0.0000000  )
        13        N      tau(  13) = (  0.3103092  0.0000000  0.0000000  )
        14        C      tau(  14) = (  0.6906217  0.0000000  0.0000000  )
        15        C      tau(  15) = (  0.0000212  0.3073198  0.9999954  )
        16        C      tau(  16) = (  0.0000212  0.6926802  0.0000046  )
        17        C      tau(  17) = (  0.0000212  0.9999954  0.3073198  )
        18        C      tau(  18) = (  0.0000212  0.0000046  0.6926802  )
        19        C      tau(  19) = (  0.3073486  0.5000000  0.5000000  )
        20        C      tau(  20) = (  0.6926519  0.5000000  0.5000000  )
        21        C      tau(  21) = (  0.0000029  0.8073491  0.4999994  )
        22        C      tau(  22) = (  0.0000029  0.1926509  0.5000006  )
        23        C      tau(  23) = (  0.0000029  0.4999994  0.8073491  )
        24        C      tau(  24) = (  0.0000029  0.5000006  0.1926509  )
        25        C      tau(  25) = (  0.8073396  0.0000000  0.5000000  )
        26        C      tau(  26) = (  0.1926441  0.0000000  0.5000000  )
        27        C      tau(  27) = (  0.5000020  0.3073502  0.5000004  )
        28        C      tau(  28) = (  0.5000020  0.6926498  0.4999996  )
        29        C      tau(  29) = (  0.5004008  0.9999857  0.8071075  )
        30        C      tau(  30) = (  0.5004008  0.0000143  0.1928925  )
        31        C      tau(  31) = (  0.8073396  0.5000000  0.0000000  )
        32        C      tau(  32) = (  0.1926441  0.5000000  0.0000000  )
        33        C      tau(  33) = (  0.5004008  0.8071075  0.9999857  )
        34        C      tau(  34) = (  0.5004008  0.1928925  0.0000143  )
        35        C      tau(  35) = (  0.5000020  0.5000004  0.3073502  )
        36        C      tau(  36) = (  0.5000020  0.4999996  0.6926498  )
        37        C      tau(  37) = (  0.2006958  0.0000000  0.0000000  )
        38        N      tau(  38) = (  0.8000025  0.0000000  0.0000000  )
        39        N      tau(  39) = (  0.9995001  0.1978920  0.9999676  )
        40        N      tau(  40) = (  0.9995001  0.8021080  0.0000324  )
        41        N      tau(  41) = (  0.9995001  0.9999676  0.1978920  )
        42        N      tau(  42) = (  0.9995001  0.0000324  0.8021080  )
        43        N      tau(  43) = (  0.1979463  0.5000000  0.5000000  )
        44        N      tau(  44) = (  0.8020545  0.5000000  0.5000000  )
        45        N      tau(  45) = (  0.9999982  0.6979486  0.4999987  )
        46        N      tau(  46) = (  0.9999982  0.3020514  0.5000013  )
        47        N      tau(  47) = (  0.9999982  0.4999987  0.6979486  )
        48        N      tau(  48) = (  0.9999982  0.5000013  0.3020514  )
        49        N      tau(  49) = (  0.6979390  0.0000000  0.5000000  )
        50        N      tau(  50) = (  0.3020433  0.0000000  0.5000000  )
        51        N      tau(  51) = (  0.4999945  0.1979493  0.4999987  )
        52        N      tau(  52) = (  0.4999945  0.8020507  0.5000013  )
        53        N      tau(  53) = (  0.5001867  0.0000034  0.6977643  )
        54        N      tau(  54) = (  0.5001867  0.9999966  0.3022357  )
        55        N      tau(  55) = (  0.6979390  0.5000000  0.0000000  )
        56        N      tau(  56) = (  0.3020433  0.5000000  0.0000000  )
        57        N      tau(  57) = (  0.5001867  0.6977643  0.0000034  )
        58        N      tau(  58) = (  0.5001867  0.3022357  0.9999966  )
        59        N      tau(  59) = (  0.4999945  0.4999987  0.1979493  )
        60        N      tau(  60) = (  0.4999945  0.5000013  0.8020507  )

     number of k points=     2  Gaussian smearing, width (Ry)=  0.0050
                       cart. coord. in units 2pi/alat
        k(    1) = (   0.2500000   0.2500000   0.2500000), wk =   0.5000000
        k(    2) = (   0.2500000   0.2500000  -0.2500000), wk =   0.5000000

                       cryst. coord.
        k(    1) = (   0.2500000   0.2500000   0.2500000), wk =   0.5000000
        k(    2) = (   0.2500000   0.2500000  -0.2500000), wk =   0.5000000

     Dense  grid:  1281167 G-vectors     FFT dimensions: ( 135, 135, 135)

     Dynamical RAM for                 wfc:      32.99 MB

     Dynamical RAM for     wfc (w. buffer):      32.99 MB

     Dynamical RAM for             U proj.:       6.11 MB

     Dynamical RAM for  U proj. (w. buff.):       6.11 MB

     Dynamical RAM for           str. fact:       6.11 MB

     Dynamical RAM for           local pot:       0.00 MB

     Dynamical RAM for          nlocal pot:      91.64 MB

     Dynamical RAM for                qrad:       8.42 MB

     Dynamical RAM for          rho,v,vnew:      14.84 MB

     Dynamical RAM for               rhoin:       4.95 MB

     Dynamical RAM for            rho*nmix:      39.10 MB

     Dynamical RAM for           G-vectors:       5.19 MB

     Dynamical RAM for          h,s,v(r/c):       2.14 MB

     Dynamical RAM for          <psi|beta>:       1.98 MB

     Dynamical RAM for                 psi:      65.98 MB

     Dynamical RAM for                hpsi:      65.98 MB

     Dynamical RAM for      wfcinit/wfcrot:      67.05 MB

     Estimated static dynamical RAM per process >     185.07 MB

     Estimated max dynamical RAM per process >     360.24 MB

     Estimated total dynamical RAM >      20.68 GB
     Generating pointlists ...
     new r_m :   0.1472 (alat units)  2.9717 (a.u.) for type    1
     new r_m :   0.0816 (alat units)  1.6464 (a.u.) for type    2
     new r_m :   0.0777 (alat units)  1.5677 (a.u.) for type    3
     new r_m :   0.0451 (alat units)  0.9103 (a.u.) for type    4
     new r_m :   0.0451 (alat units)  0.9103 (a.u.) for type    5

     Initial potential from superposition of free atoms

     starting charge     359.9119, renormalised to     360.0000

     HUBBARD ENERGY =    0.5292  (Ry)

     STARTING HUBBARD OCCUPATIONS:

     =================== HUBBARD OCCUPATIONS ===================
     ------------------------ ATOM    5 ------------------------
     Tr[ns(  5)] (up, down, total) =   0.00000  3.00000  3.00000
     Atomic magnetic moment for atom   5 =  -3.00000
     SPIN  1
     eigenvalues:
       0.000  0.000  0.000  0.000  0.000
     eigenvectors (columns):
       1.000  0.000  0.000  0.000  0.000
       0.000  1.000  0.000  0.000  0.000
       0.000  0.000  1.000  0.000  0.000
       0.000  0.000  0.000  1.000  0.000
       0.000  0.000  0.000  0.000  1.000
     occupation matrix ns (before diag.):
       0.000  0.000  0.000  0.000  0.000
       0.000  0.000  0.000  0.000  0.000
       0.000  0.000  0.000  0.000  0.000
       0.000  0.000  0.000  0.000  0.000
       0.000  0.000  0.000  0.000  0.000
     SPIN  2
     eigenvalues:
       0.600  0.600  0.600  0.600  0.600
     eigenvectors (columns):
       1.000  0.000  0.000  0.000  0.000
       0.000  1.000  0.000  0.000  0.000
       0.000  0.000  1.000  0.000  0.000
       0.000  0.000  0.000  1.000  0.000
       0.000  0.000  0.000  0.000  1.000
     occupation matrix ns (before diag.):
       0.600  0.000  0.000  0.000  0.000
       0.000  0.600  0.000  0.000  0.000
       0.000  0.000  0.600  0.000  0.000
       0.000  0.000  0.000  0.600  0.000
       0.000  0.000  0.000  0.000  0.600
     ------------------------ ATOM    6 ------------------------
     Tr[ns(  6)] (up, down, total) =   0.00000  3.00000  3.00000
     Atomic magnetic moment for atom   6 =  -3.00000
     SPIN  1
     eigenvalues:
       0.000  0.000  0.000  0.000  0.000
     eigenvectors (columns):
       1.000  0.000  0.000  0.000  0.000
       0.000  1.000  0.000  0.000  0.000
       0.000  0.000  1.000  0.000  0.000
       0.000  0.000  0.000  1.000  0.000
       0.000  0.000  0.000  0.000  1.000
     occupation matrix ns (before diag.):
       0.000  0.000  0.000  0.000  0.000
       0.000  0.000  0.000  0.000  0.000
       0.000  0.000  0.000  0.000  0.000
       0.000  0.000  0.000  0.000  0.000
       0.000  0.000  0.000  0.000  0.000
     SPIN  2
     eigenvalues:
       0.600  0.600  0.600  0.600  0.600
     eigenvectors (columns):
       1.000  0.000  0.000  0.000  0.000
       0.000  1.000  0.000  0.000  0.000
       0.000  0.000  1.000  0.000  0.000
       0.000  0.000  0.000  1.000  0.000
       0.000  0.000  0.000  0.000  1.000
     occupation matrix ns (before diag.):
       0.600  0.000  0.000  0.000  0.000
       0.000  0.600  0.000  0.000  0.000
       0.000  0.000  0.600  0.000  0.000
       0.000  0.000  0.000  0.600  0.000
       0.000  0.000  0.000  0.000  0.600
     ------------------------ ATOM    7 ------------------------
     Tr[ns(  7)] (up, down, total) =   0.00000  3.00000  3.00000
     Atomic magnetic moment for atom   7 =  -3.00000
     SPIN  1
     eigenvalues:
       0.000  0.000  0.000  0.000  0.000
     eigenvectors (columns):
       1.000  0.000  0.000  0.000  0.000
       0.000  1.000  0.000  0.000  0.000
       0.000  0.000  1.000  0.000  0.000
       0.000  0.000  0.000  1.000  0.000
       0.000  0.000  0.000  0.000  1.000
     occupation matrix ns (before diag.):
       0.000  0.000  0.000  0.000  0.000
       0.000  0.000  0.000  0.000  0.000
       0.000  0.000  0.000  0.000  0.000
       0.000  0.000  0.000  0.000  0.000
       0.000  0.000  0.000  0.000  0.000
     SPIN  2
     eigenvalues:
       0.600  0.600  0.600  0.600  0.600
     eigenvectors (columns):
       1.000  0.000  0.000  0.000  0.000
       0.000  1.000  0.000  0.000  0.000
       0.000  0.000  1.000  0.000  0.000
       0.000  0.000  0.000  1.000  0.000
       0.000  0.000  0.000  0.000  1.000
     occupation matrix ns (before diag.):
       0.600  0.000  0.000  0.000  0.000
       0.000  0.600  0.000  0.000  0.000
       0.000  0.000  0.600  0.000  0.000
       0.000  0.000  0.000  0.600  0.000
       0.000  0.000  0.000  0.000  0.600
     ------------------------ ATOM    8 ------------------------
     Tr[ns(  8)] (up, down, total) =   0.00000  3.00000  3.00000
     Atomic magnetic moment for atom   8 =  -3.00000
     SPIN  1
     eigenvalues:
       0.000  0.000  0.000  0.000  0.000
     eigenvectors (columns):
       1.000  0.000  0.000  0.000  0.000
       0.000  1.000  0.000  0.000  0.000
       0.000  0.000  1.000  0.000  0.000
       0.000  0.000  0.000  1.000  0.000
       0.000  0.000  0.000  0.000  1.000
     occupation matrix ns (before diag.):
       0.000  0.000  0.000  0.000  0.000
       0.000  0.000  0.000  0.000  0.000
       0.000  0.000  0.000  0.000  0.000
       0.000  0.000  0.000  0.000  0.000
       0.000  0.000  0.000  0.000  0.000
     SPIN  2
     eigenvalues:
       0.600  0.600  0.600  0.600  0.600
     eigenvectors (columns):
       1.000  0.000  0.000  0.000  0.000
       0.000  1.000  0.000  0.000  0.000
       0.000  0.000  1.000  0.000  0.000
       0.000  0.000  0.000  1.000  0.000
       0.000  0.000  0.000  0.000  1.000
     occupation matrix ns (before diag.):
       0.600  0.000  0.000  0.000  0.000
       0.000  0.600  0.000  0.000  0.000
       0.000  0.000  0.600  0.000  0.000
       0.000  0.000  0.000  0.600  0.000
       0.000  0.000  0.000  0.000  0.600
     ------------------------ ATOM    9 ------------------------
     Tr[ns(  9)] (up, down, total) =   5.00000  0.00000  5.00000
     Atomic magnetic moment for atom   9 =   5.00000
     SPIN  1
     eigenvalues:
       1.000  1.000  1.000  1.000  1.000
     eigenvectors (columns):
       1.000  0.000  0.000  0.000  0.000
       0.000  1.000  0.000  0.000  0.000
       0.000  0.000  1.000  0.000  0.000
       0.000  0.000  0.000  1.000  0.000
       0.000  0.000  0.000  0.000  1.000
     occupation matrix ns (before diag.):
       1.000  0.000  0.000  0.000  0.000
       0.000  1.000  0.000  0.000  0.000
       0.000  0.000  1.000  0.000  0.000
       0.000  0.000  0.000  1.000  0.000
       0.000  0.000  0.000  0.000  1.000
     SPIN  2
     eigenvalues:
       0.000  0.000  0.000  0.000  0.000
     eigenvectors (columns):
       1.000  0.000  0.000  0.000  0.000
       0.000  1.000  0.000  0.000  0.000
       0.000  0.000  1.000  0.000  0.000
       0.000  0.000  0.000  1.000  0.000
       0.000  0.000  0.000  0.000  1.000
     occupation matrix ns (before diag.):
       0.000  0.000  0.000  0.000  0.000
       0.000  0.000  0.000  0.000  0.000
       0.000  0.000  0.000  0.000  0.000
       0.000  0.000  0.000  0.000  0.000
       0.000  0.000  0.000  0.000  0.000
     ------------------------ ATOM   10 ------------------------
     Tr[ns( 10)] (up, down, total) =   5.00000  0.00000  5.00000
     Atomic magnetic moment for atom  10 =   5.00000
     SPIN  1
     eigenvalues:
       1.000  1.000  1.000  1.000  1.000
     eigenvectors (columns):
       1.000  0.000  0.000  0.000  0.000
       0.000  1.000  0.000  0.000  0.000
       0.000  0.000  1.000  0.000  0.000
       0.000  0.000  0.000  1.000  0.000
       0.000  0.000  0.000  0.000  1.000
     occupation matrix ns (before diag.):
       1.000  0.000  0.000  0.000  0.000
       0.000  1.000  0.000  0.000  0.000
       0.000  0.000  1.000  0.000  0.000
       0.000  0.000  0.000  1.000  0.000
       0.000  0.000  0.000  0.000  1.000
     SPIN  2
     eigenvalues:
       0.000  0.000  0.000  0.000  0.000
     eigenvectors (columns):
       1.000  0.000  0.000  0.000  0.000
       0.000  1.000  0.000  0.000  0.000
       0.000  0.000  1.000  0.000  0.000
       0.000  0.000  0.000  1.000  0.000
       0.000  0.000  0.000  0.000  1.000
     occupation matrix ns (before diag.):
       0.000  0.000  0.000  0.000  0.000
       0.000  0.000  0.000  0.000  0.000
       0.000  0.000  0.000  0.000  0.000
       0.000  0.000  0.000  0.000  0.000
       0.000  0.000  0.000  0.000  0.000
     ------------------------ ATOM   11 ------------------------
     Tr[ns( 11)] (up, down, total) =   5.00000  0.00000  5.00000
     Atomic magnetic moment for atom  11 =   5.00000
     SPIN  1
     eigenvalues:
       1.000  1.000  1.000  1.000  1.000
     eigenvectors (columns):
       1.000  0.000  0.000  0.000  0.000
       0.000  1.000  0.000  0.000  0.000
       0.000  0.000  1.000  0.000  0.000
       0.000  0.000  0.000  1.000  0.000
       0.000  0.000  0.000  0.000  1.000
     occupation matrix ns (before diag.):
       1.000  0.000  0.000  0.000  0.000
       0.000  1.000  0.000  0.000  0.000
       0.000  0.000  1.000  0.000  0.000
       0.000  0.000  0.000  1.000  0.000
       0.000  0.000  0.000  0.000  1.000
     SPIN  2
     eigenvalues:
       0.000  0.000  0.000  0.000  0.000
     eigenvectors (columns):
       1.000  0.000  0.000  0.000  0.000
       0.000  1.000  0.000  0.000  0.000
       0.000  0.000  1.000  0.000  0.000
       0.000  0.000  0.000  1.000  0.000
       0.000  0.000  0.000  0.000  1.000
     occupation matrix ns (before diag.):
       0.000  0.000  0.000  0.000  0.000
       0.000  0.000  0.000  0.000  0.000
       0.000  0.000  0.000  0.000  0.000
       0.000  0.000  0.000  0.000  0.000
       0.000  0.000  0.000  0.000  0.000
     ------------------------ ATOM   12 ------------------------
     Tr[ns( 12)] (up, down, total) =   5.00000  0.00000  5.00000
     Atomic magnetic moment for atom  12 =   5.00000
     SPIN  1
     eigenvalues:
       1.000  1.000  1.000  1.000  1.000
     eigenvectors (columns):
       1.000  0.000  0.000  0.000  0.000
       0.000  1.000  0.000  0.000  0.000
       0.000  0.000  1.000  0.000  0.000
       0.000  0.000  0.000  1.000  0.000
       0.000  0.000  0.000  0.000  1.000
     occupation matrix ns (before diag.):
       1.000  0.000  0.000  0.000  0.000
       0.000  1.000  0.000  0.000  0.000
       0.000  0.000  1.000  0.000  0.000
       0.000  0.000  0.000  1.000  0.000
       0.000  0.000  0.000  0.000  1.000
     SPIN  2
     eigenvalues:
       0.000  0.000  0.000  0.000  0.000
     eigenvectors (columns):
       1.000  0.000  0.000  0.000  0.000
       0.000  1.000  0.000  0.000  0.000
       0.000  0.000  1.000  0.000  0.000
       0.000  0.000  0.000  1.000  0.000
       0.000  0.000  0.000  0.000  1.000
     occupation matrix ns (before diag.):
       0.000  0.000  0.000  0.000  0.000
       0.000  0.000  0.000  0.000  0.000
       0.000  0.000  0.000  0.000  0.000
       0.000  0.000  0.000  0.000  0.000
       0.000  0.000  0.000  0.000  0.000

     Number of occupied Hubbard levels =   32.0000

     Atomic wfc used for Hubbard projectors are orthogonalized

     Starting wfcs are  292 randomized atomic wfcs

     total cpu time spent up to now is       12.1 secs

     per-process dynamical memory:   198.0 Mb

     Self-consistent Calculation

     iteration #  1     ecut=   110.00 Ry     beta= 0.30
     Davidson diagonalization with overlap

---- Real-time Memory Report at c_bands before calling an iterative solver
           457 MiB given to the printing process from OS
           193 MiB allocation reported by mallinfo(arena+hblkhd)
        679132 MiB available memory on the node where the printing process lives
------------------
     ethr =  1.00E-02,  avg # of iterations =  2.0

     =================== HUBBARD OCCUPATIONS ===================
     ------------------------ ATOM    5 ------------------------
     Tr[ns(  5)] (up, down, total) =   0.35942  2.92583  3.28525
     Atomic magnetic moment for atom   5 =  -2.56642
     SPIN  1
     eigenvalues:
       0.027  0.028  0.028  0.129  0.148
     eigenvectors (columns):
      -0.000 -0.000 -0.000  0.866  0.500
       0.000 -0.707  0.707 -0.000 -0.000
       1.000  0.000  0.000  0.000  0.001
       0.000  0.000  0.000  0.500 -0.866
      -0.000  0.707  0.707 -0.000  0.000
     occupation matrix ns (before diag.):
       0.134 -0.000  0.000 -0.008  0.000
      -0.000  0.028 -0.000  0.000  0.000
       0.000 -0.000  0.027 -0.000  0.000
      -0.008  0.000 -0.000  0.143 -0.000
       0.000  0.000  0.000 -0.000  0.028
     SPIN  2
     eigenvalues:
       0.197  0.237  0.826  0.828  0.837
     eigenvectors (columns):
       0.866  0.500 -0.000 -0.000  0.001
       0.000  0.000  0.707 -0.707  0.000
      -0.000  0.002  0.000  0.000 -1.000
       0.500 -0.866  0.000  0.000 -0.002
      -0.000 -0.000 -0.707 -0.707 -0.000
     occupation matrix ns (before diag.):
       0.207 -0.000 -0.001 -0.017  0.000
      -0.000  0.827 -0.000  0.000  0.001
      -0.001 -0.000  0.837  0.001  0.000
      -0.017  0.000  0.001  0.227 -0.000
       0.000  0.001  0.000 -0.000  0.827
     ------------------------ ATOM    6 ------------------------
     Tr[ns(  6)] (up, down, total) =   0.33697  2.89617  3.23313
     Atomic magnetic moment for atom   6 =  -2.55920
     SPIN  1
     eigenvalues:
       0.027  0.027  0.027  0.129  0.129
     eigenvectors (columns):
       0.000 -0.000 -0.000 -0.500 -0.866
       0.000  0.707 -0.707  0.000 -0.000
       1.000  0.000  0.000  0.000 -0.000
      -0.000  0.000  0.000  0.866 -0.500
      -0.000  0.707  0.707 -0.000  0.000
     occupation matrix ns (before diag.):
       0.129 -0.000 -0.000  0.000  0.000
      -0.000  0.027 -0.000  0.000 -0.000
      -0.000 -0.000  0.027  0.000  0.000
       0.000  0.000  0.000  0.129 -0.000
       0.000 -0.000  0.000 -0.000  0.027
     SPIN  2
     eigenvalues:
       0.196  0.196  0.835  0.835  0.835
     eigenvectors (columns):
       0.500  0.866 -0.000  0.000  0.000
       0.000 -0.000  0.000  0.707 -0.707
       0.000 -0.000  1.000  0.000  0.000
      -0.866  0.500  0.000 -0.000 -0.000
      -0.000 -0.000 -0.000  0.707  0.707
     occupation matrix ns (before diag.):
       0.196 -0.000 -0.000  0.000  0.000
      -0.000  0.835 -0.000  0.000 -0.000
      -0.000 -0.000  0.835  0.000  0.000
       0.000  0.000  0.000  0.196 -0.000
       0.000 -0.000  0.000 -0.000  0.835
     ------------------------ ATOM    7 ------------------------
     Tr[ns(  7)] (up, down, total) =   0.33805  2.90115  3.23920
     Atomic magnetic moment for atom   7 =  -2.56310
     SPIN  1
     eigenvalues:
       0.027  0.027  0.027  0.129  0.129
     eigenvectors (columns):
      -0.000 -0.000  0.000 -0.002  1.000
      -0.021 -0.000  1.000 -0.000 -0.000
      -0.000 -1.000 -0.000 -0.000 -0.000
       0.000  0.000 -0.000 -1.000 -0.002
       1.000 -0.000  0.021  0.000  0.000
     occupation matrix ns (before diag.):
       0.129 -0.000 -0.000 -0.000  0.000
      -0.000  0.027 -0.000  0.000  0.000
      -0.000 -0.000  0.027  0.000  0.000
      -0.000  0.000  0.000  0.129 -0.000
       0.000  0.000  0.000 -0.000  0.027
     SPIN  2
     eigenvalues:
       0.196  0.197  0.835  0.835  0.838
     eigenvectors (columns):
       0.016  1.000 -0.000  0.000  0.000
      -0.000  0.000  0.002  0.000 -1.000
      -0.000 -0.000  0.000  1.000  0.000
       1.000 -0.016  0.000  0.000 -0.000
       0.000 -0.000 -1.000  0.000 -0.002
     occupation matrix ns (before diag.):
       0.197 -0.000  0.000 -0.000  0.000
      -0.000  0.838 -0.000  0.000  0.000
       0.000 -0.000  0.835  0.000  0.000
      -0.000  0.000  0.000  0.196 -0.000
       0.000  0.000  0.000 -0.000  0.835
     ------------------------ ATOM    8 ------------------------
     Tr[ns(  8)] (up, down, total) =   0.33805  2.90115  3.23920
     Atomic magnetic moment for atom   8 =  -2.56310
     SPIN  1
     eigenvalues:
       0.027  0.027  0.027  0.129  0.129
     eigenvectors (columns):
       0.000  0.000 -0.000  0.867 -0.499
       1.000 -0.000  0.021 -0.000  0.000
       0.000  1.000  0.000 -0.000 -0.000
      -0.000 -0.000  0.000 -0.499 -0.867
      -0.021 -0.000  1.000  0.000  0.000
     occupation matrix ns (before diag.):
       0.129 -0.000 -0.000  0.000  0.000
      -0.000  0.027 -0.000  0.000  0.000
      -0.000 -0.000  0.027  0.000  0.000
       0.000  0.000  0.000  0.129 -0.000
       0.000  0.000  0.000 -0.000  0.027
     SPIN  2
     eigenvalues:
       0.196  0.197  0.835  0.835  0.838
     eigenvectors (columns):
       0.874  0.486  0.000  0.000  0.000
       0.000 -0.000 -1.000  0.000  0.002
       0.000  0.000 -0.000 -1.000  0.000
      -0.486  0.874 -0.000  0.000 -0.000
      -0.000  0.000  0.002  0.000  1.000
     occupation matrix ns (before diag.):
       0.196 -0.000 -0.000  0.000  0.000
      -0.000  0.835 -0.000  0.000  0.000
      -0.000 -0.000  0.835 -0.000  0.000
       0.000  0.000 -0.000  0.196 -0.000
       0.000  0.000  0.000 -0.000  0.838
     ------------------------ ATOM    9 ------------------------
     Tr[ns(  9)] (up, down, total) =   2.83339  0.45686  3.29025
     Atomic magnetic moment for atom   9 =   2.37653
     SPIN  1
     eigenvalues:
       0.331  0.368  0.705  0.713  0.716
     eigenvectors (columns):
      -0.500  0.866 -0.001  0.000  0.000
      -0.000  0.000 -0.000  0.707 -0.707
       0.002 -0.000 -1.000  0.000  0.000
       0.866  0.500  0.001 -0.000 -0.000
       0.000 -0.000  0.000  0.707  0.707
     occupation matrix ns (before diag.):
       0.359 -0.000  0.000  0.016  0.000
      -0.000  0.714 -0.000  0.000 -0.001
       0.000 -0.000  0.705 -0.001  0.000
       0.016  0.000 -0.001  0.340 -0.000
       0.000 -0.001  0.000 -0.000  0.714
     SPIN  2
     eigenvalues:
       0.023  0.023  0.024  0.184  0.203
     eigenvectors (columns):
       0.000 -0.000 -0.000  0.500  0.866
       0.000  0.707 -0.707 -0.000 -0.000
       1.000  0.000  0.000 -0.001  0.000
      -0.001  0.000  0.000 -0.866  0.500
      -0.000  0.707  0.707  0.000 -0.000
     occupation matrix ns (before diag.):
       0.198 -0.000 -0.000  0.008  0.000
      -0.000  0.023 -0.000  0.000 -0.000
      -0.000 -0.000  0.023  0.000  0.000
       0.008  0.000  0.000  0.189 -0.000
       0.000 -0.000  0.000 -0.000  0.023
     ------------------------ ATOM   10 ------------------------
     Tr[ns( 10)] (up, down, total) =   2.86673  0.48170  3.34843
     Atomic magnetic moment for atom  10 =   2.38504
     SPIN  1
     eigenvalues:
       0.371  0.371  0.708  0.708  0.708
     eigenvectors (columns):
       0.866  0.500 -0.000 -0.000 -0.000
      -0.000  0.000 -0.707  0.707 -0.000
      -0.000  0.000  0.000  0.000  1.000
       0.500 -0.866  0.000  0.000  0.000
      -0.000 -0.000 -0.707 -0.707  0.000
     occupation matrix ns (before diag.):
       0.371 -0.000 -0.000 -0.000  0.000
      -0.000  0.708 -0.000  0.000 -0.000
      -0.000 -0.000  0.708  0.000  0.000
      -0.000  0.000  0.000  0.371 -0.000
       0.000 -0.000  0.000 -0.000  0.708
     SPIN  2
     eigenvalues:
       0.024  0.024  0.024  0.205  0.205
     eigenvectors (columns):
      -0.000 -0.000  0.000 -0.866  0.500
       0.707 -0.707 -0.000  0.000 -0.000
      -0.000 -0.000  1.000 -0.000 -0.000
       0.000  0.000 -0.000 -0.500 -0.866
       0.707  0.707  0.000  0.000  0.000
     occupation matrix ns (before diag.):
       0.205 -0.000 -0.000 -0.000  0.000
      -0.000  0.024 -0.000  0.000 -0.000
      -0.000 -0.000  0.024  0.000  0.000
      -0.000  0.000  0.000  0.205 -0.000
       0.000 -0.000  0.000 -0.000  0.024
     ------------------------ ATOM   11 ------------------------
     Tr[ns( 11)] (up, down, total) =   2.86520  0.48090  3.34610
     Atomic magnetic moment for atom  11 =   2.38430
     SPIN  1
     eigenvalues:
       0.371  0.371  0.707  0.708  0.708
     eigenvectors (columns):
       0.899 -0.438 -0.000  0.000  0.000
       0.000 -0.000  1.000  0.000 -0.006
       0.000 -0.000  0.000 -1.000  0.000
       0.438  0.899  0.000  0.000 -0.000
      -0.000  0.000  0.006  0.000  1.000
     occupation matrix ns (before diag.):
       0.371 -0.000 -0.000 -0.000  0.000
      -0.000  0.707 -0.000  0.000 -0.000
      -0.000 -0.000  0.708 -0.000  0.000
      -0.000  0.000 -0.000  0.371 -0.000
       0.000 -0.000  0.000 -0.000  0.708
     SPIN  2
     eigenvalues:
       0.024  0.024  0.024  0.205  0.205
     eigenvectors (columns):
       0.000  0.000 -0.000 -0.982 -0.190
       1.000 -0.000  0.013  0.000  0.000
       0.000  1.000  0.000  0.000  0.000
      -0.000 -0.000  0.000 -0.190  0.982
      -0.013 -0.000  1.000 -0.000 -0.000
     occupation matrix ns (before diag.):
       0.205 -0.000 -0.000 -0.000  0.000
      -0.000  0.024 -0.000  0.000  0.000
      -0.000 -0.000  0.024  0.000  0.000
      -0.000  0.000  0.000  0.205 -0.000
       0.000  0.000  0.000 -0.000  0.024
     ------------------------ ATOM   12 ------------------------
     Tr[ns( 12)] (up, down, total) =   2.86520  0.48090  3.34610
     Atomic magnetic moment for atom  12 =   2.38430
     SPIN  1
     eigenvalues:
       0.371  0.371  0.707  0.708  0.708
     eigenvectors (columns):
       0.829 -0.560 -0.000 -0.000 -0.000
      -0.000 -0.000 -0.006 -0.000  1.000
      -0.000 -0.000  0.000 -1.000 -0.000
       0.560  0.829  0.000 -0.000  0.000
      -0.000  0.000 -1.000 -0.000 -0.006
     occupation matrix ns (before diag.):
       0.371 -0.000  0.000 -0.000  0.000
      -0.000  0.708 -0.000  0.000 -0.000
       0.000 -0.000  0.708  0.000  0.000
      -0.000  0.000  0.000  0.371 -0.000
       0.000 -0.000  0.000 -0.000  0.707
     SPIN  2
     eigenvalues:
       0.024  0.024  0.024  0.205  0.205
     eigenvectors (columns):
      -0.000  0.000  0.000 -0.655  0.755
      -0.013 -0.000  1.000 -0.000 -0.000
      -0.000 -1.000 -0.000 -0.000 -0.000
       0.000  0.000 -0.000 -0.755 -0.655
       1.000 -0.000  0.013  0.000  0.000
     occupation matrix ns (before diag.):
       0.205 -0.000  0.000 -0.000  0.000
      -0.000  0.024 -0.000  0.000  0.000
       0.000 -0.000  0.024  0.000  0.000
      -0.000  0.000  0.000  0.205 -0.000
       0.000  0.000  0.000 -0.000  0.024

     Number of occupied Hubbard levels =   26.3277

     HUBBARD ENERGY =    1.1099  (Ry)

     total cpu time spent up to now is       34.9 secs

     total energy              =   -2330.74292174 Ry
     estimated scf accuracy    <      16.89048019 Ry

     total magnetization       =     0.00 Bohr mag/cell
     absolute magnetization    =    22.74 Bohr mag/cell

     iteration #  2     ecut=   110.00 Ry     beta= 0.30
     Davidson diagonalization with overlap

---- Real-time Memory Report at c_bands before calling an iterative solver
           508 MiB given to the printing process from OS
           245 MiB allocation reported by mallinfo(arena+hblkhd)
        678602 MiB available memory on the node where the printing process lives
------------------
     ethr =  4.69E-03,  avg # of iterations =  1.0

     =================== HUBBARD OCCUPATIONS ===================
     ------------------------ ATOM    5 ------------------------
     Tr[ns(  5)] (up, down, total) =   0.35201  3.06702  3.41903
     Atomic magnetic moment for atom   5 =  -2.71500
     SPIN  1
     eigenvalues:
       0.021  0.022  0.022  0.134  0.153
     eigenvectors (columns):
      -0.000 -0.000 -0.000  0.866  0.500
       0.000 -0.707  0.707 -0.000 -0.000
       1.000  0.000  0.000  0.000  0.001
       0.001  0.000  0.000  0.500 -0.866
      -0.000  0.707  0.707 -0.000  0.000
     occupation matrix ns (before diag.):
       0.139 -0.000  0.000 -0.008  0.000
      -0.000  0.022 -0.000  0.000  0.000
       0.000 -0.000  0.021 -0.000  0.000
      -0.008  0.000 -0.000  0.148 -0.000
       0.000  0.000  0.000 -0.000  0.022
     SPIN  2
     eigenvalues:
       0.184  0.218  0.885  0.885  0.895
     eigenvectors (columns):
       0.866  0.500 -0.000 -0.000  0.001
       0.000  0.000  0.707 -0.707  0.000
      -0.000  0.002  0.000  0.000 -1.000
       0.500 -0.866  0.000  0.000 -0.001
      -0.000 -0.000 -0.707 -0.707 -0.000
     occupation matrix ns (before diag.):
       0.192 -0.000 -0.001 -0.015  0.000
      -0.000  0.885 -0.000  0.000  0.000
      -0.001 -0.000  0.895  0.001  0.000
      -0.015  0.000  0.001  0.210 -0.000
       0.000  0.000  0.000 -0.000  0.885
     ------------------------ ATOM    6 ------------------------
     Tr[ns(  6)] (up, down, total) =   0.32978  3.04721  3.37698
     Atomic magnetic moment for atom   6 =  -2.71743
     SPIN  1
     eigenvalues:
       0.021  0.021  0.021  0.133  0.134
     eigenvectors (columns):
      -0.000 -0.000 -0.000  0.500 -0.866
       0.707 -0.000 -0.707 -0.000  0.000
      -0.000 -1.000  0.000 -0.000 -0.000
       0.000  0.000  0.000 -0.866 -0.500
       0.707 -0.000  0.707  0.000  0.000
     occupation matrix ns (before diag.):
       0.134 -0.000 -0.000  0.000  0.000
      -0.000  0.021 -0.000  0.000 -0.000
      -0.000 -0.000  0.021  0.000  0.000
       0.000  0.000  0.000  0.134 -0.000
       0.000 -0.000  0.000 -0.000  0.021
     SPIN  2
     eigenvalues:
       0.183  0.183  0.894  0.894  0.894
     eigenvectors (columns):
       0.866  0.500 -0.000 -0.000  0.000
       0.000  0.000  0.707 -0.707  0.000
      -0.000  0.000  0.000  0.000 -1.000
       0.500 -0.866  0.000  0.000 -0.000
      -0.000 -0.000 -0.707 -0.707 -0.000
     occupation matrix ns (before diag.):
       0.183 -0.000 -0.000 -0.000  0.000
      -0.000  0.894 -0.000  0.000  0.000
      -0.000 -0.000  0.894  0.000  0.000
      -0.000  0.000  0.000  0.183 -0.000
       0.000  0.000  0.000 -0.000  0.894
     ------------------------ ATOM    7 ------------------------
     Tr[ns(  7)] (up, down, total) =   0.33015  3.05063  3.38078
     Atomic magnetic moment for atom   7 =  -2.72049
     SPIN  1
     eigenvalues:
       0.021  0.021  0.021  0.134  0.134
     eigenvectors (columns):
       0.000 -0.000 -0.000 -0.055 -0.998
       0.999  0.044  0.000  0.000  0.000
       0.000 -0.000 -1.000  0.000  0.000
      -0.000  0.000  0.000  0.998 -0.055
      -0.044  0.999 -0.000 -0.000 -0.000
     occupation matrix ns (before diag.):
       0.134 -0.000 -0.000  0.000  0.000
      -0.000  0.021 -0.000  0.000  0.000
      -0.000 -0.000  0.021  0.000  0.000
       0.000  0.000  0.000  0.134 -0.000
       0.000  0.000  0.000 -0.000  0.021
     SPIN  2
     eigenvalues:
       0.183  0.184  0.893  0.895  0.896
     eigenvectors (columns):
      -0.015  1.000 -0.000  0.000  0.000
      -0.000  0.000  0.028 -1.000 -0.000
      -0.000 -0.000  0.000 -0.000  1.000
       1.000  0.015  0.000 -0.000  0.000
       0.000 -0.000 -1.000 -0.028  0.000
     occupation matrix ns (before diag.):
       0.184 -0.000  0.000  0.000  0.000
      -0.000  0.895 -0.000  0.000  0.000
       0.000 -0.000  0.896  0.000  0.000
       0.000  0.000  0.000  0.183 -0.000
       0.000  0.000  0.000 -0.000  0.893
     ------------------------ ATOM    8 ------------------------
     Tr[ns(  8)] (up, down, total) =   0.33015  3.05063  3.38078
     Atomic magnetic moment for atom   8 =  -2.72049
     SPIN  1
     eigenvalues:
       0.021  0.021  0.021  0.134  0.134
     eigenvectors (columns):
      -0.000  0.000 -0.000 -0.837 -0.547
      -0.044  0.999  0.000  0.000 -0.000
      -0.000  0.000 -1.000  0.000 -0.000
       0.000 -0.000  0.000  0.547 -0.837
       0.999  0.044 -0.000 -0.000  0.000
     occupation matrix ns (before diag.):
       0.134 -0.000 -0.000  0.000  0.000
      -0.000  0.021 -0.000  0.000  0.000
      -0.000 -0.000  0.021  0.000  0.000
       0.000  0.000  0.000  0.134 -0.000
       0.000  0.000  0.000 -0.000  0.021
     SPIN  2
     eigenvalues:
       0.183  0.184  0.893  0.895  0.896
     eigenvectors (columns):
      -0.858  0.513  0.000  0.000 -0.000
      -0.000 -0.000 -1.000  0.028 -0.000
      -0.000  0.000 -0.000 -0.000  1.000
       0.513  0.858 -0.000 -0.000 -0.000
       0.000  0.000  0.028  1.000  0.000
     occupation matrix ns (before diag.):
       0.183 -0.000 -0.000  0.000  0.000
      -0.000  0.893 -0.000  0.000  0.000
      -0.000 -0.000  0.896 -0.000  0.000
       0.000  0.000 -0.000  0.183 -0.000
       0.000  0.000  0.000 -0.000  0.895
     ------------------------ ATOM    9 ------------------------
     Tr[ns(  9)] (up, down, total) =   3.02831  0.49207  3.52038
     Atomic magnetic moment for atom   9 =   2.53624
     SPIN  1
     eigenvalues:
       0.324  0.362  0.771  0.785  0.786
     eigenvectors (columns):
      -0.500  0.866 -0.000  0.000  0.000
      -0.000  0.000 -0.000  0.707 -0.707
       0.000 -0.000 -1.000  0.000  0.000
       0.866  0.500  0.000 -0.000 -0.000
       0.000 -0.000  0.000  0.707  0.707
     occupation matrix ns (before diag.):
       0.353 -0.000  0.000  0.016  0.000
      -0.000  0.785 -0.000  0.000 -0.000
       0.000 -0.000  0.771 -0.000  0.000
       0.016  0.000 -0.000  0.334 -0.000
       0.000 -0.000  0.000 -0.000  0.785
     SPIN  2
     eigenvalues:
       0.021  0.023  0.023  0.201  0.223
     eigenvectors (columns):
       0.000 -0.000 -0.000  0.500  0.866
       0.000  0.707 -0.707 -0.000 -0.000
       1.000  0.000  0.000 -0.001  0.000
      -0.001  0.000  0.000 -0.866  0.500
      -0.000  0.707  0.707  0.000 -0.000
     occupation matrix ns (before diag.):
       0.218 -0.000 -0.000  0.010  0.000
      -0.000  0.023 -0.000  0.000 -0.000
      -0.000 -0.000  0.021  0.000  0.000
       0.010  0.000  0.000  0.207 -0.000
       0.000 -0.000  0.000 -0.000  0.023
     ------------------------ ATOM   10 ------------------------
     Tr[ns( 10)] (up, down, total) =   3.05290  0.51716  3.57006
     Atomic magnetic moment for atom  10 =   2.53574
     SPIN  1
     eigenvalues:
       0.365  0.365  0.774  0.774  0.775
     eigenvectors (columns):
       0.866  0.500 -0.000 -0.000 -0.000
      -0.000  0.000  0.707 -0.707  0.000
      -0.000 -0.000  0.000  0.000 -1.000
       0.500 -0.866  0.000  0.000  0.000
      -0.000 -0.000 -0.707 -0.707 -0.000
     occupation matrix ns (before diag.):
       0.365 -0.000  0.000 -0.000  0.000
      -0.000  0.774 -0.000  0.000  0.000
       0.000 -0.000  0.775 -0.000  0.000
      -0.000  0.000 -0.000  0.365 -0.000
       0.000  0.000  0.000 -0.000  0.774
     SPIN  2
     eigenvalues:
       0.022  0.022  0.022  0.225  0.225
     eigenvectors (columns):
       0.000  0.000 -0.000  0.866 -0.500
       0.000  0.707 -0.707 -0.000  0.000
       1.000  0.000  0.000  0.000  0.000
      -0.000  0.000  0.000  0.500  0.866
      -0.000  0.707  0.707 -0.000 -0.000
     occupation matrix ns (before diag.):
       0.225 -0.000 -0.000 -0.000  0.000
      -0.000  0.022 -0.000  0.000 -0.000
      -0.000 -0.000  0.022  0.000  0.000
      -0.000  0.000  0.000  0.225 -0.000
       0.000 -0.000  0.000 -0.000  0.022
     ------------------------ ATOM   11 ------------------------
     Tr[ns( 11)] (up, down, total) =   3.05273  0.51691  3.56965
     Atomic magnetic moment for atom  11 =   2.53582
     SPIN  1
     eigenvalues:
       0.365  0.365  0.774  0.774  0.775
     eigenvectors (columns):
       0.967 -0.256 -0.000 -0.000 -0.000
       0.000 -0.000 -0.000 -0.041  0.999
      -0.000 -0.000 -1.000 -0.000 -0.000
       0.256  0.967 -0.000  0.000  0.000
      -0.000  0.000  0.000 -0.999 -0.041
     occupation matrix ns (before diag.):
       0.365 -0.000  0.000 -0.000  0.000
      -0.000  0.775 -0.000  0.000 -0.000
       0.000 -0.000  0.774  0.000  0.000
      -0.000  0.000  0.000  0.365 -0.000
       0.000 -0.000  0.000 -0.000  0.774
     SPIN  2
     eigenvalues:
       0.022  0.022  0.022  0.225  0.225
     eigenvectors (columns):
       0.000 -0.000  0.000 -0.997  0.074
       0.000 -0.021  1.000  0.000  0.000
       1.000  0.000 -0.000  0.000 -0.000
       0.000  0.000 -0.000  0.074  0.997
      -0.000  1.000  0.021 -0.000 -0.000
     occupation matrix ns (before diag.):
       0.225 -0.000 -0.000  0.000  0.000
      -0.000  0.022 -0.000  0.000  0.000
      -0.000 -0.000  0.022 -0.000  0.000
       0.000  0.000 -0.000  0.225 -0.000
       0.000  0.000  0.000 -0.000  0.022
     ------------------------ ATOM   12 ------------------------
     Tr[ns( 12)] (up, down, total) =   3.05273  0.51691  3.56965
     Atomic magnetic moment for atom  12 =   2.53582
     SPIN  1
     eigenvalues:
       0.365  0.365  0.774  0.774  0.775
     eigenvectors (columns):
       0.705 -0.709  0.000 -0.000  0.000
      -0.000 -0.000 -0.000  0.999 -0.041
       0.000 -0.000 -1.000 -0.000  0.000
       0.709  0.705  0.000  0.000 -0.000
       0.000  0.000  0.000  0.041  0.999
     occupation matrix ns (before diag.):
       0.365 -0.000 -0.000 -0.000  0.000
      -0.000  0.774 -0.000  0.000 -0.000
      -0.000 -0.000  0.774 -0.000  0.000
      -0.000  0.000 -0.000  0.365 -0.000
       0.000 -0.000  0.000 -0.000  0.775
     SPIN  2
     eigenvalues:
       0.022  0.022  0.022  0.225  0.225
     eigenvectors (columns):
      -0.000  0.000 -0.000  0.434  0.901
       0.000  1.000  0.021  0.000 -0.000
       1.000 -0.000  0.000  0.000  0.000
      -0.000 -0.000  0.000  0.901 -0.434
      -0.000 -0.021  1.000 -0.000  0.000
     occupation matrix ns (before diag.):
       0.225 -0.000  0.000 -0.000  0.000
      -0.000  0.022 -0.000  0.000  0.000
       0.000 -0.000  0.022  0.000  0.000
      -0.000  0.000  0.000  0.225 -0.000
       0.000  0.000  0.000 -0.000  0.022

     Number of occupied Hubbard levels =   27.7873

     HUBBARD ENERGY =    1.0009  (Ry)

     total cpu time spent up to now is       52.6 secs

     total energy              =   -2326.73921167 Ry
     estimated scf accuracy    <       9.55582773 Ry

     total magnetization       =    -0.00 Bohr mag/cell
     absolute magnetization    =    24.19 Bohr mag/cell

     iteration #  3     ecut=   110.00 Ry     beta= 0.30
     Davidson diagonalization with overlap

---- Real-time Memory Report at c_bands before calling an iterative solver
           543 MiB given to the printing process from OS
           250 MiB allocation reported by mallinfo(arena+hblkhd)
        678470 MiB available memory on the node where the printing process lives
------------------
     ethr =  2.65E-03,  avg # of iterations =  7.2

     =================== HUBBARD OCCUPATIONS ===================
     ------------------------ ATOM    5 ------------------------
     Tr[ns(  5)] (up, down, total) =   0.40410  3.14235  3.54645
     Atomic magnetic moment for atom   5 =  -2.73826
     SPIN  1
     eigenvalues:
       0.022  0.022  0.022  0.168  0.170
     eigenvectors (columns):
       0.000 -0.000 -0.000  0.500  0.866
      -0.000 -0.707  0.707 -0.000 -0.000
      -1.000  0.000  0.000  0.001  0.000
      -0.001  0.000  0.000 -0.866  0.500
       0.000  0.707  0.707  0.000 -0.000
     occupation matrix ns (before diag.):
       0.170 -0.000  0.000  0.001  0.000
      -0.000  0.022 -0.000  0.000  0.000
       0.000 -0.000  0.022 -0.000  0.000
       0.001  0.000 -0.000  0.169 -0.000
       0.000  0.000  0.000 -0.000  0.022
     SPIN  2
     eigenvalues:
       0.231  0.262  0.882  0.883  0.885
     eigenvectors (columns):
       0.866  0.500 -0.000 -0.000 -0.001
       0.000  0.000 -0.707  0.707 -0.000
      -0.000  0.001  0.000  0.000  1.000
       0.500 -0.866  0.000  0.000  0.001
      -0.000 -0.000 -0.707 -0.707  0.000
     occupation matrix ns (before diag.):
       0.239 -0.000 -0.000 -0.013  0.000
      -0.000  0.883 -0.000  0.000 -0.000
      -0.000 -0.000  0.885  0.001  0.000
      -0.013  0.000  0.001  0.254 -0.000
       0.000 -0.000  0.000 -0.000  0.883
     ------------------------ ATOM    6 ------------------------
     Tr[ns(  6)] (up, down, total) =   0.41670  3.12521  3.54191
     Atomic magnetic moment for atom   6 =  -2.70851
     SPIN  1
     eigenvalues:
       0.022  0.022  0.022  0.176  0.176
     eigenvectors (columns):
       0.000 -0.000 -0.000 -0.500  0.866
      -0.000  0.707 -0.707  0.000 -0.000
      -1.000  0.000  0.000 -0.000  0.000
      -0.000  0.000  0.000  0.866  0.500
       0.000  0.707  0.707 -0.000 -0.000
     occupation matrix ns (before diag.):
       0.176 -0.000  0.000  0.000  0.000
      -0.000  0.022 -0.000  0.000 -0.000
       0.000 -0.000  0.022 -0.000  0.000
       0.000  0.000 -0.000  0.176 -0.000
       0.000 -0.000  0.000 -0.000  0.022
     SPIN  2
     eigenvalues:
       0.232  0.232  0.887  0.887  0.888
     eigenvectors (columns):
       0.866  0.500 -0.000 -0.000  0.000
      -0.000  0.000  0.707 -0.707  0.000
      -0.000  0.000  0.000  0.000 -1.000
       0.500 -0.866  0.000  0.000 -0.000
      -0.000 -0.000 -0.707 -0.707 -0.000
     occupation matrix ns (before diag.):
       0.232 -0.000 -0.000 -0.000  0.000
      -0.000  0.887 -0.000  0.000  0.000
      -0.000 -0.000  0.888  0.000  0.000
      -0.000  0.000  0.000  0.232 -0.000
       0.000  0.000  0.000 -0.000  0.887
     ------------------------ ATOM    7 ------------------------
     Tr[ns(  7)] (up, down, total) =   0.41530  3.12773  3.54303
     Atomic magnetic moment for atom   7 =  -2.71243
     SPIN  1
     eigenvalues:
       0.021  0.021  0.022  0.173  0.178
     eigenvectors (columns):
       0.000 -0.000 -0.000  0.145 -0.989
       0.000  0.104 -0.995 -0.000  0.000
      -1.000  0.000  0.000  0.000 -0.000
      -0.000  0.000  0.000 -0.989 -0.145
       0.000  0.995  0.104  0.000 -0.000
     occupation matrix ns (before diag.):
       0.178 -0.000  0.000  0.001  0.000
      -0.000  0.022 -0.000  0.000 -0.000
       0.000 -0.000  0.021 -0.000  0.000
       0.001  0.000 -0.000  0.173 -0.000
       0.000 -0.000  0.000 -0.000  0.021
     SPIN  2
     eigenvalues:
       0.231  0.232  0.885  0.888  0.891
     eigenvectors (columns):
      -0.096  0.995 -0.000  0.000  0.000
      -0.000  0.000  0.034  0.000 -0.999
       0.000 -0.000  0.000  1.000  0.000
       0.995  0.096  0.000 -0.000 -0.000
       0.000 -0.000 -0.999  0.000 -0.034
     occupation matrix ns (before diag.):
       0.232 -0.000  0.000  0.000  0.000
      -0.000  0.891 -0.000  0.000  0.000
       0.000 -0.000  0.888 -0.000  0.000
       0.000  0.000 -0.000  0.231 -0.000
       0.000  0.000  0.000 -0.000  0.885
     ------------------------ ATOM    8 ------------------------
     Tr[ns(  8)] (up, down, total) =   0.41530  3.12773  3.54303
     Atomic magnetic moment for atom   8 =  -2.71243
     SPIN  1
     eigenvalues:
       0.021  0.021  0.022  0.173  0.178
     eigenvectors (columns):
       0.000  0.000 -0.000 -0.784  0.620
      -0.000  0.995 -0.104  0.000  0.000
      -1.000 -0.000  0.000 -0.000 -0.000
      -0.000 -0.000  0.000  0.620  0.784
      -0.000  0.104  0.995 -0.000 -0.000
     occupation matrix ns (before diag.):
       0.175 -0.000  0.000  0.002  0.000
      -0.000  0.021 -0.000  0.000 -0.000
       0.000 -0.000  0.021 -0.000  0.000
       0.002  0.000 -0.000  0.176 -0.000
       0.000 -0.000  0.000 -0.000  0.022
     SPIN  2
     eigenvalues:
       0.231  0.232  0.885  0.888  0.891
     eigenvectors (columns):
      -0.814  0.581  0.000  0.000  0.000
      -0.000 -0.000 -0.999 -0.000  0.034
       0.000  0.000 -0.000  1.000  0.000
       0.581  0.814 -0.000 -0.000 -0.000
       0.000  0.000  0.034 -0.000  0.999
     occupation matrix ns (before diag.):
       0.232 -0.000  0.000  0.000  0.000
      -0.000  0.885 -0.000  0.000  0.000
       0.000 -0.000  0.888 -0.000  0.000
       0.000  0.000 -0.000  0.232 -0.000
       0.000  0.000  0.000 -0.000  0.891
     ------------------------ ATOM    9 ------------------------
     Tr[ns(  9)] (up, down, total) =   4.11577  1.16167  5.27744
     Atomic magnetic moment for atom   9 =   2.95410
     SPIN  1
     eigenvalues:
       0.591  0.638  0.961  0.962  0.963
     eigenvectors (columns):
       0.500  0.866 -0.000 -0.000  0.001
       0.000  0.000 -0.707  0.707 -0.000
      -0.001 -0.000  0.000  0.000  1.000
      -0.866  0.500  0.000  0.000 -0.001
      -0.000 -0.000 -0.707 -0.707  0.000
     occupation matrix ns (before diag.):
       0.627 -0.000  0.000  0.020  0.000
      -0.000  0.962 -0.000  0.000 -0.000
       0.000 -0.000  0.963 -0.000  0.000
       0.020  0.000 -0.000  0.603 -0.000
       0.000 -0.000  0.000 -0.000  0.962
     SPIN  2
     eigenvalues:
       0.125  0.126  0.130  0.337  0.445
     eigenvectors (columns):
      -0.000 -0.000 -0.002  0.500 -0.866
       0.707 -0.707  0.000 -0.000  0.000
      -0.000 -0.000 -1.000 -0.004 -0.000
       0.000  0.000  0.003 -0.866 -0.500
       0.707  0.707 -0.000  0.000  0.000
     occupation matrix ns (before diag.):
       0.418 -0.000 -0.000  0.047  0.000
      -0.000  0.125 -0.000  0.000 -0.000
      -0.000 -0.000  0.130  0.001  0.000
       0.047  0.000  0.001  0.364 -0.000
       0.000 -0.000  0.000 -0.000  0.125
     ------------------------ ATOM   10 ------------------------
     Tr[ns( 10)] (up, down, total) =   4.15881  1.22893  5.38774
     Atomic magnetic moment for atom  10 =   2.92988
     SPIN  1
     eigenvalues:
       0.636  0.637  0.962  0.962  0.962
     eigenvectors (columns):
       0.866  0.500 -0.000  0.000  0.000
       0.000  0.000 -0.000 -0.707  0.707
      -0.000 -0.000 -1.000  0.000  0.000
       0.500 -0.866  0.000 -0.000 -0.000
      -0.000 -0.000  0.000  0.707  0.707
     occupation matrix ns (before diag.):
       0.636 -0.000  0.000 -0.000  0.000
      -0.000  0.962 -0.000  0.000  0.000
       0.000 -0.000  0.962 -0.000  0.000
      -0.000  0.000 -0.000  0.636 -0.000
       0.000  0.000  0.000 -0.000  0.962
     SPIN  2
     eigenvalues:
       0.130  0.131  0.131  0.411  0.427
     eigenvectors (columns):
      -0.000 -0.000 -0.000  0.866 -0.500
      -0.707  0.707  0.000 -0.000  0.000
      -0.000 -0.000 -1.000  0.000  0.000
       0.000  0.000  0.000  0.500  0.866
       0.707  0.707 -0.000 -0.000 -0.000
     occupation matrix ns (before diag.):
       0.415 -0.000 -0.000 -0.007  0.000
      -0.000  0.130 -0.000  0.000  0.000
      -0.000 -0.000  0.131  0.000  0.000
      -0.007  0.000  0.000  0.423 -0.000
       0.000  0.000  0.000 -0.000  0.130
     ------------------------ ATOM   11 ------------------------
     Tr[ns( 11)] (up, down, total) =   4.15966  1.22559  5.38525
     Atomic magnetic moment for atom  11 =   2.93407
     SPIN  1
     eigenvalues:
       0.636  0.637  0.962  0.962  0.963
     eigenvectors (columns):
      -0.983  0.182 -0.000  0.000 -0.000
      -0.000 -0.000 -0.187  0.000  0.982
       0.000 -0.000  0.000  1.000 -0.000
       0.182  0.983  0.000  0.000  0.000
       0.000  0.000 -0.982  0.000 -0.187
     occupation matrix ns (before diag.):
       0.636 -0.000  0.000  0.000  0.000
      -0.000  0.963 -0.000  0.000 -0.000
       0.000 -0.000  0.962  0.000  0.000
       0.000  0.000  0.000  0.636 -0.000
       0.000 -0.000  0.000 -0.000  0.962
     SPIN  2
     eigenvalues:
       0.130  0.131  0.133  0.407  0.425
     eigenvectors (columns):
      -0.000  0.002  0.000 -0.800 -0.600
      -0.019 -0.000  1.000  0.000 -0.000
      -0.000 -1.000 -0.000 -0.001 -0.001
       0.000  0.001 -0.000  0.600 -0.800
       1.000 -0.000  0.019 -0.000  0.000
     occupation matrix ns (before diag.):
       0.413 -0.000  0.000  0.009  0.000
      -0.000  0.133 -0.000  0.000  0.000
       0.000 -0.000  0.131  0.000  0.000
       0.009  0.000  0.000  0.418 -0.000
       0.000  0.000  0.000 -0.000  0.130
     ------------------------ ATOM   12 ------------------------
     Tr[ns( 12)] (up, down, total) =   4.15966  1.22559  5.38525
     Atomic magnetic moment for atom  12 =   2.93407
     SPIN  1
     eigenvalues:
       0.636  0.637  0.962  0.962  0.963
     eigenvectors (columns):
       0.334  0.942 -0.000 -0.000  0.000
      -0.000  0.000  0.982 -0.000 -0.187
       0.000  0.000  0.000  1.000  0.000
       0.942 -0.334  0.000 -0.000 -0.000
       0.000 -0.000  0.187 -0.000  0.982
     occupation matrix ns (before diag.):
       0.636 -0.000 -0.000 -0.000  0.000
      -0.000  0.962 -0.000  0.000 -0.000
      -0.000 -0.000  0.962 -0.000  0.000
      -0.000  0.000 -0.000  0.636 -0.000
       0.000 -0.000  0.000 -0.000  0.963
     SPIN  2
     eigenvalues:
       0.130  0.131  0.133  0.407  0.425
     eigenvectors (columns):
      -0.000 -0.001 -0.000 -0.120 -0.993
      -1.000  0.000  0.019  0.000  0.000
      -0.000 -1.000  0.000 -0.001  0.001
       0.000 -0.001  0.000  0.993 -0.120
       0.019  0.000  1.000 -0.000 -0.000
     occupation matrix ns (before diag.):
       0.425 -0.000 -0.000  0.002  0.000
      -0.000  0.130 -0.000  0.000  0.000
      -0.000 -0.000  0.131 -0.000  0.000
       0.002  0.000 -0.000  0.407 -0.000
       0.000  0.000  0.000 -0.000  0.133

     Number of occupied Hubbard levels =   35.6101

     HUBBARD ENERGY =    1.0600  (Ry)

     total cpu time spent up to now is       76.3 secs

     total energy              =   -2329.11983701 Ry
     estimated scf accuracy    <       3.84652714 Ry

     total magnetization       =    -0.00 Bohr mag/cell
     absolute magnetization    =    27.59 Bohr mag/cell

     iteration #  4     ecut=   110.00 Ry     beta= 0.30
     Davidson diagonalization with overlap

---- Real-time Memory Report at c_bands before calling an iterative solver
           548 MiB given to the printing process from OS
           255 MiB allocation reported by mallinfo(arena+hblkhd)
        678543 MiB available memory on the node where the printing process lives
------------------
     ethr =  1.07E-03,  avg # of iterations =  2.0

     =================== HUBBARD OCCUPATIONS ===================
     ------------------------ ATOM    5 ------------------------
     Tr[ns(  5)] (up, down, total) =   0.41086  3.20404  3.61490
     Atomic magnetic moment for atom   5 =  -2.79318
     SPIN  1
     eigenvalues:
       0.022  0.023  0.024  0.170  0.172
     eigenvectors (columns):
      -0.000 -0.000  0.000 -0.866  0.500
      -0.707  0.707  0.000  0.000 -0.000
      -0.000 -0.000 -1.000 -0.000  0.001
       0.000  0.000 -0.001 -0.500 -0.866
       0.707  0.707 -0.000  0.000  0.000
     occupation matrix ns (before diag.):
       0.170 -0.000  0.000 -0.001  0.000
      -0.000  0.022 -0.000  0.000  0.000
       0.000 -0.000  0.024 -0.000  0.000
      -0.001  0.000 -0.000  0.172 -0.000
       0.000  0.000  0.000 -0.000  0.022
     SPIN  2
     eigenvalues:
       0.219  0.251  0.910  0.910  0.915
     eigenvectors (columns):
       0.866  0.500 -0.000 -0.000  0.001
       0.000  0.000  0.707 -0.707  0.000
      -0.000  0.001  0.000  0.000 -1.000
       0.500 -0.866  0.000  0.000 -0.001
      -0.000 -0.000 -0.707 -0.707 -0.000
     occupation matrix ns (before diag.):
       0.227 -0.000 -0.000 -0.014  0.000
      -0.000  0.910 -0.000  0.000  0.000
      -0.000 -0.000  0.915  0.001  0.000
      -0.014  0.000  0.001  0.243 -0.000
       0.000  0.000  0.000 -0.000  0.910
     ------------------------ ATOM    6 ------------------------
     Tr[ns(  6)] (up, down, total) =   0.42099  3.18609  3.60708
     Atomic magnetic moment for atom   6 =  -2.76510
     SPIN  1
     eigenvalues:
       0.024  0.024  0.024  0.175  0.175
     eigenvectors (columns):
       0.000 -0.000 -0.000 -0.500 -0.866
      -0.000 -0.707  0.707  0.000  0.000
      -1.000  0.000  0.000 -0.000 -0.000
      -0.000  0.000  0.000  0.866 -0.500
       0.000  0.707  0.707 -0.000  0.000
     occupation matrix ns (before diag.):
       0.175 -0.000  0.000  0.000  0.000
      -0.000  0.024 -0.000  0.000  0.000
       0.000 -0.000  0.024 -0.000  0.000
       0.000  0.000 -0.000  0.175 -0.000
       0.000  0.000  0.000 -0.000  0.024
     SPIN  2
     eigenvalues:
       0.219  0.220  0.915  0.915  0.916
     eigenvectors (columns):
       0.866  0.500 -0.000 -0.000  0.000
       0.000  0.000  0.707 -0.707  0.000
      -0.000  0.000  0.000  0.000 -1.000
       0.500 -0.866  0.000  0.000 -0.000
      -0.000 -0.000 -0.707 -0.707 -0.000
     occupation matrix ns (before diag.):
       0.219 -0.000 -0.000 -0.001  0.000
      -0.000  0.915 -0.000  0.000  0.000
      -0.000 -0.000  0.916  0.000  0.000
      -0.001  0.000  0.000  0.220 -0.000
       0.000  0.000  0.000 -0.000  0.915
     ------------------------ ATOM    7 ------------------------
     Tr[ns(  7)] (up, down, total) =   0.41937  3.18715  3.60652
     Atomic magnetic moment for atom   7 =  -2.76777
     SPIN  1
     eigenvalues:
       0.023  0.024  0.024  0.172  0.177
     eigenvectors (columns):
       0.000 -0.000 -0.000  0.150 -0.989
      -0.000  0.171 -0.985 -0.000  0.000
      -1.000  0.000  0.000  0.001 -0.000
      -0.001  0.000  0.000 -0.989 -0.150
       0.000  0.985  0.171  0.000 -0.000
     occupation matrix ns (before diag.):
       0.176 -0.000  0.000  0.001  0.000
      -0.000  0.024 -0.000  0.000 -0.000
       0.000 -0.000  0.023 -0.000  0.000
       0.001  0.000 -0.000  0.172 -0.000
       0.000 -0.000  0.000 -0.000  0.024
     SPIN  2
     eigenvalues:
       0.219  0.220  0.915  0.917  0.917
     eigenvectors (columns):
       0.233 -0.972 -0.000  0.000  0.000
       0.000 -0.000  0.027 -1.000 -0.000
      -0.000 -0.000  0.000 -0.000  1.000
      -0.972 -0.233  0.000 -0.000 -0.000
      -0.000  0.000 -1.000 -0.027  0.000
     occupation matrix ns (before diag.):
       0.220 -0.000  0.000  0.000  0.000
      -0.000  0.917 -0.000  0.000  0.000
       0.000 -0.000  0.917 -0.000  0.000
       0.000  0.000 -0.000  0.219 -0.000
       0.000  0.000  0.000 -0.000  0.915
     ------------------------ ATOM    8 ------------------------
     Tr[ns(  8)] (up, down, total) =   0.41937  3.18715  3.60652
     Atomic magnetic moment for atom   8 =  -2.76777
     SPIN  1
     eigenvalues:
       0.023  0.024  0.024  0.172  0.177
     eigenvectors (columns):
       0.000  0.000 -0.000 -0.781  0.624
      -0.000  0.985 -0.171  0.000  0.000
      -1.000 -0.000  0.000 -0.001 -0.000
      -0.000 -0.000  0.000  0.624  0.781
       0.000  0.171  0.985 -0.000 -0.000
     occupation matrix ns (before diag.):
       0.174 -0.000  0.000  0.002  0.000
      -0.000  0.024 -0.000  0.000 -0.000
       0.000 -0.000  0.023 -0.000  0.000
       0.002  0.000 -0.000  0.175 -0.000
       0.000 -0.000  0.000 -0.000  0.024
     SPIN  2
     eigenvalues:
       0.219  0.220  0.915  0.917  0.917
     eigenvectors (columns):
      -0.726  0.688  0.000  0.000  0.000
      -0.000 -0.000 -1.000  0.027 -0.000
       0.000 -0.000 -0.000 -0.000  1.000
       0.688  0.726 -0.000 -0.000 -0.000
       0.000  0.000  0.027  1.000  0.000
     occupation matrix ns (before diag.):
       0.219 -0.000  0.000  0.000  0.000
      -0.000  0.915 -0.000  0.000  0.000
       0.000 -0.000  0.917 -0.000  0.000
       0.000  0.000 -0.000  0.219 -0.000
       0.000  0.000  0.000 -0.000  0.917
     ------------------------ ATOM    9 ------------------------
     Tr[ns(  9)] (up, down, total) =   3.88473  0.93697  4.82170
     Atomic magnetic moment for atom   9 =   2.94776
     SPIN  1
     eigenvalues:
       0.490  0.538  0.951  0.953  0.953
     eigenvectors (columns):
      -0.500  0.866 -0.001  0.000  0.000
      -0.000  0.000 -0.000  0.707 -0.707
       0.001 -0.000 -1.000  0.000  0.000
       0.866  0.500  0.001 -0.000 -0.000
       0.000 -0.000  0.000  0.707  0.707
     occupation matrix ns (before diag.):
       0.526 -0.000  0.000  0.021  0.000
      -0.000  0.953 -0.000  0.000 -0.000
       0.000 -0.000  0.951 -0.001  0.000
       0.021  0.000 -0.001  0.502 -0.000
       0.000 -0.000  0.000 -0.000  0.953
     SPIN  2
     eigenvalues:
       0.061  0.064  0.064  0.338  0.409
     eigenvectors (columns):
       0.001 -0.000 -0.000  0.500 -0.866
       0.000 -0.707  0.707 -0.000  0.000
       1.000  0.000  0.000 -0.002 -0.000
      -0.001  0.000  0.000 -0.866 -0.500
      -0.000  0.707  0.707  0.000  0.000
     occupation matrix ns (before diag.):
       0.392 -0.000 -0.000  0.031  0.000
      -0.000  0.064 -0.000  0.000  0.000
      -0.000 -0.000  0.061  0.000  0.000
       0.031  0.000  0.000  0.356 -0.000
       0.000  0.000  0.000 -0.000  0.064
     ------------------------ ATOM   10 ------------------------
     Tr[ns( 10)] (up, down, total) =   3.91957  0.98660  4.90617
     Atomic magnetic moment for atom  10 =   2.93298
     SPIN  1
     eigenvalues:
       0.535  0.535  0.949  0.950  0.950
     eigenvectors (columns):
       0.500  0.866 -0.000  0.000  0.000
       0.000  0.000  0.000  0.707 -0.707
       0.000 -0.000  1.000  0.000  0.000
      -0.866  0.500  0.000 -0.000 -0.000
      -0.000 -0.000 -0.000  0.707  0.707
     occupation matrix ns (before diag.):
       0.535 -0.000 -0.000  0.000  0.000
      -0.000  0.950 -0.000  0.000 -0.000
      -0.000 -0.000  0.949  0.000  0.000
       0.000  0.000  0.000  0.535 -0.000
       0.000 -0.000  0.000 -0.000  0.950
     SPIN  2
     eigenvalues:
       0.061  0.061  0.062  0.393  0.409
     eigenvectors (columns):
      -0.000 -0.000  0.000 -0.866 -0.500
      -0.707  0.707 -0.000  0.000  0.000
      -0.000 -0.000  1.000 -0.000  0.001
       0.000  0.000 -0.001 -0.500  0.866
       0.707  0.707  0.000  0.000 -0.000
     occupation matrix ns (before diag.):
       0.397 -0.000 -0.000 -0.007  0.000
      -0.000  0.061 -0.000  0.000  0.000
      -0.000 -0.000  0.062  0.000  0.000
      -0.007  0.000  0.000  0.405 -0.000
       0.000  0.000  0.000 -0.000  0.061
     ------------------------ ATOM   11 ------------------------
     Tr[ns( 11)] (up, down, total) =   3.92037  0.99038  4.91075
     Atomic magnetic moment for atom  11 =   2.92999
     SPIN  1
     eigenvalues:
       0.535  0.535  0.950  0.950  0.950
     eigenvectors (columns):
       0.901 -0.434 -0.000  0.000  0.000
       0.000 -0.000  0.000  0.129 -0.992
      -0.000  0.000 -1.000  0.000  0.000
       0.434  0.901 -0.000 -0.000 -0.000
      -0.000  0.000  0.000  0.992  0.129
     occupation matrix ns (before diag.):
       0.535 -0.000  0.000 -0.000  0.000
      -0.000  0.950 -0.000  0.000 -0.000
       0.000 -0.000  0.950  0.000  0.000
      -0.000  0.000  0.000  0.535 -0.000
       0.000 -0.000  0.000 -0.000  0.950
     SPIN  2
     eigenvalues:
       0.061  0.061  0.062  0.400  0.406
     eigenvectors (columns):
       0.000  0.001  0.000 -0.977 -0.215
      -0.010  0.000  1.000  0.000 -0.000
      -0.000 -1.000 -0.000 -0.001 -0.000
       0.000 -0.000 -0.000  0.215 -0.977
       1.000 -0.000  0.010 -0.000  0.000
     occupation matrix ns (before diag.):
       0.400 -0.000  0.000  0.001  0.000
      -0.000  0.062 -0.000  0.000  0.000
       0.000 -0.000  0.061 -0.000  0.000
       0.001  0.000 -0.000  0.406 -0.000
       0.000  0.000  0.000 -0.000  0.061
     ------------------------ ATOM   12 ------------------------
     Tr[ns( 12)] (up, down, total) =   3.92037  0.99038  4.91075
     Atomic magnetic moment for atom  12 =   2.92999
     SPIN  1
     eigenvalues:
       0.535  0.535  0.950  0.950  0.950
     eigenvectors (columns):
       0.826 -0.563  0.000 -0.000  0.000
      -0.000 -0.000 -0.000  0.992 -0.129
       0.000  0.000 -1.000 -0.000  0.000
       0.563  0.826  0.000  0.000 -0.000
      -0.000  0.000  0.000  0.129  0.992
     occupation matrix ns (before diag.):
       0.535 -0.000 -0.000 -0.000  0.000
      -0.000  0.950 -0.000  0.000 -0.000
      -0.000 -0.000  0.950 -0.000  0.000
      -0.000  0.000 -0.000  0.535 -0.000
       0.000 -0.000  0.000 -0.000  0.950
     SPIN  2
     eigenvalues:
       0.061  0.061  0.062  0.400  0.406
     eigenvectors (columns):
      -0.000 -0.000 -0.000  0.302 -0.953
      -1.000  0.000  0.010  0.000  0.000
      -0.000 -1.000  0.000 -0.001  0.000
      -0.000 -0.001  0.000  0.953  0.302
       0.010  0.000  1.000 -0.000 -0.000
     occupation matrix ns (before diag.):
       0.406 -0.000 -0.000 -0.002  0.000
      -0.000  0.061 -0.000  0.000  0.000
      -0.000 -0.000  0.061 -0.000  0.000
      -0.002  0.000 -0.000  0.400 -0.000
       0.000  0.000  0.000 -0.000  0.062

     Number of occupied Hubbard levels =   33.9844

     HUBBARD ENERGY =    1.0167  (Ry)

     total cpu time spent up to now is       94.8 secs

     total energy              =   -2329.11191029 Ry
     estimated scf accuracy    <       1.16182619 Ry

     total magnetization       =    -0.00 Bohr mag/cell
     absolute magnetization    =    27.13 Bohr mag/cell

     iteration #  5     ecut=   110.00 Ry     beta= 0.30
     Davidson diagonalization with overlap

---- Real-time Memory Report at c_bands before calling an iterative solver
           553 MiB given to the printing process from OS
           260 MiB allocation reported by mallinfo(arena+hblkhd)
        678459 MiB available memory on the node where the printing process lives
------------------
     ethr =  3.23E-04,  avg # of iterations =  8.0

     =================== HUBBARD OCCUPATIONS ===================
     ------------------------ ATOM    5 ------------------------
     Tr[ns(  5)] (up, down, total) =   0.41087  3.13862  3.54948
     Atomic magnetic moment for atom   5 =  -2.72775
     SPIN  1
     eigenvalues:
       0.025  0.025  0.028  0.162  0.172
     eigenvectors (columns):
      -0.000 -0.000  0.000 -0.866 -0.500
       0.707 -0.707  0.000  0.000  0.000
      -0.000 -0.000 -1.000 -0.000 -0.001
       0.000  0.000 -0.001 -0.500  0.866
       0.707  0.707 -0.000  0.000 -0.000
     occupation matrix ns (before diag.):
       0.164 -0.000  0.000 -0.004  0.000
      -0.000  0.025 -0.000  0.000 -0.000
       0.000 -0.000  0.028 -0.000  0.000
      -0.004  0.000 -0.000  0.169 -0.000
       0.000 -0.000  0.000 -0.000  0.025
     SPIN  2
     eigenvalues:
       0.192  0.228  0.903  0.904  0.911
     eigenvectors (columns):
       0.866  0.500 -0.000 -0.000  0.001
       0.000  0.000  0.707 -0.707  0.000
      -0.000  0.001  0.000  0.000 -1.000
       0.500 -0.866  0.000  0.000 -0.001
      -0.000 -0.000 -0.707 -0.707 -0.000
     occupation matrix ns (before diag.):
       0.201 -0.000 -0.000 -0.016  0.000
      -0.000  0.903 -0.000  0.000  0.001
      -0.000 -0.000  0.911  0.001  0.000
      -0.016  0.000  0.001  0.219 -0.000
       0.000  0.001  0.000 -0.000  0.903
     ------------------------ ATOM    6 ------------------------
     Tr[ns(  6)] (up, down, total) =   0.41310  3.11438  3.52748
     Atomic magnetic moment for atom   6 =  -2.70128
     SPIN  1
     eigenvalues:
       0.028  0.028  0.028  0.165  0.165
     eigenvectors (columns):
      -0.000 -0.000 -0.000 -0.866  0.500
       0.000  0.707 -0.707  0.000 -0.000
       1.000  0.000  0.000 -0.000  0.000
       0.000  0.000  0.000 -0.500 -0.866
      -0.000  0.707  0.707  0.000  0.000
     occupation matrix ns (before diag.):
       0.165 -0.000  0.000 -0.000  0.000
      -0.000  0.028 -0.000  0.000 -0.000
       0.000 -0.000  0.028 -0.000  0.000
      -0.000  0.000 -0.000  0.165 -0.000
       0.000 -0.000  0.000 -0.000  0.028
     SPIN  2
     eigenvalues:
       0.191  0.192  0.910  0.910  0.911
     eigenvectors (columns):
       0.866  0.500 -0.000 -0.000  0.000
      -0.000  0.000  0.707 -0.707  0.000
      -0.000  0.000  0.000  0.000 -1.000
       0.500 -0.866  0.000  0.000 -0.000
      -0.000 -0.000 -0.707 -0.707 -0.000
     occupation matrix ns (before diag.):
       0.192 -0.000 -0.000 -0.000  0.000
      -0.000  0.910 -0.000  0.000  0.000
      -0.000 -0.000  0.911  0.000  0.000
      -0.000  0.000  0.000  0.192 -0.000
       0.000  0.000  0.000 -0.000  0.910
     ------------------------ ATOM    7 ------------------------
     Tr[ns(  7)] (up, down, total) =   0.41174  3.11654  3.52828
     Atomic magnetic moment for atom   7 =  -2.70480
     SPIN  1
     eigenvalues:
       0.027  0.028  0.028  0.163  0.166
     eigenvectors (columns):
      -0.000  0.000 -0.000 -0.139  0.990
      -0.000  0.984 -0.176  0.000 -0.000
      -1.000 -0.000  0.000 -0.000 -0.000
      -0.000 -0.000  0.000  0.990  0.139
       0.000  0.176  0.984 -0.000  0.000
     occupation matrix ns (before diag.):
       0.166 -0.000 -0.000  0.000  0.000
      -0.000  0.028 -0.000  0.000 -0.000
      -0.000 -0.000  0.027 -0.000  0.000
       0.000  0.000 -0.000  0.163 -0.000
       0.000 -0.000  0.000 -0.000  0.028
     SPIN  2
     eigenvalues:
       0.192  0.192  0.910  0.911  0.912
     eigenvectors (columns):
      -0.078  0.997 -0.000  0.000 -0.000
       0.000  0.000 -0.000  0.000  1.000
      -0.000 -0.000  0.000  1.000 -0.000
      -0.997 -0.078  0.000 -0.000  0.000
      -0.000 -0.000 -1.000  0.000 -0.000
     occupation matrix ns (before diag.):
       0.192 -0.000  0.000 -0.000  0.000
      -0.000  0.912 -0.000  0.000 -0.000
       0.000 -0.000  0.911 -0.000  0.000
      -0.000  0.000 -0.000  0.192 -0.000
       0.000 -0.000  0.000 -0.000  0.910
     ------------------------ ATOM    8 ------------------------
     Tr[ns(  8)] (up, down, total) =   0.41174  3.11654  3.52828
     Atomic magnetic moment for atom   8 =  -2.70480
     SPIN  1
     eigenvalues:
       0.027  0.028  0.028  0.163  0.166
     eigenvectors (columns):
      -0.000 -0.000 -0.000 -0.788 -0.615
       0.000  0.176 -0.984  0.000 -0.000
       1.000  0.000  0.000 -0.000 -0.000
       0.000  0.000  0.000  0.615 -0.788
      -0.000  0.984  0.176 -0.000  0.000
     occupation matrix ns (before diag.):
       0.164 -0.000  0.000  0.001  0.000
      -0.000  0.028 -0.000  0.000 -0.000
       0.000 -0.000  0.027 -0.000  0.000
       0.001  0.000 -0.000  0.165 -0.000
       0.000 -0.000  0.000 -0.000  0.028
     SPIN  2
     eigenvalues:
       0.192  0.192  0.910  0.911  0.912
     eigenvectors (columns):
       0.902  0.431 -0.000  0.000  0.000
       0.000 -0.000  1.000 -0.000 -0.000
      -0.000  0.000  0.000  1.000  0.000
      -0.431  0.902  0.000 -0.000 -0.000
      -0.000  0.000  0.000 -0.000  1.000
     occupation matrix ns (before diag.):
       0.192 -0.000  0.000  0.000  0.000
      -0.000  0.910 -0.000  0.000 -0.000
       0.000 -0.000  0.911 -0.000  0.000
       0.000  0.000 -0.000  0.192 -0.000
       0.000 -0.000  0.000 -0.000  0.912
     ------------------------ ATOM    9 ------------------------
     Tr[ns(  9)] (up, down, total) =   3.56388  0.71115  4.27503
     Atomic magnetic moment for atom   9 =   2.85273
     SPIN  1
     eigenvalues:
       0.385  0.429  0.911  0.919  0.920
     eigenvectors (columns):
      -0.500  0.866 -0.001  0.000  0.000
      -0.000  0.000 -0.000  0.707 -0.707
       0.002 -0.000 -1.000  0.000  0.000
       0.866  0.500  0.001 -0.000 -0.000
       0.000 -0.000  0.000  0.707  0.707
     occupation matrix ns (before diag.):
       0.418 -0.000  0.000  0.019  0.000
      -0.000  0.920 -0.000  0.000 -0.001
       0.000 -0.000  0.911 -0.001  0.000
       0.019  0.000 -0.001  0.396 -0.000
       0.000 -0.001  0.000 -0.000  0.920
     SPIN  2
     eigenvalues:
       0.033  0.037  0.037  0.288  0.317
     eigenvectors (columns):
       0.001 -0.000 -0.000  0.500 -0.866
       0.000 -0.707  0.707 -0.000  0.000
       1.000  0.000  0.000 -0.001 -0.000
      -0.001  0.000  0.000 -0.866 -0.500
      -0.000  0.707  0.707  0.000  0.000
     occupation matrix ns (before diag.):
       0.310 -0.000 -0.000  0.013  0.000
      -0.000  0.037 -0.000  0.000  0.000
      -0.000 -0.000  0.033  0.000  0.000
       0.013  0.000  0.000  0.295 -0.000
       0.000  0.000  0.000 -0.000  0.037
     ------------------------ ATOM   10 ------------------------
     Tr[ns( 10)] (up, down, total) =   3.56225  0.72664  4.28888
     Atomic magnetic moment for atom  10 =   2.83561
     SPIN  1
     eigenvalues:
       0.422  0.424  0.905  0.906  0.906
     eigenvectors (columns):
       0.500  0.866 -0.000  0.000  0.000
       0.000  0.000  0.000  0.707 -0.707
       0.000 -0.000  1.000  0.000  0.000
      -0.866  0.500  0.000 -0.000 -0.000
      -0.000 -0.000 -0.000  0.707  0.707
     occupation matrix ns (before diag.):
       0.423 -0.000 -0.000  0.001  0.000
      -0.000  0.906 -0.000  0.000 -0.000
      -0.000 -0.000  0.905  0.000  0.000
       0.001  0.000  0.000  0.422 -0.000
       0.000 -0.000  0.000 -0.000  0.906
     SPIN  2
     eigenvalues:
       0.033  0.033  0.033  0.313  0.316
     eigenvectors (columns):
      -0.000 -0.000  0.000 -0.866 -0.500
      -0.707  0.707 -0.000 -0.000  0.000
      -0.000 -0.000  1.000  0.000  0.000
       0.000  0.000 -0.000 -0.500  0.866
       0.707  0.707  0.000  0.000 -0.000
     occupation matrix ns (before diag.):
       0.313 -0.000 -0.000 -0.001  0.000
      -0.000  0.033 -0.000  0.000  0.000
      -0.000 -0.000  0.033  0.000  0.000
      -0.001  0.000  0.000  0.315 -0.000
       0.000  0.000  0.000 -0.000  0.033
     ------------------------ ATOM   11 ------------------------
     Tr[ns( 11)] (up, down, total) =   3.55835  0.72648  4.28483
     Atomic magnetic moment for atom  11 =   2.83187
     SPIN  1
     eigenvalues:
       0.421  0.422  0.905  0.905  0.905
     eigenvectors (columns):
       0.343 -0.939  0.000  0.000  0.000
      -0.000 -0.000 -0.000  0.978 -0.211
       0.000 -0.000 -1.000 -0.000  0.000
       0.939  0.343  0.000  0.000 -0.000
       0.000  0.000  0.000  0.211  0.978
     occupation matrix ns (before diag.):
       0.422 -0.000 -0.000 -0.000  0.000
      -0.000  0.905 -0.000  0.000 -0.000
      -0.000 -0.000  0.905 -0.000  0.000
      -0.000  0.000 -0.000  0.421 -0.000
       0.000 -0.000  0.000 -0.000  0.905
     SPIN  2
     eigenvalues:
       0.033  0.033  0.033  0.313  0.315
     eigenvectors (columns):
      -0.000 -0.000  0.000 -0.935 -0.355
       0.000 -0.013  1.000  0.000  0.000
       1.000  0.000 -0.000 -0.000 -0.000
      -0.000  0.000 -0.000 -0.355  0.935
      -0.000  1.000  0.013  0.000 -0.000
     occupation matrix ns (before diag.):
       0.314 -0.000  0.000 -0.001  0.000
      -0.000  0.033 -0.000  0.000  0.000
       0.000 -0.000  0.033  0.000  0.000
      -0.001  0.000  0.000  0.315 -0.000
       0.000  0.000  0.000 -0.000  0.033
     ------------------------ ATOM   12 ------------------------
     Tr[ns( 12)] (up, down, total) =   3.55835  0.72648  4.28483
     Atomic magnetic moment for atom  12 =   2.83187
     SPIN  1
     eigenvalues:
       0.421  0.422  0.905  0.905  0.905
     eigenvectors (columns):
       0.985  0.172 -0.000  0.000  0.000
       0.000 -0.000  0.000  0.211 -0.978
      -0.000 -0.000 -1.000  0.000  0.000
      -0.172  0.985 -0.000 -0.000 -0.000
      -0.000  0.000  0.000  0.978  0.211
     occupation matrix ns (before diag.):
       0.421 -0.000  0.000  0.000  0.000
      -0.000  0.905 -0.000  0.000 -0.000
       0.000 -0.000  0.905  0.000  0.000
       0.000  0.000  0.000  0.422 -0.000
       0.000 -0.000  0.000 -0.000  0.905
     SPIN  2
     eigenvalues:
       0.033  0.033  0.033  0.313  0.315
     eigenvectors (columns):
      -0.000  0.000 -0.000 -0.775  0.632
      -0.000  1.000  0.013  0.000 -0.000
      -1.000 -0.000  0.000  0.000  0.000
      -0.000 -0.000  0.000 -0.632 -0.775
       0.000 -0.013  1.000  0.000  0.000
     occupation matrix ns (before diag.):
       0.314 -0.000 -0.000 -0.001  0.000
      -0.000  0.033 -0.000  0.000  0.000
      -0.000 -0.000  0.033 -0.000  0.000
      -0.001  0.000 -0.000  0.314 -0.000
       0.000  0.000  0.000 -0.000  0.033

     Number of occupied Hubbard levels =   31.2671

     HUBBARD ENERGY =    0.9421  (Ry)

     total cpu time spent up to now is      119.5 secs

     total energy              =   -2328.85214943 Ry
     estimated scf accuracy    <       1.69019995 Ry

     total magnetization       =    -0.00 Bohr mag/cell
     absolute magnetization    =    26.22 Bohr mag/cell

     iteration #  6     ecut=   110.00 Ry     beta= 0.30
     Davidson diagonalization with overlap

---- Real-time Memory Report at c_bands before calling an iterative solver
           558 MiB given to the printing process from OS
           265 MiB allocation reported by mallinfo(arena+hblkhd)
        678365 MiB available memory on the node where the printing process lives
------------------
     ethr =  3.23E-04,  avg # of iterations =  5.2

     =================== HUBBARD OCCUPATIONS ===================
     ------------------------ ATOM    5 ------------------------
     Tr[ns(  5)] (up, down, total) =   0.41276  3.17510  3.58786
     Atomic magnetic moment for atom   5 =  -2.76234
     SPIN  1
     eigenvalues:
       0.023  0.023  0.025  0.164  0.177
     eigenvectors (columns):
      -0.000 -0.000  0.000  0.866  0.500
       0.707 -0.707  0.000 -0.000 -0.000
      -0.000 -0.000 -1.000  0.000  0.001
       0.000  0.000 -0.001  0.500 -0.866
       0.707  0.707 -0.000 -0.000  0.000
     occupation matrix ns (before diag.):
       0.167 -0.000  0.000 -0.006  0.000
      -0.000  0.023 -0.000  0.000 -0.000
       0.000 -0.000  0.025 -0.000  0.000
      -0.006  0.000 -0.000  0.173 -0.000
       0.000 -0.000  0.000 -0.000  0.023
     SPIN  2
     eigenvalues:
       0.207  0.240  0.907  0.908  0.914
     eigenvectors (columns):
       0.866  0.500 -0.000 -0.000  0.001
      -0.000  0.000  0.707 -0.707  0.000
      -0.000  0.001  0.000  0.000 -1.000
       0.500 -0.866  0.000  0.000 -0.001
      -0.000 -0.000 -0.707 -0.707 -0.000
     occupation matrix ns (before diag.):
       0.215 -0.000 -0.000 -0.014  0.000
      -0.000  0.907 -0.000  0.000  0.000
      -0.000 -0.000  0.914  0.001  0.000
      -0.014  0.000  0.001  0.232 -0.000
       0.000  0.000  0.000 -0.000  0.907
     ------------------------ ATOM    6 ------------------------
     Tr[ns(  6)] (up, down, total) =   0.40851  3.15316  3.56166
     Atomic magnetic moment for atom   6 =  -2.74465
     SPIN  1
     eigenvalues:
       0.025  0.025  0.025  0.166  0.166
     eigenvectors (columns):
       0.000 -0.000 -0.000 -0.866  0.500
      -0.000 -0.707  0.707  0.000 -0.000
      -1.000  0.000  0.000  0.000  0.000
      -0.000  0.000  0.000 -0.500 -0.866
       0.000  0.707  0.707  0.000  0.000
     occupation matrix ns (before diag.):
       0.166 -0.000  0.000 -0.000  0.000
      -0.000  0.025 -0.000  0.000  0.000
       0.000 -0.000  0.025 -0.000  0.000
      -0.000  0.000 -0.000  0.166 -0.000
       0.000  0.000  0.000 -0.000  0.025
     SPIN  2
     eigenvalues:
       0.206  0.206  0.914  0.914  0.914
     eigenvectors (columns):
       0.866 -0.500 -0.000 -0.000 -0.000
       0.000 -0.000  0.707 -0.707  0.000
      -0.000 -0.000  0.000  0.000  1.000
       0.500  0.866  0.000  0.000  0.000
      -0.000  0.000 -0.707 -0.707  0.000
     occupation matrix ns (before diag.):
       0.206 -0.000 -0.000 -0.000  0.000
      -0.000  0.914 -0.000  0.000  0.000
      -0.000 -0.000  0.914  0.000  0.000
      -0.000  0.000  0.000  0.206 -0.000
       0.000  0.000  0.000 -0.000  0.914
     ------------------------ ATOM    7 ------------------------
     Tr[ns(  7)] (up, down, total) =   0.40788  3.15494  3.56283
     Atomic magnetic moment for atom   7 =  -2.74706
     SPIN  1
     eigenvalues:
       0.025  0.025  0.025  0.165  0.167
     eigenvectors (columns):
       0.000 -0.000 -0.000 -0.124  0.992
       0.945 -0.000 -0.327  0.000 -0.000
       0.000 -1.000  0.000 -0.000 -0.000
       0.000 -0.000  0.000  0.992  0.124
       0.327  0.000  0.945 -0.000  0.000
     occupation matrix ns (before diag.):
       0.167 -0.000 -0.000  0.000  0.000
      -0.000  0.025 -0.000  0.000 -0.000
      -0.000 -0.000  0.025 -0.000  0.000
       0.000  0.000 -0.000  0.165 -0.000
       0.000 -0.000  0.000 -0.000  0.025
     SPIN  2
     eigenvalues:
       0.206  0.206  0.914  0.914  0.915
     eigenvectors (columns):
      -0.028  1.000 -0.000  0.000 -0.000
       0.000  0.000 -0.028  0.000  1.000
      -0.000 -0.000  0.000  1.000 -0.000
      -1.000 -0.028  0.000 -0.000  0.000
      -0.000 -0.000 -1.000  0.000 -0.028
     occupation matrix ns (before diag.):
       0.206 -0.000  0.000 -0.000  0.000
      -0.000  0.915 -0.000  0.000 -0.000
       0.000 -0.000  0.914 -0.000  0.000
      -0.000  0.000 -0.000  0.206 -0.000
       0.000 -0.000  0.000 -0.000  0.914
     ------------------------ ATOM    8 ------------------------
     Tr[ns(  8)] (up, down, total) =   0.40788  3.15494  3.56283
     Atomic magnetic moment for atom   8 =  -2.74706
     SPIN  1
     eigenvalues:
       0.025  0.025  0.025  0.165  0.167
     eigenvectors (columns):
      -0.000 -0.000 -0.000  0.797  0.604
       0.327  0.000 -0.945 -0.000  0.000
      -0.000  1.000  0.000  0.000  0.000
       0.000  0.000  0.000 -0.604  0.797
       0.945  0.000  0.327  0.000 -0.000
     occupation matrix ns (before diag.):
       0.166 -0.000  0.000  0.001  0.000
      -0.000  0.025 -0.000  0.000 -0.000
       0.000 -0.000  0.025 -0.000  0.000
       0.001  0.000 -0.000  0.166 -0.000
       0.000 -0.000  0.000 -0.000  0.025
     SPIN  2
     eigenvalues:
       0.206  0.206  0.914  0.914  0.915
     eigenvectors (columns):
       0.880  0.475 -0.000 -0.000  0.000
       0.000 -0.000  1.000 -0.000 -0.028
      -0.000  0.000  0.000  1.000  0.000
      -0.475  0.880  0.000 -0.000 -0.000
      -0.000  0.000  0.028 -0.000  1.000
     occupation matrix ns (before diag.):
       0.206 -0.000 -0.000  0.000  0.000
      -0.000  0.914 -0.000  0.000 -0.000
      -0.000 -0.000  0.914 -0.000  0.000
       0.000  0.000 -0.000  0.206 -0.000
       0.000 -0.000  0.000 -0.000  0.915
     ------------------------ ATOM    9 ------------------------
     Tr[ns(  9)] (up, down, total) =   3.87007  0.91341  4.78348
     Atomic magnetic moment for atom   9 =   2.95666
     SPIN  1
     eigenvalues:
       0.484  0.530  0.951  0.953  0.953
     eigenvectors (columns):
      -0.500  0.866 -0.001  0.000  0.000
      -0.000 -0.000 -0.000  0.707 -0.707
       0.001 -0.000 -1.000  0.000  0.000
       0.866  0.500  0.001 -0.000 -0.000
       0.000 -0.000  0.000  0.707  0.707
     occupation matrix ns (before diag.):
       0.518 -0.000  0.000  0.020  0.000
      -0.000  0.953 -0.000  0.000 -0.000
       0.000 -0.000  0.951 -0.001  0.000
       0.020  0.000 -0.001  0.495 -0.000
       0.000 -0.000  0.000 -0.000  0.953
     SPIN  2
     eigenvalues:
       0.051  0.055  0.056  0.353  0.399
     eigenvectors (columns):
       0.001 -0.000 -0.000  0.500 -0.866
       0.000 -0.707  0.707 -0.000  0.000
       1.000  0.000  0.000 -0.001 -0.000
      -0.001  0.000  0.000 -0.866 -0.500
      -0.000  0.707  0.707  0.000  0.000
     occupation matrix ns (before diag.):
       0.388 -0.000 -0.000  0.020  0.000
      -0.000  0.055 -0.000  0.000  0.001
      -0.000 -0.000  0.051  0.000  0.000
       0.020  0.000  0.000  0.365 -0.000
       0.000  0.001  0.000 -0.000  0.055
     ------------------------ ATOM   10 ------------------------
     Tr[ns( 10)] (up, down, total) =   3.88890  0.93913  4.82803
     Atomic magnetic moment for atom  10 =   2.94977
     SPIN  1
     eigenvalues:
       0.521  0.523  0.948  0.948  0.948
     eigenvectors (columns):
       0.500 -0.866 -0.000 -0.000  0.000
       0.000 -0.000  0.707 -0.707 -0.000
      -0.000  0.000  0.000  0.000  1.000
      -0.866 -0.500  0.000  0.000 -0.000
      -0.000  0.000 -0.707 -0.707  0.000
     occupation matrix ns (before diag.):
       0.523 -0.000  0.000  0.001  0.000
      -0.000  0.948 -0.000  0.000  0.000
       0.000 -0.000  0.948 -0.000  0.000
       0.001  0.000 -0.000  0.522 -0.000
       0.000  0.000  0.000 -0.000  0.948
     SPIN  2
     eigenvalues:
       0.050  0.050  0.051  0.393  0.395
     eigenvectors (columns):
      -0.000 -0.000 -0.000  0.866 -0.500
      -0.707  0.707  0.000 -0.000  0.000
      -0.000 -0.000 -1.000  0.000  0.000
       0.000  0.000  0.000  0.500  0.866
       0.707  0.707 -0.000 -0.000 -0.000
     occupation matrix ns (before diag.):
       0.393 -0.000 -0.000 -0.001  0.000
      -0.000  0.050 -0.000  0.000  0.000
      -0.000 -0.000  0.051  0.000  0.000
      -0.001  0.000  0.000  0.394 -0.000
       0.000  0.000  0.000 -0.000  0.050
     ------------------------ ATOM   11 ------------------------
     Tr[ns( 11)] (up, down, total) =   3.88682  0.93649  4.82330
     Atomic magnetic moment for atom  11 =   2.95033
     SPIN  1
     eigenvalues:
       0.521  0.522  0.948  0.948  0.948
     eigenvectors (columns):
       0.381  0.925 -0.000 -0.000 -0.000
      -0.000  0.000 -0.507  0.862 -0.000
       0.000  0.000  0.000  0.000  1.000
       0.925 -0.381  0.000  0.000  0.000
       0.000 -0.000 -0.862 -0.507  0.000
     occupation matrix ns (before diag.):
       0.522 -0.000 -0.000 -0.000  0.000
      -0.000  0.948 -0.000  0.000 -0.000
      -0.000 -0.000  0.948  0.000  0.000
      -0.000  0.000  0.000  0.521 -0.000
       0.000 -0.000  0.000 -0.000  0.948
     SPIN  2
     eigenvalues:
       0.050  0.050  0.051  0.391  0.394
     eigenvectors (columns):
      -0.000 -0.000 -0.000 -0.997 -0.081
       0.190 -0.000 -0.982  0.000  0.000
      -0.000 -1.000  0.000  0.000  0.000
       0.000  0.000  0.000 -0.081  0.997
       0.982 -0.000  0.190 -0.000 -0.000
     occupation matrix ns (before diag.):
       0.391 -0.000 -0.000 -0.000  0.000
      -0.000  0.051 -0.000  0.000 -0.000
      -0.000 -0.000  0.050  0.000  0.000
      -0.000  0.000  0.000  0.394 -0.000
       0.000 -0.000  0.000 -0.000  0.050
     ------------------------ ATOM   12 ------------------------
     Tr[ns( 12)] (up, down, total) =   3.88682  0.93649  4.82330
     Atomic magnetic moment for atom  12 =   2.95033
     SPIN  1
     eigenvalues:
       0.521  0.522  0.948  0.948  0.948
     eigenvectors (columns):
       0.991 -0.132 -0.000  0.000  0.000
       0.000  0.000 -0.862  0.507 -0.000
      -0.000  0.000 -0.000  0.000  1.000
      -0.132 -0.991  0.000  0.000  0.000
      -0.000 -0.000 -0.507 -0.862  0.000
     occupation matrix ns (before diag.):
       0.521 -0.000  0.000  0.000  0.000
      -0.000  0.948 -0.000  0.000 -0.000
       0.000 -0.000  0.948  0.000  0.000
       0.000  0.000  0.000  0.522 -0.000
       0.000 -0.000  0.000 -0.000  0.948
     SPIN  2
     eigenvalues:
       0.050  0.050  0.051  0.391  0.394
     eigenvectors (columns):
       0.000  0.000 -0.000  0.568  0.823
       0.982 -0.000 -0.190  0.000 -0.000
       0.000  1.000  0.000  0.000 -0.000
      -0.000 -0.000  0.000  0.823 -0.568
       0.190 -0.000  0.982 -0.000  0.000
     occupation matrix ns (before diag.):
       0.393 -0.000 -0.000 -0.001  0.000
      -0.000  0.050 -0.000  0.000 -0.000
      -0.000 -0.000  0.050  0.000  0.000
      -0.001  0.000  0.000  0.392 -0.000
       0.000 -0.000  0.000 -0.000  0.051

     Number of occupied Hubbard levels =   33.5333

     HUBBARD ENERGY =    0.9645  (Ry)

     total cpu time spent up to now is      142.6 secs

     total energy              =   -2329.18409737 Ry
     estimated scf accuracy    <       0.20851799 Ry

     total magnetization       =     0.00 Bohr mag/cell
     absolute magnetization    =    28.02 Bohr mag/cell

     iteration #  7     ecut=   110.00 Ry     beta= 0.30
     Davidson diagonalization with overlap

---- Real-time Memory Report at c_bands before calling an iterative solver
           563 MiB given to the printing process from OS
           270 MiB allocation reported by mallinfo(arena+hblkhd)
        678273 MiB available memory on the node where the printing process lives
------------------
     ethr =  5.79E-05,  avg # of iterations =  8.2

     =================== HUBBARD OCCUPATIONS ===================
     ------------------------ ATOM    5 ------------------------
     Tr[ns(  5)] (up, down, total) =   0.41365  3.16559  3.57924
     Atomic magnetic moment for atom   5 =  -2.75194
     SPIN  1
     eigenvalues:
       0.023  0.023  0.025  0.165  0.178
     eigenvectors (columns):
      -0.000 -0.000  0.001  0.866 -0.500
      -0.707  0.707  0.000 -0.000  0.000
      -0.000 -0.000 -1.000  0.000 -0.001
       0.000  0.000 -0.001  0.500  0.866
       0.707  0.707 -0.000 -0.000 -0.000
     occupation matrix ns (before diag.):
       0.168 -0.000  0.000 -0.006  0.000
      -0.000  0.023 -0.000  0.000  0.000
       0.000 -0.000  0.025 -0.000  0.000
      -0.006  0.000 -0.000  0.175 -0.000
       0.000  0.000  0.000 -0.000  0.023
     SPIN  2
     eigenvalues:
       0.207  0.239  0.904  0.905  0.911
     eigenvectors (columns):
       0.866  0.500 -0.000 -0.000  0.001
      -0.000  0.000  0.707 -0.707  0.000
      -0.000  0.002  0.000  0.000 -1.000
       0.500 -0.866  0.000  0.000 -0.001
      -0.000 -0.000 -0.707 -0.707 -0.000
     occupation matrix ns (before diag.):
       0.215 -0.000 -0.001 -0.014  0.000
      -0.000  0.904 -0.000  0.000  0.000
      -0.001 -0.000  0.911  0.001  0.000
      -0.014  0.000  0.001  0.231 -0.000
       0.000  0.000  0.000 -0.000  0.904
     ------------------------ ATOM    6 ------------------------
     Tr[ns(  6)] (up, down, total) =   0.40751  3.14968  3.55720
     Atomic magnetic moment for atom   6 =  -2.74217
     SPIN  1
     eigenvalues:
       0.025  0.025  0.025  0.167  0.167
     eigenvectors (columns):
       0.000 -0.000 -0.000 -0.866  0.500
      -0.000 -0.707  0.707  0.000 -0.000
      -1.000  0.000  0.000 -0.000  0.000
      -0.000  0.000  0.000 -0.500 -0.866
       0.000  0.707  0.707  0.000  0.000
     occupation matrix ns (before diag.):
       0.167 -0.000  0.000 -0.000  0.000
      -0.000  0.025 -0.000  0.000  0.000
       0.000 -0.000  0.025 -0.000  0.000
      -0.000  0.000 -0.000  0.167 -0.000
       0.000  0.000  0.000 -0.000  0.025
     SPIN  2
     eigenvalues:
       0.207  0.207  0.912  0.912  0.912
     eigenvectors (columns):
       0.866  0.500  0.000  0.000  0.000
       0.000  0.000 -0.000 -0.707  0.707
      -0.000  0.000 -1.000  0.000  0.000
       0.500 -0.866 -0.000 -0.000 -0.000
      -0.000 -0.000  0.000  0.707  0.707
     occupation matrix ns (before diag.):
       0.207 -0.000 -0.000 -0.000  0.000
      -0.000  0.912 -0.000  0.000  0.000
      -0.000 -0.000  0.912  0.000  0.000
      -0.000  0.000  0.000  0.207 -0.000
       0.000  0.000  0.000 -0.000  0.912
     ------------------------ ATOM    7 ------------------------
     Tr[ns(  7)] (up, down, total) =   0.40695  3.15092  3.55787
     Atomic magnetic moment for atom   7 =  -2.74397
     SPIN  1
     eigenvalues:
       0.025  0.025  0.025  0.165  0.168
     eigenvectors (columns):
      -0.000 -0.000 -0.000  0.120  0.993
      -0.989 -0.000 -0.151 -0.000 -0.000
      -0.000  1.000  0.000  0.000 -0.000
       0.000  0.000  0.000 -0.993  0.120
      -0.151 -0.000  0.989  0.000  0.000
     occupation matrix ns (before diag.):
       0.168 -0.000  0.000  0.000  0.000
      -0.000  0.025 -0.000  0.000 -0.000
       0.000 -0.000  0.025 -0.000  0.000
       0.000  0.000 -0.000  0.165 -0.000
       0.000 -0.000  0.000 -0.000  0.025
     SPIN  2
     eigenvalues:
       0.207  0.207  0.911  0.911  0.913
     eigenvectors (columns):
       0.016  1.000 -0.000  0.000 -0.000
       0.000  0.000  0.000 -0.005  1.000
       0.000  0.000  1.000 -0.000 -0.000
      -1.000  0.016  0.000 -0.000  0.000
      -0.000 -0.000 -0.000 -1.000 -0.005
     occupation matrix ns (before diag.):
       0.207 -0.000 -0.000  0.000  0.000
      -0.000  0.913 -0.000  0.000 -0.000
      -0.000 -0.000  0.911  0.000  0.000
       0.000  0.000  0.000  0.207 -0.000
       0.000 -0.000  0.000 -0.000  0.911
     ------------------------ ATOM    8 ------------------------
     Tr[ns(  8)] (up, down, total) =   0.40695  3.15092  3.55787
     Atomic magnetic moment for atom   8 =  -2.74397
     SPIN  1
     eigenvalues:
       0.025  0.025  0.025  0.165  0.168
     eigenvectors (columns):
      -0.000 -0.000 -0.000  0.800  0.601
       0.151  0.000 -0.989 -0.000  0.000
      -0.000  1.000  0.000  0.000  0.000
       0.000  0.000  0.000 -0.601  0.800
       0.989  0.000  0.151  0.000 -0.000
     occupation matrix ns (before diag.):
       0.166 -0.000  0.000  0.001  0.000
      -0.000  0.025 -0.000  0.000 -0.000
       0.000 -0.000  0.025 -0.000  0.000
       0.001  0.000 -0.000  0.167 -0.000
       0.000 -0.000  0.000 -0.000  0.025
     SPIN  2
     eigenvalues:
       0.207  0.207  0.911  0.911  0.913
     eigenvectors (columns):
      -0.858  0.514  0.000  0.000  0.000
      -0.000 -0.000 -0.000  1.000 -0.005
      -0.000 -0.000 -1.000 -0.000  0.000
       0.514  0.858 -0.000 -0.000 -0.000
       0.000  0.000  0.000  0.005  1.000
     occupation matrix ns (before diag.):
       0.207 -0.000 -0.000  0.000  0.000
      -0.000  0.911 -0.000  0.000 -0.000
      -0.000 -0.000  0.911  0.000  0.000
       0.000  0.000  0.000  0.207 -0.000
       0.000 -0.000  0.000 -0.000  0.913
     ------------------------ ATOM    9 ------------------------
     Tr[ns(  9)] (up, down, total) =   3.86864  0.92669  4.79533
     Atomic magnetic moment for atom   9 =   2.94194
     SPIN  1
     eigenvalues:
       0.482  0.528  0.951  0.953  0.954
     eigenvectors (columns):
      -0.500  0.866 -0.001  0.000  0.000
      -0.000  0.000 -0.000  0.707 -0.707
       0.001 -0.000 -1.000  0.000  0.000
       0.866  0.500  0.001 -0.000 -0.000
       0.000 -0.000  0.000  0.707  0.707
     occupation matrix ns (before diag.):
       0.517 -0.000  0.000  0.020  0.000
      -0.000  0.954 -0.000  0.000 -0.000
       0.000 -0.000  0.951 -0.001  0.000
       0.020  0.000 -0.001  0.494 -0.000
       0.000 -0.000  0.000 -0.000  0.954
     SPIN  2
     eigenvalues:
       0.055  0.058  0.058  0.358  0.397
     eigenvectors (columns):
       0.001 -0.000 -0.000  0.500 -0.866
       0.000 -0.707  0.707 -0.000  0.000
       1.000  0.000  0.000 -0.001 -0.000
      -0.001  0.000  0.000 -0.866 -0.500
      -0.000  0.707  0.707  0.000  0.000
     occupation matrix ns (before diag.):
       0.388 -0.000 -0.000  0.017  0.000
      -0.000  0.058 -0.000  0.000  0.000
      -0.000 -0.000  0.055  0.000  0.000
       0.017  0.000  0.000  0.368 -0.000
       0.000  0.000  0.000 -0.000  0.058
     ------------------------ ATOM   10 ------------------------
     Tr[ns( 10)] (up, down, total) =   3.89392  0.95365  4.84757
     Atomic magnetic moment for atom  10 =   2.94027
     SPIN  1
     eigenvalues:
       0.522  0.523  0.949  0.949  0.950
     eigenvectors (columns):
      -0.500 -0.866 -0.000  0.000  0.000
      -0.000 -0.000 -0.000 -0.707  0.707
       0.000  0.000 -1.000  0.000  0.000
       0.866 -0.500  0.000 -0.000 -0.000
       0.000  0.000  0.000  0.707  0.707
     occupation matrix ns (before diag.):
       0.523 -0.000  0.000  0.001  0.000
      -0.000  0.949 -0.000  0.000  0.000
       0.000 -0.000  0.949 -0.000  0.000
       0.001  0.000 -0.000  0.522 -0.000
       0.000  0.000  0.000 -0.000  0.949
     SPIN  2
     eigenvalues:
       0.055  0.055  0.055  0.394  0.395
     eigenvectors (columns):
      -0.000 -0.000  0.000 -0.866  0.500
       0.707 -0.707 -0.000  0.000 -0.000
      -0.000 -0.000  1.000 -0.000 -0.000
       0.000  0.000 -0.000 -0.500 -0.866
       0.707  0.707  0.000  0.000  0.000
     occupation matrix ns (before diag.):
       0.394 -0.000 -0.000 -0.000  0.000
      -0.000  0.055 -0.000  0.000 -0.000
      -0.000 -0.000  0.055  0.000  0.000
      -0.000  0.000  0.000  0.395 -0.000
       0.000 -0.000  0.000 -0.000  0.055
     ------------------------ ATOM   11 ------------------------
     Tr[ns( 11)] (up, down, total) =   3.89423  0.95432  4.84855
     Atomic magnetic moment for atom  11 =   2.93991
     SPIN  1
     eigenvalues:
       0.523  0.523  0.949  0.950  0.950
     eigenvectors (columns):
       0.303  0.953  0.000 -0.000 -0.000
      -0.000  0.000 -0.977  0.212 -0.000
       0.000  0.000 -0.000  0.000  1.000
       0.953 -0.303 -0.000  0.000 -0.000
       0.000 -0.000 -0.212 -0.977  0.000
     occupation matrix ns (before diag.):
       0.523 -0.000 -0.000 -0.000  0.000
      -0.000  0.949 -0.000  0.000 -0.000
      -0.000 -0.000  0.950 -0.000  0.000
      -0.000  0.000 -0.000  0.523 -0.000
       0.000 -0.000  0.000 -0.000  0.950
     SPIN  2
     eigenvalues:
       0.055  0.055  0.055  0.394  0.395
     eigenvectors (columns):
      -0.000 -0.000  0.000 -1.000  0.015
       0.000 -0.004  1.000  0.000  0.000
       1.000  0.000 -0.000 -0.000  0.000
      -0.000  0.000 -0.000  0.015  1.000
      -0.000  1.000  0.004 -0.000 -0.000
     occupation matrix ns (before diag.):
       0.394 -0.000  0.000  0.000  0.000
      -0.000  0.055 -0.000  0.000  0.000
       0.000 -0.000  0.055  0.000  0.000
       0.000  0.000  0.000  0.395 -0.000
       0.000  0.000  0.000 -0.000  0.055
     ------------------------ ATOM   12 ------------------------
     Tr[ns( 12)] (up, down, total) =   3.89423  0.95432  4.84855
     Atomic magnetic moment for atom  12 =   2.93991
     SPIN  1
     eigenvalues:
       0.523  0.523  0.949  0.950  0.950
     eigenvectors (columns):
       0.977 -0.214 -0.000 -0.000  0.000
       0.000  0.000 -0.212  0.977 -0.000
      -0.000  0.000  0.000  0.000  1.000
      -0.214 -0.977  0.000  0.000  0.000
      -0.000 -0.000 -0.977 -0.212  0.000
     occupation matrix ns (before diag.):
       0.523 -0.000  0.000  0.000  0.000
      -0.000  0.950 -0.000  0.000 -0.000
       0.000 -0.000  0.950  0.000  0.000
       0.000  0.000  0.000  0.523 -0.000
       0.000 -0.000  0.000 -0.000  0.949
     SPIN  2
     eigenvalues:
       0.055  0.055  0.055  0.394  0.395
     eigenvectors (columns):
       0.000 -0.000 -0.000 -0.487  0.873
       0.000 -1.000  0.004 -0.000 -0.000
       1.000  0.000  0.000  0.000 -0.000
      -0.000  0.000  0.000 -0.873 -0.487
      -0.000  0.004  1.000  0.000  0.000
     occupation matrix ns (before diag.):
       0.395 -0.000 -0.000 -0.000  0.000
      -0.000  0.055 -0.000  0.000  0.000
      -0.000 -0.000  0.055  0.000  0.000
      -0.000  0.000  0.000  0.395 -0.000
       0.000  0.000  0.000 -0.000  0.055

     Number of occupied Hubbard levels =   33.5922

     HUBBARD ENERGY =    0.9656  (Ry)

     total cpu time spent up to now is      163.6 secs

     total energy              =   -2329.11454735 Ry
     estimated scf accuracy    <       0.24524710 Ry

     total magnetization       =    -0.00 Bohr mag/cell
     absolute magnetization    =    28.15 Bohr mag/cell

     iteration #  8     ecut=   110.00 Ry     beta= 0.30
     Davidson diagonalization with overlap

---- Real-time Memory Report at c_bands before calling an iterative solver
           568 MiB given to the printing process from OS
           275 MiB allocation reported by mallinfo(arena+hblkhd)
        678182 MiB available memory on the node where the printing process lives
------------------
     ethr =  5.79E-05,  avg # of iterations =  6.5

     =================== HUBBARD OCCUPATIONS ===================
     ------------------------ ATOM    5 ------------------------
     Tr[ns(  5)] (up, down, total) =   0.41252  3.12216  3.53468
     Atomic magnetic moment for atom   5 =  -2.70963
     SPIN  1
     eigenvalues:
       0.023  0.023  0.025  0.163  0.178
     eigenvectors (columns):
      -0.000 -0.000  0.001  0.866  0.500
       0.707 -0.707  0.000 -0.000 -0.000
      -0.000 -0.000 -1.000  0.000  0.001
       0.000  0.000 -0.001  0.500 -0.866
       0.707  0.707 -0.000 -0.000  0.000
     occupation matrix ns (before diag.):
       0.167 -0.000  0.000 -0.007  0.000
      -0.000  0.023 -0.000  0.000 -0.000
       0.000 -0.000  0.025 -0.000  0.000
      -0.007  0.000 -0.000  0.175 -0.000
       0.000 -0.000  0.000 -0.000  0.023
     SPIN  2
     eigenvalues:
       0.200  0.230  0.894  0.896  0.903
     eigenvectors (columns):
       0.866  0.500 -0.000 -0.000  0.001
       0.000  0.000  0.707 -0.707  0.000
      -0.000  0.002  0.000  0.000 -1.000
       0.500 -0.866  0.000  0.000 -0.001
      -0.000 -0.000 -0.707 -0.707 -0.000
     occupation matrix ns (before diag.):
       0.208 -0.000 -0.001 -0.013  0.000
      -0.000  0.895 -0.000  0.000  0.001
      -0.001 -0.000  0.903  0.001  0.000
      -0.013  0.000  0.001  0.222 -0.000
       0.000  0.001  0.000 -0.000  0.895
     ------------------------ ATOM    6 ------------------------
     Tr[ns(  6)] (up, down, total) =   0.40486  3.11450  3.51937
     Atomic magnetic moment for atom   6 =  -2.70964
     SPIN  1
     eigenvalues:
       0.025  0.025  0.025  0.165  0.165
     eigenvectors (columns):
       0.000 -0.000 -0.000  0.500 -0.866
      -0.000  0.707 -0.707 -0.000  0.000
      -1.000  0.000  0.000  0.000 -0.000
      -0.000  0.000  0.000 -0.866 -0.500
       0.000  0.707  0.707  0.000  0.000
     occupation matrix ns (before diag.):
       0.165 -0.000  0.000  0.000  0.000
      -0.000  0.025 -0.000  0.000 -0.000
       0.000 -0.000  0.025 -0.000  0.000
       0.000  0.000 -0.000  0.165 -0.000
       0.000 -0.000  0.000 -0.000  0.025
     SPIN  2
     eigenvalues:
       0.200  0.201  0.904  0.904  0.905
     eigenvectors (columns):
       0.866 -0.500  0.000  0.000  0.000
      -0.000 -0.000  0.000  0.707 -0.707
      -0.000 -0.000 -1.000  0.000  0.000
       0.500  0.866 -0.000 -0.000 -0.000
      -0.000  0.000  0.000  0.707  0.707
     occupation matrix ns (before diag.):
       0.200 -0.000 -0.000 -0.000  0.000
      -0.000  0.905 -0.000  0.000 -0.000
      -0.000 -0.000  0.904  0.000  0.000
      -0.000  0.000  0.000  0.201 -0.000
       0.000 -0.000  0.000 -0.000  0.905
     ------------------------ ATOM    7 ------------------------
     Tr[ns(  7)] (up, down, total) =   0.40415  3.11613  3.52028
     Atomic magnetic moment for atom   7 =  -2.71199
     SPIN  1
     eigenvalues:
       0.025  0.025  0.025  0.164  0.166
     eigenvectors (columns):
      -0.000  0.000 -0.000  0.141  0.990
      -0.999 -0.000 -0.038 -0.000 -0.000
      -0.000  1.000  0.000  0.000 -0.000
       0.000  0.000  0.000 -0.990  0.141
      -0.038 -0.000  0.999  0.000  0.000
     occupation matrix ns (before diag.):
       0.166 -0.000 -0.000  0.000  0.000
      -0.000  0.025 -0.000  0.000 -0.000
      -0.000 -0.000  0.025 -0.000  0.000
       0.000  0.000 -0.000  0.164 -0.000
       0.000 -0.000  0.000 -0.000  0.025
     SPIN  2
     eigenvalues:
       0.201  0.201  0.904  0.904  0.906
     eigenvectors (columns):
       0.581 -0.814 -0.000 -0.000 -0.000
      -0.000 -0.000 -0.000 -0.001  1.000
       0.000  0.000 -1.000 -0.000 -0.000
       0.814  0.581  0.000  0.000  0.000
       0.000  0.000  0.000 -1.000 -0.001
     occupation matrix ns (before diag.):
       0.201 -0.000  0.000 -0.000  0.000
      -0.000  0.906 -0.000  0.000 -0.000
       0.000 -0.000  0.904 -0.000  0.000
      -0.000  0.000 -0.000  0.201 -0.000
       0.000 -0.000  0.000 -0.000  0.904
     ------------------------ ATOM    8 ------------------------
     Tr[ns(  8)] (up, down, total) =   0.40415  3.11613  3.52028
     Atomic magnetic moment for atom   8 =  -2.71199
     SPIN  1
     eigenvalues:
       0.025  0.025  0.025  0.164  0.166
     eigenvectors (columns):
      -0.000  0.000 -0.000  0.787 -0.617
       0.038 -0.000 -0.999 -0.000  0.000
      -0.000 -1.000  0.000  0.000 -0.000
       0.000 -0.000  0.000 -0.617 -0.787
       0.999 -0.000  0.038  0.000  0.000
     occupation matrix ns (before diag.):
       0.165 -0.000  0.000  0.001  0.000
      -0.000  0.025 -0.000  0.000 -0.000
       0.000 -0.000  0.025 -0.000  0.000
       0.001  0.000 -0.000  0.165 -0.000
       0.000 -0.000  0.000 -0.000  0.025
     SPIN  2
     eigenvalues:
       0.201  0.201  0.904  0.904  0.906
     eigenvectors (columns):
       0.995  0.096  0.000 -0.000  0.000
       0.000  0.000  0.000  1.000 -0.001
      -0.000 -0.000  1.000 -0.000  0.000
       0.096 -0.995 -0.000  0.000 -0.000
      -0.000 -0.000 -0.000  0.001  1.000
     occupation matrix ns (before diag.):
       0.201 -0.000  0.000 -0.000  0.000
      -0.000  0.904 -0.000  0.000 -0.000
       0.000 -0.000  0.904 -0.000  0.000
      -0.000  0.000 -0.000  0.201 -0.000
       0.000 -0.000  0.000 -0.000  0.906
     ------------------------ ATOM    9 ------------------------
     Tr[ns(  9)] (up, down, total) =   3.75496  0.83871  4.59367
     Atomic magnetic moment for atom   9 =   2.91625
     SPIN  1
     eigenvalues:
       0.439  0.486  0.941  0.945  0.945
     eigenvectors (columns):
      -0.500  0.866 -0.001  0.000  0.000
      -0.000  0.000 -0.000  0.707 -0.707
       0.001 -0.000 -1.000  0.000  0.000
       0.866  0.500  0.001 -0.000 -0.000
       0.000 -0.000  0.000  0.707  0.707
     occupation matrix ns (before diag.):
       0.474 -0.000  0.000  0.020  0.000
      -0.000  0.945 -0.000  0.000 -0.000
       0.000 -0.000  0.941 -0.001  0.000
       0.020  0.000 -0.001  0.451 -0.000
       0.000 -0.000  0.000 -0.000  0.945
     SPIN  2
     eigenvalues:
       0.048  0.050  0.051  0.328  0.361
     eigenvectors (columns):
       0.000 -0.000 -0.000  0.500 -0.866
       0.000 -0.707  0.707 -0.000  0.000
       1.000  0.000  0.000 -0.001 -0.000
      -0.001  0.000  0.000 -0.866 -0.500
      -0.000  0.707  0.707  0.000  0.000
     occupation matrix ns (before diag.):
       0.353 -0.000 -0.000  0.015  0.000
      -0.000  0.051 -0.000  0.000  0.000
      -0.000 -0.000  0.048  0.000  0.000
       0.015  0.000  0.000  0.336 -0.000
       0.000  0.000  0.000 -0.000  0.051
     ------------------------ ATOM   10 ------------------------
     Tr[ns( 10)] (up, down, total) =   3.78184  0.86959  4.65143
     Atomic magnetic moment for atom  10 =   2.91224
     SPIN  1
     eigenvalues:
       0.482  0.482  0.939  0.939  0.939
     eigenvectors (columns):
      -0.500  0.866 -0.000  0.000  0.000
      -0.000  0.000  0.000 -0.707  0.707
      -0.000 -0.000  1.000  0.000  0.000
       0.866  0.500  0.000 -0.000 -0.000
       0.000 -0.000 -0.000  0.707  0.707
     occupation matrix ns (before diag.):
       0.482 -0.000 -0.000  0.000  0.000
      -0.000  0.939 -0.000  0.000  0.000
      -0.000 -0.000  0.939  0.000  0.000
       0.000  0.000  0.000  0.482 -0.000
       0.000  0.000  0.000 -0.000  0.939
     SPIN  2
     eigenvalues:
       0.049  0.049  0.049  0.361  0.362
     eigenvectors (columns):
      -0.000 -0.000 -0.000 -0.500 -0.866
       0.000  0.707 -0.707  0.000  0.000
       1.000  0.000  0.000 -0.000 -0.000
       0.000  0.000  0.000  0.866 -0.500
      -0.000  0.707  0.707 -0.000  0.000
     occupation matrix ns (before diag.):
       0.362 -0.000  0.000  0.000  0.000
      -0.000  0.049 -0.000  0.000 -0.000
       0.000 -0.000  0.049 -0.000  0.000
       0.000  0.000 -0.000  0.361 -0.000
       0.000 -0.000  0.000 -0.000  0.049
     ------------------------ ATOM   11 ------------------------
     Tr[ns( 11)] (up, down, total) =   3.78357  0.87113  4.65469
     Atomic magnetic moment for atom  11 =   2.91244
     SPIN  1
     eigenvalues:
       0.483  0.483  0.939  0.939  0.939
     eigenvectors (columns):
      -0.692  0.722  0.000 -0.000  0.000
      -0.000 -0.000 -1.000 -0.000  0.000
       0.000  0.000 -0.000  1.000  0.000
       0.722  0.692 -0.000 -0.000 -0.000
       0.000  0.000  0.000 -0.000  1.000
     occupation matrix ns (before diag.):
       0.483 -0.000 -0.000  0.000  0.000
      -0.000  0.939 -0.000  0.000  0.000
      -0.000 -0.000  0.939 -0.000  0.000
       0.000  0.000 -0.000  0.483 -0.000
       0.000  0.000  0.000 -0.000  0.939
     SPIN  2
     eigenvalues:
       0.049  0.049  0.050  0.361  0.362
     eigenvectors (columns):
      -0.000 -0.000 -0.000 -0.882 -0.472
       0.051 -0.000 -0.999  0.000  0.000
      -0.000 -1.000  0.000  0.000  0.000
       0.000  0.000  0.000 -0.472  0.882
       0.999 -0.000  0.051  0.000 -0.000
     occupation matrix ns (before diag.):
       0.362 -0.000 -0.000 -0.000  0.000
      -0.000  0.050 -0.000  0.000 -0.000
      -0.000 -0.000  0.049  0.000  0.000
      -0.000  0.000  0.000  0.362 -0.000
       0.000 -0.000  0.000 -0.000  0.049
     ------------------------ ATOM   12 ------------------------
     Tr[ns( 12)] (up, down, total) =   3.78357  0.87113  4.65469
     Atomic magnetic moment for atom  12 =   2.91244
     SPIN  1
     eigenvalues:
       0.483  0.483  0.939  0.939  0.939
     eigenvectors (columns):
      -0.279 -0.960 -0.000 -0.000  0.000
      -0.000 -0.000  0.000 -0.000 -1.000
       0.000  0.000  0.000 -1.000  0.000
       0.960 -0.279  0.000 -0.000 -0.000
       0.000  0.000 -1.000 -0.000 -0.000
     occupation matrix ns (before diag.):
       0.483 -0.000  0.000  0.000  0.000
      -0.000  0.939 -0.000  0.000  0.000
       0.000 -0.000  0.939  0.000  0.000
       0.000  0.000  0.000  0.483 -0.000
       0.000  0.000  0.000 -0.000  0.939
     SPIN  2
     eigenvalues:
       0.049  0.049  0.050  0.361  0.362
     eigenvectors (columns):
      -0.000 -0.000 -0.000 -0.849  0.528
      -0.999 -0.000 -0.051  0.000 -0.000
      -0.000  1.000  0.000 -0.000 -0.000
       0.000 -0.000  0.000 -0.528 -0.849
      -0.051 -0.000  0.999  0.000  0.000
     occupation matrix ns (before diag.):
       0.362 -0.000  0.000 -0.000  0.000
      -0.000  0.049 -0.000  0.000 -0.000
       0.000 -0.000  0.049  0.000  0.000
      -0.000  0.000  0.000  0.362 -0.000
       0.000 -0.000  0.000 -0.000  0.050

     Number of occupied Hubbard levels =   32.6491

     HUBBARD ENERGY =    0.9686  (Ry)

     total cpu time spent up to now is      182.7 secs

     total energy              =   -2329.13196174 Ry
     estimated scf accuracy    <       0.03954277 Ry

     total magnetization       =    -0.00 Bohr mag/cell
     absolute magnetization    =    27.91 Bohr mag/cell

     iteration #  9     ecut=   110.00 Ry     beta= 0.30
     Davidson diagonalization with overlap

---- Real-time Memory Report at c_bands before calling an iterative solver
           573 MiB given to the printing process from OS
           280 MiB allocation reported by mallinfo(arena+hblkhd)
        678102 MiB available memory on the node where the printing process lives
------------------
     c_bands:  1 eigenvalues not converged
     ethr =  1.10E-05,  avg # of iterations = 19.5

     =================== HUBBARD OCCUPATIONS ===================
     ------------------------ ATOM    5 ------------------------
     Tr[ns(  5)] (up, down, total) =   0.41151  3.10007  3.51158
     Atomic magnetic moment for atom   5 =  -2.68855
     SPIN  1
     eigenvalues:
       0.023  0.023  0.025  0.161  0.179
     eigenvectors (columns):
      -0.000 -0.000  0.000  0.866  0.500
       0.707 -0.707  0.000 -0.000 -0.000
      -0.000 -0.000 -1.000  0.000  0.001
       0.000  0.000 -0.001  0.500 -0.866
       0.707  0.707 -0.000 -0.000  0.000
     occupation matrix ns (before diag.):
       0.166 -0.000  0.000 -0.008  0.000
      -0.000  0.023 -0.000  0.000 -0.000
       0.000 -0.000  0.025 -0.000  0.000
      -0.008  0.000 -0.000  0.175 -0.000
       0.000 -0.000  0.000 -0.000  0.023
     SPIN  2
     eigenvalues:
       0.197  0.226  0.889  0.891  0.897
     eigenvectors (columns):
       0.866  0.500 -0.000 -0.000  0.001
       0.000  0.000  0.707 -0.707  0.000
      -0.000  0.002  0.000  0.000 -1.000
       0.500 -0.866  0.000  0.000 -0.001
      -0.000 -0.000 -0.707 -0.707 -0.000
     occupation matrix ns (before diag.):
       0.204 -0.000 -0.001 -0.013  0.000
      -0.000  0.890 -0.000  0.000  0.001
      -0.001 -0.000  0.897  0.001  0.000
      -0.013  0.000  0.001  0.219 -0.000
       0.000  0.001  0.000 -0.000  0.890
     ------------------------ ATOM    6 ------------------------
     Tr[ns(  6)] (up, down, total) =   0.40067  3.09106  3.49173
     Atomic magnetic moment for atom   6 =  -2.69040
     SPIN  1
     eigenvalues:
       0.025  0.025  0.025  0.162  0.163
     eigenvectors (columns):
       0.000 -0.000 -0.000 -0.866  0.500
      -0.000 -0.707  0.707  0.000 -0.000
      -1.000  0.000  0.000 -0.000  0.000
      -0.000  0.000  0.000 -0.500 -0.866
       0.000  0.707  0.707  0.000  0.000
     occupation matrix ns (before diag.):
       0.162 -0.000  0.000 -0.000  0.000
      -0.000  0.025 -0.000  0.000  0.000
       0.000 -0.000  0.025 -0.000  0.000
      -0.000  0.000 -0.000  0.163 -0.000
       0.000  0.000  0.000 -0.000  0.025
     SPIN  2
     eigenvalues:
       0.197  0.197  0.899  0.899  0.899
     eigenvectors (columns):
      -0.500  0.866  0.000  0.000  0.000
      -0.000  0.000  0.000 -0.707  0.707
       0.000 -0.000  1.000  0.000  0.000
       0.866  0.500 -0.000 -0.000 -0.000
       0.000 -0.000 -0.000  0.707  0.707
     occupation matrix ns (before diag.):
       0.197 -0.000  0.000  0.000  0.000
      -0.000  0.899 -0.000  0.000  0.000
       0.000 -0.000  0.899 -0.000  0.000
       0.000  0.000 -0.000  0.197 -0.000
       0.000  0.000  0.000 -0.000  0.899
     ------------------------ ATOM    7 ------------------------
     Tr[ns(  7)] (up, down, total) =   0.39989  3.09232  3.49221
     Atomic magnetic moment for atom   7 =  -2.69244
     SPIN  1
     eigenvalues:
       0.025  0.025  0.025  0.162  0.163
     eigenvectors (columns):
       0.000 -0.000 -0.000  0.270  0.963
       1.000  0.030  0.000 -0.000 -0.000
       0.000 -0.000 -1.000 -0.000 -0.000
      -0.000  0.000  0.000 -0.963  0.270
      -0.030  1.000 -0.000  0.000  0.000
     occupation matrix ns (before diag.):
       0.163 -0.000 -0.000  0.000  0.000
      -0.000  0.025 -0.000  0.000  0.000
      -0.000 -0.000  0.025  0.000  0.000
       0.000  0.000  0.000  0.162 -0.000
       0.000  0.000  0.000 -0.000  0.025
     SPIN  2
     eigenvalues:
       0.197  0.198  0.898  0.898  0.901
     eigenvectors (columns):
       0.048  0.999  0.000 -0.000 -0.000
       0.000  0.000  0.000 -0.013  1.000
      -0.000 -0.000  1.000 -0.000 -0.000
      -0.999  0.048 -0.000  0.000  0.000
      -0.000 -0.000 -0.000 -1.000 -0.013
     occupation matrix ns (before diag.):
       0.198 -0.000  0.000  0.000  0.000
      -0.000  0.901 -0.000  0.000 -0.000
       0.000 -0.000  0.898 -0.000  0.000
       0.000  0.000 -0.000  0.197 -0.000
       0.000 -0.000  0.000 -0.000  0.898
     ------------------------ ATOM    8 ------------------------
     Tr[ns(  8)] (up, down, total) =   0.39989  3.09232  3.49221
     Atomic magnetic moment for atom   8 =  -2.69244
     SPIN  1
     eigenvalues:
       0.025  0.025  0.025  0.162  0.163
     eigenvectors (columns):
      -0.000  0.000 -0.000 -0.699  0.715
      -0.030  1.000 -0.000  0.000  0.000
      -0.000  0.000  1.000  0.000  0.000
       0.000 -0.000 -0.000  0.715  0.699
       1.000  0.030  0.000 -0.000 -0.000
     occupation matrix ns (before diag.):
       0.162 -0.000  0.000  0.001  0.000
      -0.000  0.025 -0.000  0.000  0.000
       0.000 -0.000  0.025  0.000  0.000
       0.001  0.000  0.000  0.162 -0.000
       0.000  0.000  0.000 -0.000  0.025
     SPIN  2
     eigenvalues:
       0.197  0.198  0.898  0.898  0.901
     eigenvectors (columns):
       0.841  0.541  0.000 -0.000  0.000
       0.000 -0.000  0.000  1.000 -0.013
      -0.000  0.000  1.000 -0.000  0.000
      -0.541  0.841 -0.000  0.000 -0.000
      -0.000  0.000 -0.000  0.013  1.000
     occupation matrix ns (before diag.):
       0.197 -0.000  0.000  0.000  0.000
      -0.000  0.898 -0.000  0.000 -0.000
       0.000 -0.000  0.898 -0.000  0.000
       0.000  0.000 -0.000  0.197 -0.000
       0.000 -0.000  0.000 -0.000  0.901
     ------------------------ ATOM    9 ------------------------
     Tr[ns(  9)] (up, down, total) =   3.76961  0.84500  4.61461
     Atomic magnetic moment for atom   9 =   2.92461
     SPIN  1
     eigenvalues:
       0.443  0.492  0.942  0.946  0.946
     eigenvectors (columns):
      -0.500  0.866 -0.001  0.000  0.000
      -0.000 -0.000 -0.000  0.707 -0.707
       0.001 -0.000 -1.000  0.000  0.000
       0.866  0.500  0.001 -0.000 -0.000
       0.000 -0.000  0.000  0.707  0.707
     occupation matrix ns (before diag.):
       0.480 -0.000  0.000  0.021  0.000
      -0.000  0.946 -0.000  0.000 -0.000
       0.000 -0.000  0.942 -0.001  0.000
       0.021  0.000 -0.001  0.456 -0.000
       0.000 -0.000  0.000 -0.000  0.946
     SPIN  2
     eigenvalues:
       0.049  0.051  0.052  0.329  0.364
     eigenvectors (columns):
       0.000 -0.000 -0.000  0.500 -0.866
       0.000 -0.707  0.707 -0.000  0.000
       1.000  0.000  0.000 -0.001 -0.000
      -0.001  0.000  0.000 -0.866 -0.500
      -0.000  0.707  0.707  0.000  0.000
     occupation matrix ns (before diag.):
       0.355 -0.000 -0.000  0.015  0.000
      -0.000  0.052 -0.000  0.000  0.000
      -0.000 -0.000  0.049  0.000  0.000
       0.015  0.000  0.000  0.338 -0.000
       0.000  0.000  0.000 -0.000  0.052
     ------------------------ ATOM   10 ------------------------
     Tr[ns( 10)] (up, down, total) =   3.79171  0.87006  4.66176
     Atomic magnetic moment for atom  10 =   2.92165
     SPIN  1
     eigenvalues:
       0.486  0.486  0.940  0.940  0.940
     eigenvectors (columns):
       0.866 -0.500  0.000  0.000  0.000
      -0.000 -0.000 -0.000  0.707 -0.707
      -0.000 -0.000 -1.000  0.000  0.000
       0.500  0.866 -0.000 -0.000 -0.000
      -0.000  0.000  0.000  0.707  0.707
     occupation matrix ns (before diag.):
       0.486 -0.000 -0.000 -0.000  0.000
      -0.000  0.940 -0.000  0.000 -0.000
      -0.000 -0.000  0.940  0.000  0.000
      -0.000  0.000  0.000  0.486 -0.000
       0.000 -0.000  0.000 -0.000  0.940
     SPIN  2
     eigenvalues:
       0.049  0.049  0.049  0.362  0.362
     eigenvectors (columns):
      -0.000 -0.000  0.000  0.500 -0.866
       0.707 -0.707  0.000 -0.000  0.000
      -0.000 -0.000 -1.000  0.000 -0.000
       0.000  0.000 -0.000 -0.866 -0.500
       0.707  0.707 -0.000  0.000  0.000
     occupation matrix ns (before diag.):
       0.362 -0.000  0.000  0.000  0.000
      -0.000  0.049 -0.000  0.000 -0.000
       0.000 -0.000  0.049 -0.000  0.000
       0.000  0.000 -0.000  0.362 -0.000
       0.000 -0.000  0.000 -0.000  0.049
     ------------------------ ATOM   11 ------------------------
     Tr[ns( 11)] (up, down, total) =   3.79235  0.87037  4.66272
     Atomic magnetic moment for atom  11 =   2.92198
     SPIN  1
     eigenvalues:
       0.486  0.486  0.940  0.940  0.940
     eigenvectors (columns):
       0.927  0.375 -0.000 -0.000  0.000
       0.000 -0.000  1.000 -0.000 -0.026
       0.000  0.000  0.000  1.000  0.000
      -0.375  0.927  0.000 -0.000 -0.000
      -0.000  0.000  0.026 -0.000  1.000
     occupation matrix ns (before diag.):
       0.486 -0.000 -0.000  0.000  0.000
      -0.000  0.940 -0.000  0.000 -0.000
      -0.000 -0.000  0.940 -0.000  0.000
       0.000  0.000 -0.000  0.486 -0.000
       0.000 -0.000  0.000 -0.000  0.940
     SPIN  2
     eigenvalues:
       0.049  0.049  0.049  0.362  0.362
     eigenvectors (columns):
      -0.000 -0.000 -0.000 -0.948 -0.318
       0.007 -0.000 -1.000  0.000  0.000
      -0.000 -1.000  0.000  0.000  0.000
       0.000  0.000  0.000 -0.318  0.948
       1.000 -0.000  0.007 -0.000 -0.000
     occupation matrix ns (before diag.):
       0.362 -0.000 -0.000 -0.000  0.000
      -0.000  0.049 -0.000  0.000 -0.000
      -0.000 -0.000  0.049  0.000  0.000
      -0.000  0.000  0.000  0.362 -0.000
       0.000 -0.000  0.000 -0.000  0.049
     ------------------------ ATOM   12 ------------------------
     Tr[ns( 12)] (up, down, total) =   3.79235  0.87037  4.66272
     Atomic magnetic moment for atom  12 =   2.92198
     SPIN  1
     eigenvalues:
       0.486  0.486  0.940  0.940  0.940
     eigenvectors (columns):
       0.138  0.990 -0.000 -0.000 -0.000
      -0.000  0.000 -0.026 -0.000  1.000
      -0.000 -0.000  0.000 -1.000 -0.000
       0.990 -0.138  0.000  0.000  0.000
       0.000 -0.000 -1.000 -0.000 -0.026
     occupation matrix ns (before diag.):
       0.486 -0.000  0.000 -0.000  0.000
      -0.000  0.940 -0.000  0.000 -0.000
       0.000 -0.000  0.940 -0.000  0.000
      -0.000  0.000 -0.000  0.486 -0.000
       0.000 -0.000  0.000 -0.000  0.940
     SPIN  2
     eigenvalues:
       0.049  0.049  0.049  0.362  0.362
     eigenvectors (columns):
      -0.000 -0.000 -0.000  0.750 -0.662
      -1.000 -0.000 -0.007  0.000  0.000
      -0.000  1.000  0.000  0.000  0.000
       0.000 -0.000  0.000  0.662  0.750
      -0.007 -0.000  1.000 -0.000 -0.000
     occupation matrix ns (before diag.):
       0.362 -0.000  0.000 -0.000  0.000
      -0.000  0.049 -0.000  0.000 -0.000
       0.000 -0.000  0.049  0.000  0.000
      -0.000  0.000  0.000  0.362 -0.000
       0.000 -0.000  0.000 -0.000  0.049

     Number of occupied Hubbard levels =   32.5895

     negative rho (up, down):  5.291E-04 5.013E-04

     HUBBARD ENERGY =    0.9754  (Ry)

     total cpu time spent up to now is      208.9 secs

     total energy              =   -2329.13149267 Ry
     estimated scf accuracy    <       0.01141968 Ry

     total magnetization       =    -0.00 Bohr mag/cell
     absolute magnetization    =    28.07 Bohr mag/cell

     iteration # 10     ecut=   110.00 Ry     beta= 0.30
     Davidson diagonalization with overlap

---- Real-time Memory Report at c_bands before calling an iterative solver
           578 MiB given to the printing process from OS
           285 MiB allocation reported by mallinfo(arena+hblkhd)
        678022 MiB available memory on the node where the printing process lives
------------------
     c_bands:  1 eigenvalues not converged
     ethr =  3.17E-06,  avg # of iterations = 16.2

     =================== HUBBARD OCCUPATIONS ===================
     ------------------------ ATOM    5 ------------------------
     Tr[ns(  5)] (up, down, total) =   0.41296  3.10046  3.51341
     Atomic magnetic moment for atom   5 =  -2.68750
     SPIN  1
     eigenvalues:
       0.023  0.023  0.026  0.161  0.180
     eigenvectors (columns):
      -0.000 -0.000  0.000  0.866  0.500
       0.707 -0.707  0.000 -0.000 -0.000
      -0.000 -0.000 -1.000  0.000  0.001
       0.000  0.000 -0.001  0.500 -0.866
       0.707  0.707 -0.000 -0.000  0.000
     occupation matrix ns (before diag.):
       0.166 -0.000  0.000 -0.008  0.000
      -0.000  0.023 -0.000  0.000 -0.000
       0.000 -0.000  0.026 -0.000  0.000
      -0.008  0.000 -0.000  0.175 -0.000
       0.000 -0.000  0.000 -0.000  0.023
     SPIN  2
     eigenvalues:
       0.197  0.227  0.889  0.891  0.897
     eigenvectors (columns):
       0.866  0.500 -0.000 -0.000  0.001
       0.000  0.000  0.707 -0.707  0.000
      -0.000  0.002  0.000  0.000 -1.000
       0.500 -0.866  0.000  0.000 -0.002
      -0.000 -0.000 -0.707 -0.707 -0.000
     occupation matrix ns (before diag.):
       0.204 -0.000 -0.001 -0.013  0.000
      -0.000  0.890 -0.000  0.000  0.001
      -0.001 -0.000  0.897  0.001  0.000
      -0.013  0.000  0.001  0.219 -0.000
       0.000  0.001  0.000 -0.000  0.890
     ------------------------ ATOM    6 ------------------------
     Tr[ns(  6)] (up, down, total) =   0.39946  3.08949  3.48895
     Atomic magnetic moment for atom   6 =  -2.69002
     SPIN  1
     eigenvalues:
       0.025  0.025  0.026  0.161  0.161
     eigenvectors (columns):
       0.000 -0.000 -0.000  0.500 -0.866
      -0.000  0.707 -0.707 -0.000  0.000
      -1.000  0.000  0.000  0.000 -0.000
      -0.000  0.000  0.000 -0.866 -0.500
       0.000  0.707  0.707  0.000  0.000
     occupation matrix ns (before diag.):
       0.161 -0.000  0.000  0.000  0.000
      -0.000  0.026 -0.000  0.000 -0.000
       0.000 -0.000  0.025 -0.000  0.000
       0.000  0.000 -0.000  0.161 -0.000
       0.000 -0.000  0.000 -0.000  0.026
     SPIN  2
     eigenvalues:
       0.197  0.197  0.898  0.899  0.899
     eigenvectors (columns):
       0.866  0.500 -0.000  0.000  0.000
      -0.000  0.000 -0.000 -0.707  0.707
      -0.000 -0.000 -1.000  0.000  0.000
       0.500 -0.866  0.000 -0.000 -0.000
      -0.000 -0.000  0.000  0.707  0.707
     occupation matrix ns (before diag.):
       0.197 -0.000  0.000 -0.000  0.000
      -0.000  0.899 -0.000  0.000  0.000
       0.000 -0.000  0.898 -0.000  0.000
      -0.000  0.000 -0.000  0.197 -0.000
       0.000  0.000  0.000 -0.000  0.899
     ------------------------ ATOM    7 ------------------------
     Tr[ns(  7)] (up, down, total) =   0.39913  3.09054  3.48967
     Atomic magnetic moment for atom   7 =  -2.69141
     SPIN  1
     eigenvalues:
       0.025  0.025  0.026  0.161  0.162
     eigenvectors (columns):
       0.000 -0.000 -0.000  0.208  0.978
       0.998  0.065  0.000 -0.000 -0.000
       0.000 -0.000 -1.000 -0.000 -0.000
      -0.000  0.000  0.000 -0.978  0.208
      -0.065  0.998 -0.000  0.000  0.000
     occupation matrix ns (before diag.):
       0.162 -0.000 -0.000  0.000  0.000
      -0.000  0.025 -0.000  0.000  0.000
      -0.000 -0.000  0.026  0.000  0.000
       0.000  0.000  0.000  0.161 -0.000
       0.000  0.000  0.000 -0.000  0.025
     SPIN  2
     eigenvalues:
       0.197  0.197  0.898  0.898  0.901
     eigenvectors (columns):
      -0.002  1.000  0.000 -0.000 -0.000
       0.000  0.000  0.000 -0.015  1.000
      -0.000 -0.000  1.000 -0.000 -0.000
      -1.000 -0.002 -0.000  0.000  0.000
      -0.000 -0.000 -0.000 -1.000 -0.015
     occupation matrix ns (before diag.):
       0.197 -0.000  0.000 -0.000  0.000
      -0.000  0.901 -0.000  0.000 -0.000
       0.000 -0.000  0.898 -0.000  0.000
      -0.000  0.000 -0.000  0.197 -0.000
       0.000 -0.000  0.000 -0.000  0.898
     ------------------------ ATOM    8 ------------------------
     Tr[ns(  8)] (up, down, total) =   0.39913  3.09054  3.48967
     Atomic magnetic moment for atom   8 =  -2.69141
     SPIN  1
     eigenvalues:
       0.025  0.025  0.026  0.161  0.162
     eigenvectors (columns):
      -0.000  0.000 -0.000 -0.743  0.669
      -0.065  0.998 -0.000  0.000  0.000
      -0.000  0.000  1.000  0.000  0.000
       0.000 -0.000 -0.000  0.669  0.743
       0.998  0.065  0.000 -0.000 -0.000
     occupation matrix ns (before diag.):
       0.161 -0.000  0.000  0.000  0.000
      -0.000  0.025 -0.000  0.000  0.000
       0.000 -0.000  0.026  0.000  0.000
       0.000  0.000  0.000  0.161 -0.000
       0.000  0.000  0.000 -0.000  0.025
     SPIN  2
     eigenvalues:
       0.197  0.197  0.898  0.898  0.901
     eigenvectors (columns):
       0.867  0.498  0.000 -0.000  0.000
       0.000 -0.000  0.000  1.000 -0.015
      -0.000  0.000  1.000 -0.000  0.000
      -0.498  0.867 -0.000  0.000 -0.000
      -0.000  0.000 -0.000  0.015  1.000
     occupation matrix ns (before diag.):
       0.197 -0.000  0.000  0.000  0.000
      -0.000  0.898 -0.000  0.000 -0.000
       0.000 -0.000  0.898 -0.000  0.000
       0.000  0.000 -0.000  0.197 -0.000
       0.000 -0.000  0.000 -0.000  0.901
     ------------------------ ATOM    9 ------------------------
     Tr[ns(  9)] (up, down, total) =   3.78390  0.85186  4.63576
     Atomic magnetic moment for atom   9 =   2.93204
     SPIN  1
     eigenvalues:
       0.448  0.498  0.943  0.947  0.948
     eigenvectors (columns):
      -0.500  0.866 -0.001  0.000  0.000
      -0.000 -0.000 -0.000  0.707 -0.707
       0.001 -0.000 -1.000  0.000  0.000
       0.866  0.500  0.001 -0.000 -0.000
       0.000 -0.000  0.000  0.707  0.707
     occupation matrix ns (before diag.):
       0.485 -0.000  0.000  0.021  0.000
      -0.000  0.947 -0.000  0.000 -0.000
       0.000 -0.000  0.943 -0.001  0.000
       0.021  0.000 -0.001  0.461 -0.000
       0.000 -0.000  0.000 -0.000  0.947
     SPIN  2
     eigenvalues:
       0.049  0.052  0.052  0.331  0.368
     eigenvectors (columns):
       0.000 -0.000 -0.000  0.500 -0.866
       0.000 -0.707  0.707 -0.000  0.000
       1.000  0.000  0.000 -0.001  0.000
      -0.001  0.000  0.000 -0.866 -0.500
      -0.000  0.707  0.707  0.000  0.000
     occupation matrix ns (before diag.):
       0.358 -0.000 -0.000  0.016  0.000
      -0.000  0.052 -0.000  0.000  0.000
      -0.000 -0.000  0.049  0.000  0.000
       0.016  0.000  0.000  0.340 -0.000
       0.000  0.000  0.000 -0.000  0.052
     ------------------------ ATOM   10 ------------------------
     Tr[ns( 10)] (up, down, total) =   3.80384  0.87465  4.67850
     Atomic magnetic moment for atom  10 =   2.92919
     SPIN  1
     eigenvalues:
       0.491  0.491  0.941  0.941  0.941
     eigenvectors (columns):
      -0.866 -0.500  0.000  0.000  0.000
      -0.000 -0.000 -0.000 -0.707  0.707
       0.000 -0.000 -1.000  0.000  0.000
      -0.500  0.866 -0.000 -0.000 -0.000
       0.000  0.000  0.000  0.707  0.707
     occupation matrix ns (before diag.):
       0.491 -0.000 -0.000 -0.000  0.000
      -0.000  0.941 -0.000  0.000  0.000
      -0.000 -0.000  0.941  0.000  0.000
      -0.000  0.000  0.000  0.491 -0.000
       0.000  0.000  0.000 -0.000  0.941
     SPIN  2
     eigenvalues:
       0.049  0.049  0.049  0.364  0.364
     eigenvectors (columns):
      -0.000 -0.000  0.000  0.500 -0.866
       0.707 -0.707  0.000 -0.000 -0.000
      -0.000 -0.000 -1.000  0.000 -0.000
       0.000  0.000 -0.000 -0.866 -0.500
       0.707  0.707 -0.000  0.000  0.000
     occupation matrix ns (before diag.):
       0.364 -0.000  0.000  0.000  0.000
      -0.000  0.049 -0.000  0.000 -0.000
       0.000 -0.000  0.049 -0.000  0.000
       0.000  0.000 -0.000  0.364 -0.000
       0.000 -0.000  0.000 -0.000  0.049
     ------------------------ ATOM   11 ------------------------
     Tr[ns( 11)] (up, down, total) =   3.80332  0.87406  4.67738
     Atomic magnetic moment for atom  11 =   2.92926
     SPIN  1
     eigenvalues:
       0.491  0.491  0.941  0.941  0.941
     eigenvectors (columns):
      -0.989  0.145 -0.000  0.000  0.000
      -0.000  0.000  1.000  0.000 -0.013
      -0.000 -0.000  0.000 -1.000  0.000
      -0.145 -0.989  0.000  0.000 -0.000
       0.000 -0.000  0.013  0.000  1.000
     occupation matrix ns (before diag.):
       0.491 -0.000 -0.000 -0.000  0.000
      -0.000  0.941 -0.000  0.000 -0.000
      -0.000 -0.000  0.941 -0.000  0.000
      -0.000  0.000 -0.000  0.491 -0.000
       0.000 -0.000  0.000 -0.000  0.941
     SPIN  2
     eigenvalues:
       0.049  0.049  0.049  0.364  0.364
     eigenvectors (columns):
      -0.000 -0.000 -0.000 -0.994 -0.109
       0.003 -0.000 -1.000  0.000  0.000
      -0.000 -1.000  0.000  0.000  0.000
       0.000  0.000  0.000 -0.109  0.994
       1.000 -0.000  0.003 -0.000 -0.000
     occupation matrix ns (before diag.):
       0.364 -0.000 -0.000 -0.000  0.000
      -0.000  0.049 -0.000  0.000 -0.000
      -0.000 -0.000  0.049  0.000  0.000
      -0.000  0.000  0.000  0.364 -0.000
       0.000 -0.000  0.000 -0.000  0.049
     ------------------------ ATOM   12 ------------------------
     Tr[ns( 12)] (up, down, total) =   3.80332  0.87406  4.67738
     Atomic magnetic moment for atom  12 =   2.92926
     SPIN  1
     eigenvalues:
       0.491  0.491  0.941  0.941  0.941
     eigenvectors (columns):
       0.620 -0.784 -0.000 -0.000 -0.000
      -0.000 -0.000 -0.013 -0.000  1.000
      -0.000  0.000  0.000 -1.000 -0.000
       0.784  0.620  0.000  0.000  0.000
       0.000  0.000 -1.000 -0.000 -0.013
     occupation matrix ns (before diag.):
       0.491 -0.000  0.000 -0.000  0.000
      -0.000  0.941 -0.000  0.000 -0.000
       0.000 -0.000  0.941 -0.000  0.000
      -0.000  0.000 -0.000  0.491 -0.000
       0.000 -0.000  0.000 -0.000  0.941
     SPIN  2
     eigenvalues:
       0.049  0.049  0.049  0.364  0.364
     eigenvectors (columns):
      -0.000  0.000 -0.000 -0.592 -0.806
      -1.000  0.000 -0.003 -0.000  0.000
      -0.000 -1.000  0.000 -0.000  0.000
       0.000  0.000  0.000 -0.806  0.592
      -0.003  0.000  1.000  0.000 -0.000
     occupation matrix ns (before diag.):
       0.364 -0.000  0.000 -0.000  0.000
      -0.000  0.049 -0.000  0.000 -0.000
       0.000 -0.000  0.049  0.000  0.000
      -0.000  0.000  0.000  0.364 -0.000
       0.000 -0.000  0.000 -0.000  0.049

     Number of occupied Hubbard levels =   32.6507

     negative rho (up, down):  5.664E-04 5.336E-04

     HUBBARD ENERGY =    0.9745  (Ry)

     total cpu time spent up to now is      234.1 secs

     total energy              =   -2329.13085734 Ry
     estimated scf accuracy    <       0.00888970 Ry

     total magnetization       =     0.00 Bohr mag/cell
     absolute magnetization    =    28.20 Bohr mag/cell

     iteration # 11     ecut=   110.00 Ry     beta= 0.30
     Davidson diagonalization with overlap

---- Real-time Memory Report at c_bands before calling an iterative solver
           583 MiB given to the printing process from OS
           285 MiB allocation reported by mallinfo(arena+hblkhd)
        678014 MiB available memory on the node where the printing process lives
------------------
     ethr =  2.47E-06,  avg # of iterations =  6.5

     =================== HUBBARD OCCUPATIONS ===================
     ------------------------ ATOM    5 ------------------------
     Tr[ns(  5)] (up, down, total) =   0.41249  3.10199  3.51448
     Atomic magnetic moment for atom   5 =  -2.68950
     SPIN  1
     eigenvalues:
       0.023  0.023  0.025  0.161  0.180
     eigenvectors (columns):
      -0.000 -0.000  0.000  0.866  0.500
       0.707 -0.707  0.000 -0.000 -0.000
      -0.000 -0.000 -1.000  0.000  0.001
       0.000  0.000 -0.001  0.500 -0.866
       0.707  0.707 -0.000 -0.000  0.000
     occupation matrix ns (before diag.):
       0.166 -0.000  0.000 -0.009  0.000
      -0.000  0.023 -0.000  0.000 -0.000
       0.000 -0.000  0.025 -0.000  0.000
      -0.009  0.000 -0.000  0.176 -0.000
       0.000 -0.000  0.000 -0.000  0.023
     SPIN  2
     eigenvalues:
       0.197  0.227  0.889  0.891  0.898
     eigenvectors (columns):
       0.866  0.500 -0.000 -0.000  0.001
      -0.000  0.000  0.707 -0.707  0.000
      -0.000  0.002  0.000  0.000 -1.000
       0.500 -0.866  0.000  0.000 -0.002
      -0.000 -0.000 -0.707 -0.707 -0.000
     occupation matrix ns (before diag.):
       0.205 -0.000 -0.001 -0.013  0.000
      -0.000  0.890 -0.000  0.000  0.001
      -0.001 -0.000  0.898  0.001  0.000
      -0.013  0.000  0.001  0.219 -0.000
       0.000  0.001  0.000 -0.000  0.890
     ------------------------ ATOM    6 ------------------------
     Tr[ns(  6)] (up, down, total) =   0.39824  3.09312  3.49135
     Atomic magnetic moment for atom   6 =  -2.69488
     SPIN  1
     eigenvalues:
       0.025  0.025  0.025  0.161  0.161
     eigenvectors (columns):
       0.000 -0.000 -0.000  0.500 -0.866
      -0.000  0.707 -0.707 -0.000  0.000
      -1.000  0.000  0.000  0.000 -0.000
      -0.000  0.000  0.000 -0.866 -0.500
       0.000  0.707  0.707  0.000  0.000
     occupation matrix ns (before diag.):
       0.161 -0.000  0.000  0.000  0.000
      -0.000  0.025 -0.000  0.000 -0.000
       0.000 -0.000  0.025 -0.000  0.000
       0.000  0.000 -0.000  0.161 -0.000
       0.000 -0.000  0.000 -0.000  0.025
     SPIN  2
     eigenvalues:
       0.197  0.197  0.899  0.899  0.899
     eigenvectors (columns):
       0.866  0.500  0.000  0.000  0.000
       0.000  0.000 -0.000 -0.707  0.707
      -0.000  0.000 -1.000  0.000  0.000
       0.500 -0.866 -0.000 -0.000 -0.000
      -0.000 -0.000  0.000  0.707  0.707
     occupation matrix ns (before diag.):
       0.197 -0.000 -0.000 -0.000  0.000
      -0.000  0.899 -0.000  0.000  0.000
      -0.000 -0.000  0.899  0.000  0.000
      -0.000  0.000  0.000  0.197 -0.000
       0.000  0.000  0.000 -0.000  0.899
     ------------------------ ATOM    7 ------------------------
     Tr[ns(  7)] (up, down, total) =   0.39791  3.09419  3.49209
     Atomic magnetic moment for atom   7 =  -2.69628
     SPIN  1
     eigenvalues:
       0.025  0.025  0.025  0.161  0.162
     eigenvectors (columns):
       0.000 -0.000 -0.000  0.188  0.982
       1.000  0.023  0.000 -0.000 -0.000
       0.000 -0.000 -1.000 -0.000 -0.000
      -0.000  0.000  0.000 -0.982  0.188
      -0.023  1.000 -0.000  0.000  0.000
     occupation matrix ns (before diag.):
       0.162 -0.000 -0.000  0.000  0.000
      -0.000  0.025 -0.000  0.000  0.000
      -0.000 -0.000  0.025  0.000  0.000
       0.000  0.000  0.000  0.161 -0.000
       0.000  0.000  0.000 -0.000  0.025
     SPIN  2
     eigenvalues:
       0.197  0.198  0.899  0.899  0.901
     eigenvectors (columns):
       0.033  0.999  0.000 -0.000 -0.000
       0.000  0.000  0.000 -0.013  1.000
      -0.000 -0.000  1.000 -0.000 -0.000
      -0.999  0.033 -0.000  0.000  0.000
      -0.000 -0.000 -0.000 -1.000 -0.013
     occupation matrix ns (before diag.):
       0.198 -0.000  0.000  0.000  0.000
      -0.000  0.901 -0.000  0.000 -0.000
       0.000 -0.000  0.899 -0.000  0.000
       0.000  0.000 -0.000  0.197 -0.000
       0.000 -0.000  0.000 -0.000  0.899
     ------------------------ ATOM    8 ------------------------
     Tr[ns(  8)] (up, down, total) =   0.39791  3.09419  3.49209
     Atomic magnetic moment for atom   8 =  -2.69628
     SPIN  1
     eigenvalues:
       0.025  0.025  0.025  0.161  0.162
     eigenvectors (columns):
      -0.000  0.000 -0.000 -0.756  0.654
      -0.023  1.000 -0.000  0.000  0.000
      -0.000  0.000  1.000  0.000  0.000
       0.000 -0.000 -0.000  0.654  0.756
       1.000  0.023  0.000 -0.000 -0.000
     occupation matrix ns (before diag.):
       0.161 -0.000  0.000  0.000  0.000
      -0.000  0.025 -0.000  0.000  0.000
       0.000 -0.000  0.025  0.000  0.000
       0.000  0.000  0.000  0.161 -0.000
       0.000  0.000  0.000 -0.000  0.025
     SPIN  2
     eigenvalues:
       0.197  0.198  0.899  0.899  0.901
     eigenvectors (columns):
       0.849  0.529  0.000 -0.000  0.000
       0.000 -0.000  0.000  1.000 -0.013
      -0.000  0.000  1.000 -0.000  0.000
      -0.529  0.849 -0.000  0.000 -0.000
      -0.000  0.000 -0.000  0.013  1.000
     occupation matrix ns (before diag.):
       0.198 -0.000  0.000  0.000  0.000
      -0.000  0.899 -0.000  0.000 -0.000
       0.000 -0.000  0.899 -0.000  0.000
       0.000  0.000 -0.000  0.198 -0.000
       0.000 -0.000  0.000 -0.000  0.901
     ------------------------ ATOM    9 ------------------------
     Tr[ns(  9)] (up, down, total) =   3.76794  0.84373  4.61167
     Atomic magnetic moment for atom   9 =   2.92421
     SPIN  1
     eigenvalues:
       0.443  0.492  0.942  0.946  0.946
     eigenvectors (columns):
      -0.500  0.866 -0.001  0.000  0.000
      -0.000  0.000 -0.000  0.707 -0.707
       0.001 -0.000 -1.000  0.000  0.000
       0.866  0.500  0.001 -0.000 -0.000
       0.000 -0.000  0.000  0.707  0.707
     occupation matrix ns (before diag.):
       0.479 -0.000  0.000  0.021  0.000
      -0.000  0.946 -0.000  0.000 -0.000
       0.000 -0.000  0.942 -0.001  0.000
       0.021  0.000 -0.001  0.455 -0.000
       0.000 -0.000  0.000 -0.000  0.946
     SPIN  2
     eigenvalues:
       0.049  0.052  0.052  0.328  0.363
     eigenvectors (columns):
       0.000 -0.000 -0.000  0.500 -0.866
       0.000 -0.707  0.707 -0.000  0.000
       1.000  0.000  0.000 -0.001 -0.000
      -0.001  0.000  0.000 -0.866 -0.500
      -0.000  0.707  0.707  0.000  0.000
     occupation matrix ns (before diag.):
       0.355 -0.000 -0.000  0.015  0.000
      -0.000  0.052 -0.000  0.000  0.000
      -0.000 -0.000  0.049  0.000  0.000
       0.015  0.000  0.000  0.337 -0.000
       0.000  0.000  0.000 -0.000  0.052
     ------------------------ ATOM   10 ------------------------
     Tr[ns( 10)] (up, down, total) =   3.79242  0.86915  4.66157
     Atomic magnetic moment for atom  10 =   2.92327
     SPIN  1
     eigenvalues:
       0.486  0.487  0.940  0.940  0.940
     eigenvectors (columns):
      -0.866 -0.500  0.000  0.000  0.000
      -0.000 -0.000 -0.000 -0.707  0.707
       0.000 -0.000 -1.000  0.000  0.000
      -0.500  0.866 -0.000 -0.000 -0.000
       0.000  0.000  0.000  0.707  0.707
     occupation matrix ns (before diag.):
       0.487 -0.000 -0.000 -0.000  0.000
      -0.000  0.940 -0.000  0.000  0.000
      -0.000 -0.000  0.940  0.000  0.000
      -0.000  0.000  0.000  0.487 -0.000
       0.000  0.000  0.000 -0.000  0.940
     SPIN  2
     eigenvalues:
       0.049  0.049  0.049  0.361  0.362
     eigenvectors (columns):
      -0.000 -0.000  0.000  0.500 -0.866
       0.707 -0.707  0.000 -0.000  0.000
      -0.000 -0.000 -1.000  0.000 -0.000
       0.000  0.000 -0.000 -0.866 -0.500
       0.707  0.707 -0.000  0.000  0.000
     occupation matrix ns (before diag.):
       0.362 -0.000  0.000  0.000  0.000
      -0.000  0.049 -0.000  0.000 -0.000
       0.000 -0.000  0.049 -0.000  0.000
       0.000  0.000 -0.000  0.361 -0.000
       0.000 -0.000  0.000 -0.000  0.049
     ------------------------ ATOM   11 ------------------------
     Tr[ns( 11)] (up, down, total) =   3.79248  0.86922  4.66171
     Atomic magnetic moment for atom  11 =   2.92326
     SPIN  1
     eigenvalues:
       0.487  0.487  0.940  0.940  0.940
     eigenvectors (columns):
      -0.989 -0.148  0.000 -0.000  0.000
      -0.000  0.000 -1.000 -0.000  0.004
      -0.000 -0.000 -0.000  1.000  0.000
       0.148 -0.989 -0.000 -0.000 -0.000
       0.000 -0.000  0.004 -0.000  1.000
     occupation matrix ns (before diag.):
       0.487 -0.000 -0.000  0.000  0.000
      -0.000  0.940 -0.000  0.000  0.000
      -0.000 -0.000  0.940 -0.000  0.000
       0.000  0.000 -0.000  0.487 -0.000
       0.000  0.000  0.000 -0.000  0.940
     SPIN  2
     eigenvalues:
       0.049  0.049  0.049  0.361  0.362
     eigenvectors (columns):
      -0.000 -0.000  0.000 -0.944  0.331
      -0.000 -0.000  1.000  0.000 -0.000
      -0.000 -1.000 -0.000  0.000 -0.000
       0.000  0.000 -0.000 -0.331 -0.944
       1.000 -0.000  0.000 -0.000  0.000
     occupation matrix ns (before diag.):
       0.361 -0.000 -0.000 -0.000  0.000
      -0.000  0.049 -0.000  0.000  0.000
      -0.000 -0.000  0.049  0.000  0.000
      -0.000  0.000  0.000  0.361 -0.000
       0.000  0.000  0.000 -0.000  0.049
     ------------------------ ATOM   12 ------------------------
     Tr[ns( 12)] (up, down, total) =   3.79248  0.86922  4.66171
     Atomic magnetic moment for atom  12 =   2.92326
     SPIN  1
     eigenvalues:
       0.487  0.487  0.940  0.940  0.940
     eigenvectors (columns):
      -0.366 -0.931 -0.000 -0.000  0.000
       0.000 -0.000  0.004 -0.000 -1.000
       0.000  0.000  0.000 -1.000  0.000
      -0.931  0.366  0.000 -0.000 -0.000
      -0.000  0.000 -1.000 -0.000 -0.004
     occupation matrix ns (before diag.):
       0.487 -0.000  0.000 -0.000  0.000
      -0.000  0.940 -0.000  0.000  0.000
       0.000 -0.000  0.940  0.000  0.000
      -0.000  0.000  0.000  0.487 -0.000
       0.000  0.000  0.000 -0.000  0.940
     SPIN  2
     eigenvalues:
       0.049  0.049  0.049  0.361  0.362
     eigenvectors (columns):
       0.000 -0.000 -0.000  0.758  0.652
       1.000 -0.000  0.000 -0.000 -0.000
       0.000  1.000  0.000  0.000 -0.000
      -0.000 -0.000  0.000  0.652 -0.758
      -0.000 -0.000  1.000 -0.000  0.000
     occupation matrix ns (before diag.):
       0.361 -0.000  0.000 -0.000  0.000
      -0.000  0.049 -0.000  0.000  0.000
       0.000 -0.000  0.049  0.000  0.000
      -0.000  0.000  0.000  0.361 -0.000
       0.000  0.000  0.000 -0.000  0.049

     Number of occupied Hubbard levels =   32.5867

     negative rho (up, down):  6.541E-05 5.910E-05

     HUBBARD ENERGY =    0.9695  (Ry)

     total cpu time spent up to now is      253.9 secs

     total energy              =   -2329.13017156 Ry
     estimated scf accuracy    <       0.00351573 Ry

     total magnetization       =     0.00 Bohr mag/cell
     absolute magnetization    =    28.18 Bohr mag/cell

     iteration # 12     ecut=   110.00 Ry     beta= 0.30
     Davidson diagonalization with overlap

---- Real-time Memory Report at c_bands before calling an iterative solver
           583 MiB given to the printing process from OS
           285 MiB allocation reported by mallinfo(arena+hblkhd)
        678014 MiB available memory on the node where the printing process lives
------------------
     ethr =  9.77E-07,  avg # of iterations =  8.0

     =================== HUBBARD OCCUPATIONS ===================
     ------------------------ ATOM    5 ------------------------
     Tr[ns(  5)] (up, down, total) =   0.41462  3.11706  3.53168
     Atomic magnetic moment for atom   5 =  -2.70244
     SPIN  1
     eigenvalues:
       0.023  0.023  0.025  0.161  0.182
     eigenvectors (columns):
      -0.000 -0.000  0.001  0.866  0.500
       0.707 -0.707  0.000  0.000 -0.000
      -0.000 -0.000 -1.000  0.000  0.001
       0.000  0.000 -0.001  0.500 -0.866
       0.707  0.707 -0.000 -0.000  0.000
     occupation matrix ns (before diag.):
       0.166 -0.000  0.000 -0.009  0.000
      -0.000  0.023 -0.000  0.000 -0.000
       0.000 -0.000  0.025 -0.000  0.000
      -0.009  0.000 -0.000  0.177 -0.000
       0.000 -0.000  0.000 -0.000  0.023
     SPIN  2
     eigenvalues:
       0.199  0.229  0.893  0.895  0.902
     eigenvectors (columns):
       0.866  0.500 -0.000 -0.000  0.001
      -0.000  0.000  0.707 -0.707  0.000
      -0.000  0.002  0.000  0.000 -1.000
       0.500 -0.866  0.000  0.000 -0.002
      -0.000 -0.000 -0.707 -0.707 -0.000
     occupation matrix ns (before diag.):
       0.206 -0.000 -0.001 -0.013  0.000
      -0.000  0.894 -0.000  0.000  0.001
      -0.001 -0.000  0.902  0.001  0.000
      -0.013  0.000  0.001  0.221 -0.000
       0.000  0.001  0.000 -0.000  0.894
     ------------------------ ATOM    6 ------------------------
     Tr[ns(  6)] (up, down, total) =   0.39952  3.10868  3.50820
     Atomic magnetic moment for atom   6 =  -2.70916
     SPIN  1
     eigenvalues:
       0.025  0.025  0.025  0.162  0.162
     eigenvectors (columns):
       0.000 -0.000 -0.000 -0.866 -0.500
      -0.000  0.707 -0.707  0.000  0.000
      -1.000  0.000  0.000  0.000 -0.000
      -0.000  0.000  0.000 -0.500  0.866
       0.000  0.707  0.707  0.000 -0.000
     occupation matrix ns (before diag.):
       0.162 -0.000  0.000 -0.000  0.000
      -0.000  0.025 -0.000  0.000 -0.000
       0.000 -0.000  0.025 -0.000  0.000
      -0.000  0.000 -0.000  0.162 -0.000
       0.000 -0.000  0.000 -0.000  0.025
     SPIN  2
     eigenvalues:
       0.200  0.200  0.903  0.903  0.903
     eigenvectors (columns):
       0.866  0.500  0.000  0.000  0.000
      -0.000  0.000 -0.000 -0.707  0.707
      -0.000  0.000 -1.000  0.000  0.000
       0.500 -0.866 -0.000 -0.000 -0.000
      -0.000 -0.000  0.000  0.707  0.707
     occupation matrix ns (before diag.):
       0.200 -0.000 -0.000 -0.000  0.000
      -0.000  0.903 -0.000  0.000  0.000
      -0.000 -0.000  0.903  0.000  0.000
      -0.000  0.000  0.000  0.200 -0.000
       0.000  0.000  0.000 -0.000  0.903
     ------------------------ ATOM    7 ------------------------
     Tr[ns(  7)] (up, down, total) =   0.39944  3.10939  3.50882
     Atomic magnetic moment for atom   7 =  -2.70995
     SPIN  1
     eigenvalues:
       0.025  0.025  0.025  0.162  0.162
     eigenvectors (columns):
       0.000 -0.000 -0.000  0.138  0.990
       1.000  0.001  0.000 -0.000 -0.000
       0.000 -0.000 -1.000 -0.000 -0.000
      -0.000  0.000  0.000 -0.990  0.138
      -0.001  1.000 -0.000  0.000  0.000
     occupation matrix ns (before diag.):
       0.162 -0.000 -0.000  0.000  0.000
      -0.000  0.025 -0.000  0.000  0.000
      -0.000 -0.000  0.025  0.000  0.000
       0.000  0.000  0.000  0.162 -0.000
       0.000  0.000  0.000 -0.000  0.025
     SPIN  2
     eigenvalues:
       0.199  0.200  0.903  0.903  0.905
     eigenvectors (columns):
       0.161  0.987  0.000 -0.000 -0.000
       0.000  0.000  0.000 -0.003  1.000
      -0.000 -0.000  1.000 -0.000 -0.000
      -0.987  0.161 -0.000  0.000  0.000
      -0.000 -0.000 -0.000 -1.000 -0.003
     occupation matrix ns (before diag.):
       0.200 -0.000  0.000  0.000  0.000
      -0.000  0.905 -0.000  0.000 -0.000
       0.000 -0.000  0.903 -0.000  0.000
       0.000  0.000 -0.000  0.199 -0.000
       0.000 -0.000  0.000 -0.000  0.903
     ------------------------ ATOM    8 ------------------------
     Tr[ns(  8)] (up, down, total) =   0.39944  3.10939  3.50882
     Atomic magnetic moment for atom   8 =  -2.70995
     SPIN  1
     eigenvalues:
       0.025  0.025  0.025  0.162  0.162
     eigenvectors (columns):
      -0.000  0.000 -0.000 -0.789  0.615
      -0.001  1.000 -0.000  0.000  0.000
      -0.000  0.000  1.000  0.000  0.000
       0.000 -0.000 -0.000  0.615  0.789
       1.000  0.001  0.000 -0.000 -0.000
     occupation matrix ns (before diag.):
       0.162 -0.000  0.000  0.000  0.000
      -0.000  0.025 -0.000  0.000  0.000
       0.000 -0.000  0.025  0.000  0.000
       0.000  0.000  0.000  0.162 -0.000
       0.000  0.000  0.000 -0.000  0.025
     SPIN  2
     eigenvalues:
       0.199  0.200  0.903  0.903  0.905
     eigenvectors (columns):
       0.775  0.633  0.000 -0.000  0.000
       0.000 -0.000  0.000  1.000 -0.003
      -0.000  0.000  1.000 -0.000  0.000
      -0.633  0.775 -0.000  0.000 -0.000
      -0.000  0.000 -0.000  0.003  1.000
     occupation matrix ns (before diag.):
       0.200 -0.000  0.000  0.000  0.000
      -0.000  0.903 -0.000  0.000 -0.000
       0.000 -0.000  0.903 -0.000  0.000
       0.000  0.000 -0.000  0.200 -0.000
       0.000 -0.000  0.000 -0.000  0.905
     ------------------------ ATOM    9 ------------------------
     Tr[ns(  9)] (up, down, total) =   3.78023  0.84863  4.62886
     Atomic magnetic moment for atom   9 =   2.93159
     SPIN  1
     eigenvalues:
       0.447  0.496  0.943  0.947  0.947
     eigenvectors (columns):
      -0.500  0.866 -0.001  0.000  0.000
      -0.000  0.000 -0.000  0.707 -0.707
       0.001 -0.000 -1.000  0.000  0.000
       0.866  0.500  0.001 -0.000 -0.000
       0.000 -0.000  0.000  0.707  0.707
     occupation matrix ns (before diag.):
       0.484 -0.000  0.000  0.021  0.000
      -0.000  0.947 -0.000  0.000 -0.000
       0.000 -0.000  0.943 -0.001  0.000
       0.021  0.000 -0.001  0.459 -0.000
       0.000 -0.000  0.000 -0.000  0.947
     SPIN  2
     eigenvalues:
       0.049  0.051  0.051  0.331  0.366
     eigenvectors (columns):
       0.000 -0.000 -0.000  0.500 -0.866
       0.000 -0.707  0.707 -0.000 -0.000
       1.000  0.000  0.000 -0.001 -0.000
      -0.001  0.000  0.000 -0.866 -0.500
      -0.000  0.707  0.707  0.000  0.000
     occupation matrix ns (before diag.):
       0.358 -0.000 -0.000  0.015  0.000
      -0.000  0.051 -0.000  0.000  0.000
      -0.000 -0.000  0.049  0.000  0.000
       0.015  0.000  0.000  0.340 -0.000
       0.000  0.000  0.000 -0.000  0.051
     ------------------------ ATOM   10 ------------------------
     Tr[ns( 10)] (up, down, total) =   3.80602  0.87432  4.68033
     Atomic magnetic moment for atom  10 =   2.93170
     SPIN  1
     eigenvalues:
       0.491  0.491  0.941  0.941  0.941
     eigenvectors (columns):
       0.500  0.866 -0.000 -0.000 -0.000
       0.000  0.000 -0.707  0.707 -0.000
       0.000 -0.000  0.000  0.000  1.000
      -0.866  0.500  0.000  0.000  0.000
      -0.000 -0.000 -0.707 -0.707  0.000
     occupation matrix ns (before diag.):
       0.491 -0.000 -0.000  0.000  0.000
      -0.000  0.941 -0.000  0.000 -0.000
      -0.000 -0.000  0.941  0.000  0.000
       0.000  0.000  0.000  0.491 -0.000
       0.000 -0.000  0.000 -0.000  0.941
     SPIN  2
     eigenvalues:
       0.048  0.048  0.048  0.365  0.365
     eigenvectors (columns):
      -0.000 -0.000  0.000  0.500 -0.866
       0.707 -0.707  0.000 -0.000 -0.000
      -0.000 -0.000 -1.000  0.000 -0.000
       0.000  0.000 -0.000 -0.866 -0.500
       0.707  0.707 -0.000  0.000  0.000
     occupation matrix ns (before diag.):
       0.365 -0.000  0.000  0.000  0.000
      -0.000  0.048 -0.000  0.000 -0.000
       0.000 -0.000  0.048 -0.000  0.000
       0.000  0.000 -0.000  0.365 -0.000
       0.000 -0.000  0.000 -0.000  0.048
     ------------------------ ATOM   11 ------------------------
     Tr[ns( 11)] (up, down, total) =   3.80567  0.87467  4.68034
     Atomic magnetic moment for atom  11 =   2.93101
     SPIN  1
     eigenvalues:
       0.491  0.491  0.941  0.941  0.941
     eigenvectors (columns):
      -0.988  0.156 -0.000  0.000  0.000
      -0.000  0.000  0.999  0.000 -0.041
      -0.000 -0.000  0.000 -1.000  0.000
      -0.156 -0.988  0.000  0.000 -0.000
       0.000 -0.000  0.041  0.000  0.999
     occupation matrix ns (before diag.):
       0.491 -0.000 -0.000 -0.000  0.000
      -0.000  0.941 -0.000  0.000 -0.000
      -0.000 -0.000  0.941 -0.000  0.000
      -0.000  0.000 -0.000  0.491 -0.000
       0.000 -0.000  0.000 -0.000  0.941
     SPIN  2
     eigenvalues:
       0.048  0.048  0.049  0.365  0.365
     eigenvectors (columns):
      -0.000 -0.000  0.000 -0.997  0.081
      -0.008 -0.000  1.000  0.000 -0.000
      -0.000 -1.000 -0.000  0.000  0.000
       0.000 -0.000 -0.000 -0.081 -0.997
       1.000 -0.000  0.008 -0.000  0.000
     occupation matrix ns (before diag.):
       0.365 -0.000 -0.000 -0.000  0.000
      -0.000  0.049 -0.000  0.000  0.000
      -0.000 -0.000  0.048 -0.000  0.000
      -0.000  0.000 -0.000  0.365 -0.000
       0.000  0.000  0.000 -0.000  0.048
     ------------------------ ATOM   12 ------------------------
     Tr[ns( 12)] (up, down, total) =   3.80567  0.87467  4.68034
     Atomic magnetic moment for atom  12 =   2.93101
     SPIN  1
     eigenvalues:
       0.491  0.491  0.941  0.941  0.941
     eigenvectors (columns):
       0.629 -0.777 -0.000 -0.000 -0.000
      -0.000 -0.000 -0.041 -0.000  0.999
      -0.000  0.000  0.000 -1.000 -0.000
       0.777  0.629  0.000 -0.000  0.000
       0.000  0.000 -0.999 -0.000 -0.041
     occupation matrix ns (before diag.):
       0.491 -0.000  0.000 -0.000  0.000
      -0.000  0.941 -0.000  0.000 -0.000
       0.000 -0.000  0.941  0.000  0.000
      -0.000  0.000  0.000  0.491 -0.000
       0.000 -0.000  0.000 -0.000  0.941
     SPIN  2
     eigenvalues:
       0.048  0.048  0.049  0.365  0.365
     eigenvectors (columns):
       0.000 -0.000 -0.000  0.569  0.823
       1.000 -0.000  0.008  0.000 -0.000
       0.000  1.000  0.000  0.000  0.000
      -0.000 -0.000  0.000  0.823 -0.569
      -0.008 -0.000  1.000 -0.000  0.000
     occupation matrix ns (before diag.):
       0.365 -0.000  0.000 -0.000  0.000
      -0.000  0.048 -0.000  0.000  0.000
       0.000 -0.000  0.048  0.000  0.000
      -0.000  0.000  0.000  0.365 -0.000
       0.000  0.000  0.000 -0.000  0.049

     Number of occupied Hubbard levels =   32.7274

     negative rho (up, down):  7.284E-05 6.685E-05

     HUBBARD ENERGY =    0.9714  (Ry)

     total cpu time spent up to now is      278.3 secs

     total energy              =   -2329.13077036 Ry
     estimated scf accuracy    <       0.00207165 Ry

     total magnetization       =    -0.00 Bohr mag/cell
     absolute magnetization    =    28.30 Bohr mag/cell

     iteration # 13     ecut=   110.00 Ry     beta= 0.30
     Davidson diagonalization with overlap

---- Real-time Memory Report at c_bands before calling an iterative solver
           583 MiB given to the printing process from OS
           285 MiB allocation reported by mallinfo(arena+hblkhd)
        678009 MiB available memory on the node where the printing process lives
------------------
     ethr =  5.75E-07,  avg # of iterations =  2.5

     =================== HUBBARD OCCUPATIONS ===================
     ------------------------ ATOM    5 ------------------------
     Tr[ns(  5)] (up, down, total) =   0.41540  3.11715  3.53255
     Atomic magnetic moment for atom   5 =  -2.70175
     SPIN  1
     eigenvalues:
       0.023  0.023  0.026  0.161  0.182
     eigenvectors (columns):
      -0.000 -0.000  0.001  0.866  0.500
       0.707 -0.707  0.000 -0.000 -0.000
      -0.000 -0.000 -1.000  0.000  0.001
       0.000  0.000 -0.001  0.500 -0.866
       0.707  0.707 -0.000 -0.000  0.000
     occupation matrix ns (before diag.):
       0.167 -0.000  0.000 -0.009  0.000
      -0.000  0.023 -0.000  0.000 -0.000
       0.000 -0.000  0.026 -0.000  0.000
      -0.009  0.000 -0.000  0.177 -0.000
       0.000 -0.000  0.000 -0.000  0.023
     SPIN  2
     eigenvalues:
       0.199  0.229  0.893  0.895  0.902
     eigenvectors (columns):
       0.866  0.500 -0.000 -0.000  0.001
      -0.000  0.000  0.707 -0.707  0.000
      -0.000  0.002  0.000  0.000 -1.000
       0.500 -0.866  0.000  0.000 -0.002
      -0.000 -0.000 -0.707 -0.707 -0.000
     occupation matrix ns (before diag.):
       0.206 -0.000 -0.001 -0.013  0.000
      -0.000  0.894 -0.000  0.000  0.001
      -0.001 -0.000  0.902  0.001  0.000
      -0.013  0.000  0.001  0.221 -0.000
       0.000  0.001  0.000 -0.000  0.894
     ------------------------ ATOM    6 ------------------------
     Tr[ns(  6)] (up, down, total) =   0.40016  3.10802  3.50818
     Atomic magnetic moment for atom   6 =  -2.70786
     SPIN  1
     eigenvalues:
       0.025  0.025  0.026  0.162  0.162
     eigenvectors (columns):
       0.000 -0.000 -0.000 -0.866 -0.500
      -0.000  0.707 -0.707  0.000  0.000
      -1.000  0.000  0.000  0.000 -0.000
      -0.000  0.000  0.000 -0.500  0.866
       0.000  0.707  0.707  0.000 -0.000
     occupation matrix ns (before diag.):
       0.162 -0.000  0.000 -0.000  0.000
      -0.000  0.025 -0.000  0.000 -0.000
       0.000 -0.000  0.025 -0.000  0.000
      -0.000  0.000 -0.000  0.162 -0.000
       0.000 -0.000  0.000 -0.000  0.025
     SPIN  2
     eigenvalues:
       0.199  0.200  0.903  0.903  0.903
     eigenvectors (columns):
       0.866  0.500  0.000  0.000  0.000
       0.000  0.000 -0.000 -0.707  0.707
      -0.000  0.000 -1.000  0.000  0.000
       0.500 -0.866 -0.000 -0.000 -0.000
      -0.000 -0.000  0.000  0.707  0.707
     occupation matrix ns (before diag.):
       0.199 -0.000 -0.000 -0.000  0.000
      -0.000  0.903 -0.000  0.000  0.000
      -0.000 -0.000  0.903  0.000  0.000
      -0.000  0.000  0.000  0.200 -0.000
       0.000  0.000  0.000 -0.000  0.903
     ------------------------ ATOM    7 ------------------------
     Tr[ns(  7)] (up, down, total) =   0.40015  3.10878  3.50893
     Atomic magnetic moment for atom   7 =  -2.70863
     SPIN  1
     eigenvalues:
       0.025  0.025  0.026  0.162  0.162
     eigenvectors (columns):
       0.000 -0.000 -0.000  0.127  0.992
       1.000  0.002  0.000 -0.000 -0.000
       0.000 -0.000 -1.000 -0.000 -0.000
      -0.000  0.000  0.000 -0.992  0.127
      -0.002  1.000 -0.000  0.000  0.000
     occupation matrix ns (before diag.):
       0.162 -0.000 -0.000  0.000  0.000
      -0.000  0.025 -0.000  0.000  0.000
      -0.000 -0.000  0.026  0.000  0.000
       0.000  0.000  0.000  0.162 -0.000
       0.000  0.000  0.000 -0.000  0.025
     SPIN  2
     eigenvalues:
       0.199  0.200  0.902  0.903  0.905
     eigenvectors (columns):
       0.151  0.989  0.000 -0.000 -0.000
       0.000  0.000  0.000 -0.003  1.000
      -0.000 -0.000  1.000 -0.000 -0.000
      -0.989  0.151 -0.000  0.000  0.000
      -0.000 -0.000 -0.000 -1.000 -0.003
     occupation matrix ns (before diag.):
       0.200 -0.000  0.000  0.000  0.000
      -0.000  0.905 -0.000  0.000 -0.000
       0.000 -0.000  0.902 -0.000  0.000
       0.000  0.000 -0.000  0.199 -0.000
       0.000 -0.000  0.000 -0.000  0.903
     ------------------------ ATOM    8 ------------------------
     Tr[ns(  8)] (up, down, total) =   0.40015  3.10878  3.50893
     Atomic magnetic moment for atom   8 =  -2.70863
     SPIN  1
     eigenvalues:
       0.025  0.025  0.026  0.162  0.162
     eigenvectors (columns):
      -0.000  0.000  0.000 -0.796 -0.606
      -0.002  1.000  0.000  0.000 -0.000
      -0.000  0.000 -1.000  0.000 -0.000
       0.000 -0.000  0.000  0.606 -0.796
       1.000  0.002 -0.000 -0.000  0.000
     occupation matrix ns (before diag.):
       0.162 -0.000  0.000  0.000  0.000
      -0.000  0.025 -0.000  0.000  0.000
       0.000 -0.000  0.026  0.000  0.000
       0.000  0.000  0.000  0.162 -0.000
       0.000  0.000  0.000 -0.000  0.025
     SPIN  2
     eigenvalues:
       0.199  0.200  0.902  0.903  0.905
     eigenvectors (columns):
       0.781  0.625  0.000 -0.000  0.000
       0.000 -0.000  0.000  1.000 -0.003
      -0.000  0.000  1.000 -0.000  0.000
      -0.625  0.781 -0.000  0.000 -0.000
      -0.000  0.000 -0.000  0.003  1.000
     occupation matrix ns (before diag.):
       0.199 -0.000  0.000  0.000  0.000
      -0.000  0.903 -0.000  0.000 -0.000
       0.000 -0.000  0.902 -0.000  0.000
       0.000  0.000 -0.000  0.200 -0.000
       0.000 -0.000  0.000 -0.000  0.905
     ------------------------ ATOM    9 ------------------------
     Tr[ns(  9)] (up, down, total) =   3.78215  0.84838  4.63053
     Atomic magnetic moment for atom   9 =   2.93377
     SPIN  1
     eigenvalues:
       0.448  0.497  0.943  0.947  0.947
     eigenvectors (columns):
      -0.500  0.866 -0.001  0.000  0.000
      -0.000  0.000 -0.000  0.707 -0.707
       0.002 -0.000 -1.000  0.000  0.000
       0.866  0.500  0.001 -0.000 -0.000
       0.000 -0.000  0.000  0.707  0.707
     occupation matrix ns (before diag.):
       0.485 -0.000  0.000  0.021  0.000
      -0.000  0.947 -0.000  0.000 -0.000
       0.000 -0.000  0.943 -0.001  0.000
       0.021  0.000 -0.001  0.460 -0.000
       0.000 -0.000  0.000 -0.000  0.947
     SPIN  2
     eigenvalues:
       0.048  0.051  0.051  0.331  0.367
     eigenvectors (columns):
       0.000 -0.000 -0.000  0.500 -0.866
       0.000 -0.707  0.707 -0.000  0.000
       1.000  0.000  0.000 -0.001 -0.000
      -0.001  0.000  0.000 -0.866 -0.500
      -0.000  0.707  0.707  0.000  0.000
     occupation matrix ns (before diag.):
       0.358 -0.000 -0.000  0.016  0.000
      -0.000  0.051 -0.000  0.000  0.000
      -0.000 -0.000  0.048  0.000  0.000
       0.016  0.000  0.000  0.340 -0.000
       0.000  0.000  0.000 -0.000  0.051
     ------------------------ ATOM   10 ------------------------
     Tr[ns( 10)] (up, down, total) =   3.80601  0.87301  4.67902
     Atomic magnetic moment for atom  10 =   2.93300
     SPIN  1
     eigenvalues:
       0.491  0.491  0.941  0.941  0.941
     eigenvectors (columns):
       0.500  0.866 -0.000 -0.000 -0.000
       0.000  0.000 -0.707  0.707 -0.000
       0.000 -0.000  0.000  0.000  1.000
      -0.866  0.500  0.000  0.000  0.000
      -0.000 -0.000 -0.707 -0.707  0.000
     occupation matrix ns (before diag.):
       0.491 -0.000 -0.000  0.000  0.000
      -0.000  0.941 -0.000  0.000 -0.000
      -0.000 -0.000  0.941  0.000  0.000
       0.000  0.000  0.000  0.491 -0.000
       0.000 -0.000  0.000 -0.000  0.941
     SPIN  2
     eigenvalues:
       0.048  0.048  0.048  0.365  0.365
     eigenvectors (columns):
      -0.000 -0.000  0.000 -0.866 -0.500
       0.707 -0.707  0.000  0.000  0.000
      -0.000 -0.000 -1.000 -0.000 -0.000
       0.000  0.000 -0.000 -0.500  0.866
       0.707  0.707 -0.000  0.000 -0.000
     occupation matrix ns (before diag.):
       0.365 -0.000  0.000 -0.000  0.000
      -0.000  0.048 -0.000  0.000 -0.000
       0.000 -0.000  0.048 -0.000  0.000
      -0.000  0.000 -0.000  0.365 -0.000
       0.000 -0.000  0.000 -0.000  0.048
     ------------------------ ATOM   11 ------------------------
     Tr[ns( 11)] (up, down, total) =   3.80546  0.87315  4.67861
     Atomic magnetic moment for atom  11 =   2.93232
     SPIN  1
     eigenvalues:
       0.491  0.491  0.941  0.941  0.941
     eigenvectors (columns):
       0.946 -0.323 -0.000  0.000  0.000
       0.000 -0.000  1.000  0.000 -0.031
       0.000 -0.000  0.000 -1.000  0.000
       0.323  0.946  0.000  0.000 -0.000
      -0.000  0.000  0.031  0.000  1.000
     occupation matrix ns (before diag.):
       0.491 -0.000 -0.000 -0.000  0.000
      -0.000  0.941 -0.000  0.000 -0.000
      -0.000 -0.000  0.941 -0.000  0.000
      -0.000  0.000 -0.000  0.491 -0.000
       0.000 -0.000  0.000 -0.000  0.941
     SPIN  2
     eigenvalues:
       0.048  0.048  0.048  0.364  0.365
     eigenvectors (columns):
      -0.000 -0.000  0.000 -1.000 -0.009
      -0.010 -0.000  1.000  0.000 -0.000
      -0.000 -1.000 -0.000  0.000  0.000
       0.000 -0.000 -0.000  0.009 -1.000
       1.000 -0.000  0.010 -0.000  0.000
     occupation matrix ns (before diag.):
       0.364 -0.000 -0.000  0.000  0.000
      -0.000  0.048 -0.000  0.000  0.000
      -0.000 -0.000  0.048 -0.000  0.000
       0.000  0.000 -0.000  0.365 -0.000
       0.000  0.000  0.000 -0.000  0.048
     ------------------------ ATOM   12 ------------------------
     Tr[ns( 12)] (up, down, total) =   3.80546  0.87315  4.67861
     Atomic magnetic moment for atom  12 =   2.93232
     SPIN  1
     eigenvalues:
       0.491  0.491  0.941  0.941  0.941
     eigenvectors (columns):
       0.753 -0.658 -0.000 -0.000 -0.000
      -0.000 -0.000 -0.031 -0.000  1.000
      -0.000 -0.000  0.000 -1.000 -0.000
       0.658  0.753  0.000 -0.000  0.000
       0.000  0.000 -1.000 -0.000 -0.031
     occupation matrix ns (before diag.):
       0.491 -0.000  0.000 -0.000  0.000
      -0.000  0.941 -0.000  0.000 -0.000
       0.000 -0.000  0.941  0.000  0.000
      -0.000  0.000  0.000  0.491 -0.000
       0.000 -0.000  0.000 -0.000  0.941
     SPIN  2
     eigenvalues:
       0.048  0.048  0.048  0.364  0.365
     eigenvectors (columns):
       0.000 -0.000 -0.000  0.492  0.871
       1.000 -0.000  0.010  0.000 -0.000
       0.000  1.000  0.000  0.000  0.000
      -0.000 -0.000  0.000  0.871 -0.492
      -0.010 -0.000  1.000 -0.000  0.000
     occupation matrix ns (before diag.):
       0.365 -0.000  0.000 -0.000  0.000
      -0.000  0.048 -0.000  0.000  0.000
       0.000 -0.000  0.048  0.000  0.000
      -0.000  0.000  0.000  0.364 -0.000
       0.000  0.000  0.000 -0.000  0.048

     Number of occupied Hubbard levels =   32.7254

     HUBBARD ENERGY =    0.9709  (Ry)

     total cpu time spent up to now is      296.0 secs

     total energy              =   -2329.13092688 Ry
     estimated scf accuracy    <       0.00038407 Ry

     total magnetization       =    -0.00 Bohr mag/cell
     absolute magnetization    =    28.28 Bohr mag/cell

     iteration # 14     ecut=   110.00 Ry     beta= 0.30
     Davidson diagonalization with overlap

---- Real-time Memory Report at c_bands before calling an iterative solver
           583 MiB given to the printing process from OS
           285 MiB allocation reported by mallinfo(arena+hblkhd)
        678008 MiB available memory on the node where the printing process lives
------------------
     ethr =  1.07E-07,  avg # of iterations =  4.0

     =================== HUBBARD OCCUPATIONS ===================
     ------------------------ ATOM    5 ------------------------
     Tr[ns(  5)] (up, down, total) =   0.41512  3.11393  3.52905
     Atomic magnetic moment for atom   5 =  -2.69881
     SPIN  1
     eigenvalues:
       0.023  0.023  0.026  0.161  0.182
     eigenvectors (columns):
      -0.000 -0.000  0.001  0.866  0.500
       0.707 -0.707  0.000  0.000 -0.000
      -0.000 -0.000 -1.000 -0.000  0.001
       0.000  0.000 -0.001  0.500 -0.866
       0.707  0.707 -0.000 -0.000  0.000
     occupation matrix ns (before diag.):
       0.166 -0.000  0.000 -0.009  0.000
      -0.000  0.023 -0.000  0.000 -0.000
       0.000 -0.000  0.026 -0.000  0.000
      -0.009  0.000 -0.000  0.177 -0.000
       0.000 -0.000  0.000 -0.000  0.023
     SPIN  2
     eigenvalues:
       0.199  0.228  0.892  0.894  0.901
     eigenvectors (columns):
       0.866  0.500 -0.000 -0.000  0.001
       0.000  0.000  0.707 -0.707  0.000
      -0.000  0.002  0.000  0.000 -1.000
       0.500 -0.866  0.000  0.000 -0.002
      -0.000 -0.000 -0.707 -0.707 -0.000
     occupation matrix ns (before diag.):
       0.206 -0.000 -0.001 -0.013  0.000
      -0.000  0.893 -0.000  0.000  0.001
      -0.001 -0.000  0.901  0.001  0.000
      -0.013  0.000  0.001  0.221 -0.000
       0.000  0.001  0.000 -0.000  0.893
     ------------------------ ATOM    6 ------------------------
     Tr[ns(  6)] (up, down, total) =   0.39956  3.10567  3.50523
     Atomic magnetic moment for atom   6 =  -2.70611
     SPIN  1
     eigenvalues:
       0.025  0.025  0.025  0.162  0.162
     eigenvectors (columns):
       0.000 -0.000 -0.000 -0.866 -0.500
      -0.000  0.707 -0.707  0.000  0.000
      -1.000  0.000  0.000  0.000 -0.000
      -0.000  0.000  0.000 -0.500  0.866
       0.000  0.707  0.707  0.000 -0.000
     occupation matrix ns (before diag.):
       0.162 -0.000  0.000 -0.000  0.000
      -0.000  0.025 -0.000  0.000 -0.000
       0.000 -0.000  0.025 -0.000  0.000
      -0.000  0.000 -0.000  0.162 -0.000
       0.000 -0.000  0.000 -0.000  0.025
     SPIN  2
     eigenvalues:
       0.199  0.199  0.902  0.902  0.902
     eigenvectors (columns):
       0.866 -0.500  0.000  0.000  0.000
      -0.000 -0.000 -0.000  0.707 -0.707
      -0.000 -0.000 -1.000  0.000  0.000
       0.500  0.866 -0.000 -0.000 -0.000
      -0.000  0.000  0.000  0.707  0.707
     occupation matrix ns (before diag.):
       0.199 -0.000 -0.000 -0.000  0.000
      -0.000  0.902 -0.000  0.000 -0.000
      -0.000 -0.000  0.902  0.000  0.000
      -0.000  0.000  0.000  0.199 -0.000
       0.000 -0.000  0.000 -0.000  0.902
     ------------------------ ATOM    7 ------------------------
     Tr[ns(  7)] (up, down, total) =   0.39961  3.10656  3.50617
     Atomic magnetic moment for atom   7 =  -2.70695
     SPIN  1
     eigenvalues:
       0.025  0.025  0.025  0.161  0.162
     eigenvectors (columns):
       0.000 -0.000 -0.000  0.092  0.996
       1.000  0.005  0.000 -0.000 -0.000
       0.000 -0.000 -1.000 -0.000 -0.000
      -0.000  0.000  0.000 -0.996  0.092
      -0.005  1.000 -0.000  0.000  0.000
     occupation matrix ns (before diag.):
       0.162 -0.000 -0.000  0.000  0.000
      -0.000  0.025 -0.000  0.000  0.000
      -0.000 -0.000  0.025  0.000  0.000
       0.000  0.000  0.000  0.161 -0.000
       0.000  0.000  0.000 -0.000  0.025
     SPIN  2
     eigenvalues:
       0.199  0.199  0.902  0.902  0.904
     eigenvectors (columns):
       0.112  0.994  0.000 -0.000 -0.000
       0.000  0.000  0.000 -0.001  1.000
      -0.000 -0.000  1.000 -0.000 -0.000
      -0.994  0.112 -0.000  0.000  0.000
      -0.000 -0.000 -0.000 -1.000 -0.001
     occupation matrix ns (before diag.):
       0.199 -0.000  0.000  0.000  0.000
      -0.000  0.904 -0.000  0.000 -0.000
       0.000 -0.000  0.902 -0.000  0.000
       0.000  0.000 -0.000  0.199 -0.000
       0.000 -0.000  0.000 -0.000  0.902
     ------------------------ ATOM    8 ------------------------
     Tr[ns(  8)] (up, down, total) =   0.39961  3.10656  3.50617
     Atomic magnetic moment for atom   8 =  -2.70695
     SPIN  1
     eigenvalues:
       0.025  0.025  0.025  0.161  0.162
     eigenvectors (columns):
      -0.000  0.000  0.000 -0.816 -0.578
      -0.005  1.000  0.000  0.000 -0.000
      -0.000  0.000 -1.000  0.000 -0.000
       0.000 -0.000  0.000  0.578 -0.816
       1.000  0.005 -0.000 -0.000  0.000
     occupation matrix ns (before diag.):
       0.162 -0.000  0.000  0.000  0.000
      -0.000  0.025 -0.000  0.000  0.000
       0.000 -0.000  0.025  0.000  0.000
       0.000  0.000  0.000  0.162 -0.000
       0.000  0.000  0.000 -0.000  0.025
     SPIN  2
     eigenvalues:
       0.199  0.199  0.902  0.902  0.904
     eigenvectors (columns):
      -0.804  0.594 -0.000 -0.000  0.000
      -0.000 -0.000 -0.000  1.000 -0.001
       0.000  0.000 -1.000 -0.000  0.000
       0.594  0.804  0.000  0.000 -0.000
       0.000  0.000  0.000  0.001  1.000
     occupation matrix ns (before diag.):
       0.199 -0.000  0.000  0.000  0.000
      -0.000  0.902 -0.000  0.000 -0.000
       0.000 -0.000  0.902 -0.000  0.000
       0.000  0.000 -0.000  0.199 -0.000
       0.000 -0.000  0.000 -0.000  0.904
     ------------------------ ATOM    9 ------------------------
     Tr[ns(  9)] (up, down, total) =   3.78025  0.84772  4.62797
     Atomic magnetic moment for atom   9 =   2.93253
     SPIN  1
     eigenvalues:
       0.447  0.496  0.943  0.947  0.947
     eigenvectors (columns):
      -0.500  0.866 -0.001  0.000  0.000
      -0.000  0.000 -0.000  0.707 -0.707
       0.002 -0.000 -1.000  0.000  0.000
       0.866  0.500  0.001 -0.000 -0.000
       0.000 -0.000  0.000  0.707  0.707
     occupation matrix ns (before diag.):
       0.484 -0.000  0.000  0.021  0.000
      -0.000  0.947 -0.000  0.000 -0.000
       0.000 -0.000  0.943 -0.001  0.000
       0.021  0.000 -0.001  0.460 -0.000
       0.000 -0.000  0.000 -0.000  0.947
     SPIN  2
     eigenvalues:
       0.048  0.051  0.051  0.330  0.366
     eigenvectors (columns):
       0.000 -0.000 -0.000  0.500 -0.866
       0.000 -0.707  0.707 -0.000 -0.000
       1.000  0.000  0.000 -0.001 -0.000
      -0.001  0.000  0.000 -0.866 -0.500
      -0.000  0.707  0.707  0.000  0.000
     occupation matrix ns (before diag.):
       0.357 -0.000 -0.000  0.016  0.000
      -0.000  0.051 -0.000  0.000  0.000
      -0.000 -0.000  0.048  0.000  0.000
       0.016  0.000  0.000  0.339 -0.000
       0.000  0.000  0.000 -0.000  0.051
     ------------------------ ATOM   10 ------------------------
     Tr[ns( 10)] (up, down, total) =   3.80390  0.87215  4.67606
     Atomic magnetic moment for atom  10 =   2.93175
     SPIN  1
     eigenvalues:
       0.491  0.491  0.941  0.941  0.941
     eigenvectors (columns):
       0.500  0.866 -0.000 -0.000 -0.000
       0.000  0.000 -0.707  0.707 -0.000
       0.000 -0.000  0.000  0.000  1.000
      -0.866  0.500  0.000  0.000  0.000
      -0.000 -0.000 -0.707 -0.707  0.000
     occupation matrix ns (before diag.):
       0.491 -0.000 -0.000  0.000  0.000
      -0.000  0.941 -0.000  0.000 -0.000
      -0.000 -0.000  0.941  0.000  0.000
       0.000  0.000  0.000  0.491 -0.000
       0.000 -0.000  0.000 -0.000  0.941
     SPIN  2
     eigenvalues:
       0.048  0.048  0.048  0.364  0.364
     eigenvectors (columns):
      -0.000 -0.000  0.000  0.500 -0.866
       0.707 -0.707  0.000 -0.000  0.000
      -0.000 -0.000 -1.000  0.000 -0.000
       0.000  0.000 -0.000 -0.866 -0.500
       0.707  0.707 -0.000  0.000  0.000
     occupation matrix ns (before diag.):
       0.364 -0.000  0.000  0.000  0.000
      -0.000  0.048 -0.000  0.000 -0.000
       0.000 -0.000  0.048 -0.000  0.000
       0.000  0.000 -0.000  0.364 -0.000
       0.000 -0.000  0.000 -0.000  0.048
     ------------------------ ATOM   11 ------------------------
     Tr[ns( 11)] (up, down, total) =   3.80386  0.87259  4.67646
     Atomic magnetic moment for atom  11 =   2.93127
     SPIN  1
     eigenvalues:
       0.491  0.491  0.941  0.941  0.941
     eigenvectors (columns):
       0.933 -0.361 -0.000  0.000  0.000
       0.000 -0.000  1.000  0.000 -0.017
       0.000 -0.000  0.000 -1.000  0.000
       0.361  0.933  0.000  0.000 -0.000
      -0.000  0.000  0.017  0.000  1.000
     occupation matrix ns (before diag.):
       0.491 -0.000 -0.000 -0.000  0.000
      -0.000  0.941 -0.000  0.000 -0.000
      -0.000 -0.000  0.941 -0.000  0.000
      -0.000  0.000 -0.000  0.491 -0.000
       0.000 -0.000  0.000 -0.000  0.941
     SPIN  2
     eigenvalues:
       0.048  0.048  0.049  0.364  0.364
     eigenvectors (columns):
      -0.000 -0.000  0.000 -1.000 -0.005
      -0.006 -0.000  1.000  0.000 -0.000
      -0.000 -1.000 -0.000  0.000  0.000
       0.000 -0.000 -0.000  0.005 -1.000
       1.000 -0.000  0.006 -0.000  0.000
     occupation matrix ns (before diag.):
       0.364 -0.000 -0.000  0.000  0.000
      -0.000  0.049 -0.000  0.000  0.000
      -0.000 -0.000  0.048 -0.000  0.000
       0.000  0.000 -0.000  0.364 -0.000
       0.000  0.000  0.000 -0.000  0.048
     ------------------------ ATOM   12 ------------------------
     Tr[ns( 12)] (up, down, total) =   3.80386  0.87259  4.67646
     Atomic magnetic moment for atom  12 =   2.93127
     SPIN  1
     eigenvalues:
       0.491  0.491  0.941  0.941  0.941
     eigenvectors (columns):
       0.779 -0.627 -0.000 -0.000 -0.000
      -0.000 -0.000 -0.017 -0.000  1.000
      -0.000 -0.000  0.000 -1.000 -0.000
       0.627  0.779  0.000 -0.000  0.000
       0.000  0.000 -1.000 -0.000 -0.017
     occupation matrix ns (before diag.):
       0.491 -0.000  0.000 -0.000  0.000
      -0.000  0.941 -0.000  0.000 -0.000
       0.000 -0.000  0.941  0.000  0.000
      -0.000  0.000  0.000  0.491 -0.000
       0.000 -0.000  0.000 -0.000  0.941
     SPIN  2
     eigenvalues:
       0.048  0.048  0.049  0.364  0.364
     eigenvectors (columns):
       0.000 -0.000 -0.000  0.496  0.868
       1.000 -0.000  0.006  0.000 -0.000
       0.000  1.000  0.000  0.000  0.000
      -0.000 -0.000  0.000  0.868 -0.496
      -0.006 -0.000  1.000 -0.000  0.000
     occupation matrix ns (before diag.):
       0.364 -0.000  0.000 -0.000  0.000
      -0.000  0.048 -0.000  0.000  0.000
       0.000 -0.000  0.048  0.000  0.000
      -0.000  0.000  0.000  0.364 -0.000
       0.000  0.000  0.000 -0.000  0.049

     Number of occupied Hubbard levels =   32.7036

     HUBBARD ENERGY =    0.9707  (Ry)

     total cpu time spent up to now is      316.6 secs

     total energy              =   -2329.13098964 Ry
     estimated scf accuracy    <       0.00005385 Ry

     total magnetization       =    -0.00 Bohr mag/cell
     absolute magnetization    =    28.25 Bohr mag/cell

     iteration # 15     ecut=   110.00 Ry     beta= 0.30
     Davidson diagonalization with overlap

---- Real-time Memory Report at c_bands before calling an iterative solver
           583 MiB given to the printing process from OS
           285 MiB allocation reported by mallinfo(arena+hblkhd)
        678005 MiB available memory on the node where the printing process lives
------------------
     ethr =  1.50E-08,  avg # of iterations =  5.0

     =================== HUBBARD OCCUPATIONS ===================
     ------------------------ ATOM    5 ------------------------
     Tr[ns(  5)] (up, down, total) =   0.41499  3.11385  3.52884
     Atomic magnetic moment for atom   5 =  -2.69885
     SPIN  1
     eigenvalues:
       0.023  0.023  0.025  0.161  0.182
     eigenvectors (columns):
      -0.000 -0.000  0.001  0.866  0.500
       0.707 -0.707  0.000 -0.000 -0.000
      -0.000 -0.000 -1.000  0.000  0.001
       0.000  0.000 -0.001  0.500 -0.866
       0.707  0.707 -0.000 -0.000  0.000
     occupation matrix ns (before diag.):
       0.166 -0.000  0.000 -0.009  0.000
      -0.000  0.023 -0.000  0.000 -0.000
       0.000 -0.000  0.025 -0.000  0.000
      -0.009  0.000 -0.000  0.177 -0.000
       0.000 -0.000  0.000 -0.000  0.023
     SPIN  2
     eigenvalues:
       0.199  0.228  0.892  0.894  0.901
     eigenvectors (columns):
       0.866  0.500 -0.000 -0.000  0.001
       0.000  0.000  0.707 -0.707  0.000
      -0.000  0.002  0.000  0.000 -1.000
       0.500 -0.866  0.000  0.000 -0.002
      -0.000 -0.000 -0.707 -0.707 -0.000
     occupation matrix ns (before diag.):
       0.206 -0.000 -0.001 -0.013  0.000
      -0.000  0.893 -0.000  0.000  0.001
      -0.001 -0.000  0.901  0.001  0.000
      -0.013  0.000  0.001  0.221 -0.000
       0.000  0.001  0.000 -0.000  0.893
     ------------------------ ATOM    6 ------------------------
     Tr[ns(  6)] (up, down, total) =   0.39892  3.10578  3.50470
     Atomic magnetic moment for atom   6 =  -2.70686
     SPIN  1
     eigenvalues:
       0.025  0.025  0.025  0.161  0.161
     eigenvectors (columns):
       0.000 -0.000 -0.000  0.866  0.500
       0.000 -0.707  0.707 -0.000 -0.000
       1.000  0.000  0.000  0.000 -0.000
      -0.000  0.000  0.000  0.500 -0.866
      -0.000  0.707  0.707 -0.000  0.000
     occupation matrix ns (before diag.):
       0.161 -0.000 -0.000 -0.000  0.000
      -0.000  0.025 -0.000  0.000  0.000
      -0.000 -0.000  0.025  0.000  0.000
      -0.000  0.000  0.000  0.161 -0.000
       0.000  0.000  0.000 -0.000  0.025
     SPIN  2
     eigenvalues:
       0.199  0.199  0.902  0.902  0.902
     eigenvectors (columns):
       0.866  0.500  0.000  0.000  0.000
      -0.000  0.000 -0.000 -0.707  0.707
      -0.000  0.000 -1.000  0.000  0.000
       0.500 -0.866 -0.000 -0.000 -0.000
      -0.000 -0.000  0.000  0.707  0.707
     occupation matrix ns (before diag.):
       0.199 -0.000 -0.000 -0.000  0.000
      -0.000  0.902 -0.000  0.000  0.000
      -0.000 -0.000  0.902  0.000  0.000
      -0.000  0.000  0.000  0.199 -0.000
       0.000  0.000  0.000 -0.000  0.902
     ------------------------ ATOM    7 ------------------------
     Tr[ns(  7)] (up, down, total) =   0.39907  3.10677  3.50584
     Atomic magnetic moment for atom   7 =  -2.70770
     SPIN  1
     eigenvalues:
       0.025  0.025  0.025  0.161  0.162
     eigenvectors (columns):
       0.000 -0.000 -0.000  0.051  0.999
       1.000  0.000  0.000 -0.000 -0.000
       0.000 -0.000 -1.000  0.000 -0.000
      -0.000  0.000 -0.000 -0.999  0.051
      -0.000  1.000 -0.000  0.000  0.000
     occupation matrix ns (before diag.):
       0.162 -0.000 -0.000  0.000  0.000
      -0.000  0.025 -0.000  0.000  0.000
      -0.000 -0.000  0.025 -0.000  0.000
       0.000  0.000 -0.000  0.161 -0.000
       0.000  0.000  0.000 -0.000  0.025
     SPIN  2
     eigenvalues:
       0.199  0.200  0.902  0.902  0.904
     eigenvectors (columns):
       0.112  0.994  0.000 -0.000 -0.000
       0.000  0.000  0.000 -0.001  1.000
      -0.000 -0.000  1.000 -0.000 -0.000
      -0.994  0.112 -0.000  0.000  0.000
      -0.000 -0.000 -0.000 -1.000 -0.001
     occupation matrix ns (before diag.):
       0.200 -0.000  0.000  0.000  0.000
      -0.000  0.904 -0.000  0.000 -0.000
       0.000 -0.000  0.902 -0.000  0.000
       0.000  0.000 -0.000  0.199 -0.000
       0.000 -0.000  0.000 -0.000  0.902
     ------------------------ ATOM    8 ------------------------
     Tr[ns(  8)] (up, down, total) =   0.39907  3.10677  3.50584
     Atomic magnetic moment for atom   8 =  -2.70770
     SPIN  1
     eigenvalues:
       0.025  0.025  0.025  0.161  0.162
     eigenvectors (columns):
      -0.000  0.000  0.000 -0.839 -0.543
      -0.000  1.000  0.000  0.000 -0.000
      -0.000  0.000 -1.000 -0.000 -0.000
       0.000 -0.000  0.000  0.543 -0.839
       1.000  0.000 -0.000 -0.000  0.000
     occupation matrix ns (before diag.):
       0.161 -0.000  0.000  0.000  0.000
      -0.000  0.025 -0.000  0.000  0.000
       0.000 -0.000  0.025  0.000  0.000
       0.000  0.000  0.000  0.162 -0.000
       0.000  0.000  0.000 -0.000  0.025
     SPIN  2
     eigenvalues:
       0.199  0.200  0.902  0.902  0.904
     eigenvectors (columns):
      -0.804  0.594 -0.000 -0.000  0.000
      -0.000 -0.000 -0.000  1.000 -0.001
       0.000  0.000 -1.000 -0.000  0.000
       0.594  0.804  0.000  0.000 -0.000
       0.000  0.000  0.000  0.001  1.000
     occupation matrix ns (before diag.):
       0.199 -0.000  0.000  0.000  0.000
      -0.000  0.902 -0.000  0.000 -0.000
       0.000 -0.000  0.902 -0.000  0.000
       0.000  0.000 -0.000  0.199 -0.000
       0.000 -0.000  0.000 -0.000  0.904
     ------------------------ ATOM    9 ------------------------
     Tr[ns(  9)] (up, down, total) =   3.77955  0.84765  4.62720
     Atomic magnetic moment for atom   9 =   2.93190
     SPIN  1
     eigenvalues:
       0.447  0.496  0.943  0.947  0.947
     eigenvectors (columns):
      -0.500  0.866 -0.001  0.000  0.000
      -0.000 -0.000 -0.000  0.707 -0.707
       0.002 -0.000 -1.000  0.000  0.000
       0.866  0.500  0.001 -0.000 -0.000
       0.000 -0.000  0.000  0.707  0.707
     occupation matrix ns (before diag.):
       0.484 -0.000  0.000  0.021  0.000
      -0.000  0.947 -0.000  0.000 -0.000
       0.000 -0.000  0.943 -0.001  0.000
       0.021  0.000 -0.001  0.459 -0.000
       0.000 -0.000  0.000 -0.000  0.947
     SPIN  2
     eigenvalues:
       0.048  0.051  0.052  0.330  0.366
     eigenvectors (columns):
       0.000 -0.000 -0.000  0.500 -0.866
       0.000 -0.707  0.707 -0.000  0.000
       1.000  0.000  0.000 -0.001 -0.000
      -0.001  0.000  0.000 -0.866 -0.500
      -0.000  0.707  0.707  0.000  0.000
     occupation matrix ns (before diag.):
       0.357 -0.000 -0.000  0.016  0.000
      -0.000  0.051 -0.000  0.000  0.000
      -0.000 -0.000  0.048  0.000  0.000
       0.016  0.000  0.000  0.339 -0.000
       0.000  0.000  0.000 -0.000  0.051
     ------------------------ ATOM   10 ------------------------
     Tr[ns( 10)] (up, down, total) =   3.80363  0.87228  4.67591
     Atomic magnetic moment for atom  10 =   2.93135
     SPIN  1
     eigenvalues:
       0.491  0.491  0.941  0.941  0.941
     eigenvectors (columns):
       0.500  0.866 -0.000 -0.000 -0.000
       0.000  0.000 -0.707  0.707 -0.000
       0.000 -0.000  0.000  0.000  1.000
      -0.866  0.500  0.000  0.000  0.000
      -0.000 -0.000 -0.707 -0.707  0.000
     occupation matrix ns (before diag.):
       0.491 -0.000 -0.000  0.000  0.000
      -0.000  0.941 -0.000  0.000 -0.000
      -0.000 -0.000  0.941  0.000  0.000
       0.000  0.000  0.000  0.491 -0.000
       0.000 -0.000  0.000 -0.000  0.941
     SPIN  2
     eigenvalues:
       0.048  0.048  0.048  0.364  0.364
     eigenvectors (columns):
      -0.000 -0.000  0.000 -0.500 -0.866
      -0.707  0.707  0.000  0.000  0.000
      -0.000 -0.000 -1.000 -0.000 -0.000
       0.000  0.000 -0.000  0.866 -0.500
       0.707  0.707 -0.000 -0.000  0.000
     occupation matrix ns (before diag.):
       0.364 -0.000  0.000  0.000  0.000
      -0.000  0.048 -0.000  0.000  0.000
       0.000 -0.000  0.048 -0.000  0.000
       0.000  0.000 -0.000  0.364 -0.000
       0.000  0.000  0.000 -0.000  0.048
     ------------------------ ATOM   11 ------------------------
     Tr[ns( 11)] (up, down, total) =   3.80358  0.87273  4.67631
     Atomic magnetic moment for atom  11 =   2.93085
     SPIN  1
     eigenvalues:
       0.491  0.491  0.941  0.941  0.941
     eigenvectors (columns):
       0.938 -0.348 -0.000  0.000  0.000
       0.000 -0.000  1.000  0.000 -0.016
       0.000 -0.000  0.000 -1.000  0.000
       0.348  0.938  0.000  0.000 -0.000
      -0.000  0.000  0.016  0.000  1.000
     occupation matrix ns (before diag.):
       0.491 -0.000 -0.000 -0.000  0.000
      -0.000  0.941 -0.000  0.000 -0.000
      -0.000 -0.000  0.941 -0.000  0.000
      -0.000  0.000 -0.000  0.491 -0.000
       0.000 -0.000  0.000 -0.000  0.941
     SPIN  2
     eigenvalues:
       0.048  0.048  0.049  0.364  0.364
     eigenvectors (columns):
      -0.000 -0.000  0.000 -1.000  0.024
      -0.010 -0.000  1.000  0.000 -0.000
      -0.000 -1.000 -0.000  0.000  0.000
       0.000 -0.000 -0.000 -0.024 -1.000
       1.000 -0.000  0.010 -0.000  0.000
     occupation matrix ns (before diag.):
       0.364 -0.000 -0.000 -0.000  0.000
      -0.000  0.049 -0.000  0.000  0.000
      -0.000 -0.000  0.048 -0.000  0.000
      -0.000  0.000 -0.000  0.364 -0.000
       0.000  0.000  0.000 -0.000  0.048
     ------------------------ ATOM   12 ------------------------
     Tr[ns( 12)] (up, down, total) =   3.80358  0.87273  4.67631
     Atomic magnetic moment for atom  12 =   2.93085
     SPIN  1
     eigenvalues:
       0.491  0.491  0.941  0.941  0.941
     eigenvectors (columns):
       0.770 -0.638 -0.000 -0.000 -0.000
      -0.000 -0.000 -0.016 -0.000  1.000
      -0.000 -0.000  0.000 -1.000 -0.000
       0.638  0.770  0.000 -0.000  0.000
       0.000  0.000 -1.000 -0.000 -0.016
     occupation matrix ns (before diag.):
       0.491 -0.000  0.000 -0.000  0.000
      -0.000  0.941 -0.000  0.000 -0.000
       0.000 -0.000  0.941  0.000  0.000
      -0.000  0.000  0.000  0.491 -0.000
       0.000 -0.000  0.000 -0.000  0.941
     SPIN  2
     eigenvalues:
       0.048  0.048  0.049  0.364  0.364
     eigenvectors (columns):
       0.000 -0.000 -0.000  0.521  0.854
       1.000 -0.000  0.010  0.000 -0.000
       0.000  1.000  0.000  0.000  0.000
      -0.000  0.000  0.000  0.854 -0.521
      -0.010 -0.000  1.000 -0.000  0.000
     occupation matrix ns (before diag.):
       0.364 -0.000  0.000 -0.000  0.000
      -0.000  0.048 -0.000  0.000  0.000
       0.000 -0.000  0.048 -0.000  0.000
      -0.000  0.000 -0.000  0.364 -0.000
       0.000  0.000  0.000 -0.000  0.049

     Number of occupied Hubbard levels =   32.7010

     HUBBARD ENERGY =    0.9707  (Ry)

     total cpu time spent up to now is      337.0 secs

     total energy              =   -2329.13099859 Ry
     estimated scf accuracy    <       0.00001302 Ry

     total magnetization       =    -0.00 Bohr mag/cell
     absolute magnetization    =    28.25 Bohr mag/cell

     iteration # 16     ecut=   110.00 Ry     beta= 0.30
     Davidson diagonalization with overlap

---- Real-time Memory Report at c_bands before calling an iterative solver
           583 MiB given to the printing process from OS
           285 MiB allocation reported by mallinfo(arena+hblkhd)
        678005 MiB available memory on the node where the printing process lives
------------------
     ethr =  3.62E-09,  avg # of iterations =  4.8

     =================== HUBBARD OCCUPATIONS ===================
     ------------------------ ATOM    5 ------------------------
     Tr[ns(  5)] (up, down, total) =   0.41508  3.11331  3.52840
     Atomic magnetic moment for atom   5 =  -2.69823
     SPIN  1
     eigenvalues:
       0.023  0.023  0.025  0.161  0.182
     eigenvectors (columns):
      -0.000 -0.000  0.001  0.866  0.500
       0.707 -0.707  0.000  0.000 -0.000
      -0.000 -0.000 -1.000  0.000  0.001
       0.000  0.000 -0.001  0.500 -0.866
       0.707  0.707 -0.000 -0.000  0.000
     occupation matrix ns (before diag.):
       0.166 -0.000  0.000 -0.009  0.000
      -0.000  0.023 -0.000  0.000 -0.000
       0.000 -0.000  0.025 -0.000  0.000
      -0.009  0.000 -0.000  0.177 -0.000
       0.000 -0.000  0.000 -0.000  0.023
     SPIN  2
     eigenvalues:
       0.199  0.228  0.892  0.894  0.901
     eigenvectors (columns):
       0.866  0.500 -0.000 -0.000  0.001
       0.000  0.000  0.707 -0.707  0.000
      -0.000  0.002  0.000  0.000 -1.000
       0.500 -0.866  0.000  0.000 -0.002
      -0.000 -0.000 -0.707 -0.707 -0.000
     occupation matrix ns (before diag.):
       0.206 -0.000 -0.001 -0.013  0.000
      -0.000  0.893 -0.000  0.000  0.001
      -0.001 -0.000  0.901  0.001  0.000
      -0.013  0.000  0.001  0.221 -0.000
       0.000  0.001  0.000 -0.000  0.893
     ------------------------ ATOM    6 ------------------------
     Tr[ns(  6)] (up, down, total) =   0.39884  3.10555  3.50440
     Atomic magnetic moment for atom   6 =  -2.70671
     SPIN  1
     eigenvalues:
       0.025  0.025  0.025  0.161  0.161
     eigenvectors (columns):
       0.000 -0.000 -0.000 -0.866  0.500
      -0.000 -0.707  0.707  0.000 -0.000
      -1.000  0.000  0.000 -0.000  0.000
      -0.000  0.000  0.000 -0.500 -0.866
       0.000  0.707  0.707  0.000  0.000
     occupation matrix ns (before diag.):
       0.161 -0.000  0.000 -0.000  0.000
      -0.000  0.025 -0.000  0.000  0.000
       0.000 -0.000  0.025 -0.000  0.000
      -0.000  0.000 -0.000  0.161 -0.000
       0.000  0.000  0.000 -0.000  0.025
     SPIN  2
     eigenvalues:
       0.199  0.199  0.902  0.902  0.902
     eigenvectors (columns):
       0.866  0.500  0.000  0.000  0.000
       0.000  0.000 -0.000 -0.707  0.707
      -0.000  0.000 -1.000  0.000  0.000
       0.500 -0.866 -0.000 -0.000 -0.000
      -0.000 -0.000  0.000  0.707  0.707
     occupation matrix ns (before diag.):
       0.199 -0.000 -0.000 -0.000  0.000
      -0.000  0.902 -0.000  0.000  0.000
      -0.000 -0.000  0.902  0.000  0.000
      -0.000  0.000  0.000  0.199 -0.000
       0.000  0.000  0.000 -0.000  0.902
     ------------------------ ATOM    7 ------------------------
     Tr[ns(  7)] (up, down, total) =   0.39899  3.10640  3.50539
     Atomic magnetic moment for atom   7 =  -2.70741
     SPIN  1
     eigenvalues:
       0.025  0.025  0.025  0.161  0.162
     eigenvectors (columns):
      -0.000 -0.000 -0.000 -0.034  0.999
      -1.000 -0.004  0.000  0.000 -0.000
      -0.000 -0.000 -1.000 -0.000 -0.000
       0.000  0.000 -0.000  0.999  0.034
      -0.004  1.000 -0.000 -0.000  0.000
     occupation matrix ns (before diag.):
       0.162 -0.000 -0.000  0.000  0.000
      -0.000  0.025 -0.000  0.000 -0.000
      -0.000 -0.000  0.025 -0.000  0.000
       0.000  0.000 -0.000  0.161 -0.000
       0.000 -0.000  0.000 -0.000  0.025
     SPIN  2
     eigenvalues:
       0.199  0.199  0.902  0.902  0.904
     eigenvectors (columns):
       0.084  0.996  0.000 -0.000 -0.000
       0.000  0.000  0.000 -0.002  1.000
      -0.000 -0.000  1.000 -0.000 -0.000
      -0.996  0.084 -0.000  0.000  0.000
      -0.000 -0.000 -0.000 -1.000 -0.002
     occupation matrix ns (before diag.):
       0.199 -0.000  0.000  0.000  0.000
      -0.000  0.904 -0.000  0.000 -0.000
       0.000 -0.000  0.902 -0.000  0.000
       0.000  0.000 -0.000  0.199 -0.000
       0.000 -0.000  0.000 -0.000  0.902
     ------------------------ ATOM    8 ------------------------
     Tr[ns(  8)] (up, down, total) =   0.39899  3.10640  3.50539
     Atomic magnetic moment for atom   8 =  -2.70741
     SPIN  1
     eigenvalues:
       0.025  0.025  0.025  0.161  0.162
     eigenvectors (columns):
      -0.000 -0.000  0.000  0.848 -0.530
       0.004 -1.000  0.000 -0.000 -0.000
      -0.000 -0.000 -1.000  0.000 -0.000
       0.000  0.000  0.000 -0.530 -0.848
       1.000  0.004 -0.000  0.000  0.000
     occupation matrix ns (before diag.):
       0.161 -0.000  0.000  0.000  0.000
      -0.000  0.025 -0.000  0.000 -0.000
       0.000 -0.000  0.025  0.000  0.000
       0.000  0.000  0.000  0.162 -0.000
       0.000 -0.000  0.000 -0.000  0.025
     SPIN  2
     eigenvalues:
       0.199  0.199  0.902  0.902  0.904
     eigenvectors (columns):
      -0.821  0.571 -0.000 -0.000  0.000
      -0.000 -0.000 -0.000  1.000 -0.002
       0.000  0.000 -1.000 -0.000  0.000
       0.571  0.821  0.000  0.000 -0.000
       0.000  0.000  0.000  0.002  1.000
     occupation matrix ns (before diag.):
       0.199 -0.000  0.000  0.000  0.000
      -0.000  0.902 -0.000  0.000 -0.000
       0.000 -0.000  0.902 -0.000  0.000
       0.000  0.000 -0.000  0.199 -0.000
       0.000 -0.000  0.000 -0.000  0.904
     ------------------------ ATOM    9 ------------------------
     Tr[ns(  9)] (up, down, total) =   3.77931  0.84772  4.62703
     Atomic magnetic moment for atom   9 =   2.93159
     SPIN  1
     eigenvalues:
       0.447  0.496  0.943  0.947  0.947
     eigenvectors (columns):
      -0.500  0.866 -0.001  0.000  0.000
      -0.000  0.000 -0.000  0.707 -0.707
       0.002 -0.000 -1.000  0.000  0.000
       0.866  0.500  0.001 -0.000 -0.000
       0.000 -0.000  0.000  0.707  0.707
     occupation matrix ns (before diag.):
       0.484 -0.000  0.000  0.021  0.000
      -0.000  0.947 -0.000  0.000 -0.000
       0.000 -0.000  0.943 -0.001  0.000
       0.021  0.000 -0.001  0.459 -0.000
       0.000 -0.000  0.000 -0.000  0.947
     SPIN  2
     eigenvalues:
       0.048  0.051  0.052  0.330  0.366
     eigenvectors (columns):
       0.000 -0.000 -0.000  0.500 -0.866
       0.000 -0.707  0.707 -0.000  0.000
       1.000  0.000  0.000 -0.001 -0.000
      -0.001  0.000  0.000 -0.866 -0.500
      -0.000  0.707  0.707  0.000  0.000
     occupation matrix ns (before diag.):
       0.357 -0.000 -0.000  0.016  0.000
      -0.000  0.051 -0.000  0.000  0.000
      -0.000 -0.000  0.048  0.000  0.000
       0.016  0.000  0.000  0.339 -0.000
       0.000  0.000  0.000 -0.000  0.051
     ------------------------ ATOM   10 ------------------------
     Tr[ns( 10)] (up, down, total) =   3.80354  0.87239  4.67592
     Atomic magnetic moment for atom  10 =   2.93115
     SPIN  1
     eigenvalues:
       0.491  0.491  0.941  0.941  0.941
     eigenvectors (columns):
       0.500  0.866 -0.000 -0.000 -0.000
       0.000 -0.000 -0.707  0.707 -0.000
       0.000 -0.000  0.000  0.000  1.000
      -0.866  0.500  0.000  0.000  0.000
      -0.000 -0.000 -0.707 -0.707  0.000
     occupation matrix ns (before diag.):
       0.491 -0.000 -0.000  0.000  0.000
      -0.000  0.941 -0.000  0.000 -0.000
      -0.000 -0.000  0.941  0.000  0.000
       0.000  0.000  0.000  0.491 -0.000
       0.000 -0.000  0.000 -0.000  0.941
     SPIN  2
     eigenvalues:
       0.048  0.048  0.048  0.364  0.364
     eigenvectors (columns):
      -0.000 -0.000  0.000 -0.500 -0.866
      -0.707  0.707  0.000  0.000 -0.000
      -0.000 -0.000 -1.000 -0.000 -0.000
       0.000  0.000 -0.000  0.866 -0.500
       0.707  0.707 -0.000 -0.000  0.000
     occupation matrix ns (before diag.):
       0.364 -0.000  0.000  0.000  0.000
      -0.000  0.048 -0.000  0.000  0.000
       0.000 -0.000  0.048 -0.000  0.000
       0.000  0.000 -0.000  0.364 -0.000
       0.000  0.000  0.000 -0.000  0.048
     ------------------------ ATOM   11 ------------------------
     Tr[ns( 11)] (up, down, total) =   3.80330  0.87271  4.67602
     Atomic magnetic moment for atom  11 =   2.93059
     SPIN  1
     eigenvalues:
       0.491  0.491  0.941  0.941  0.941
     eigenvectors (columns):
       0.947 -0.322 -0.000  0.000  0.000
       0.000 -0.000  1.000  0.000 -0.015
       0.000 -0.000  0.000 -1.000  0.000
       0.322  0.947  0.000  0.000 -0.000
      -0.000  0.000  0.015  0.000  1.000
     occupation matrix ns (before diag.):
       0.491 -0.000 -0.000 -0.000  0.000
      -0.000  0.941 -0.000  0.000 -0.000
      -0.000 -0.000  0.941 -0.000  0.000
      -0.000  0.000 -0.000  0.491 -0.000
       0.000 -0.000  0.000 -0.000  0.941
     SPIN  2
     eigenvalues:
       0.048  0.048  0.049  0.364  0.364
     eigenvectors (columns):
      -0.000  0.000  0.000 -0.999  0.038
      -0.010 -0.000  1.000  0.000 -0.000
      -0.000 -1.000 -0.000 -0.000  0.000
       0.000  0.000 -0.000 -0.038 -0.999
       1.000 -0.000  0.010 -0.000  0.000
     occupation matrix ns (before diag.):
       0.364 -0.000  0.000 -0.000  0.000
      -0.000  0.049 -0.000  0.000  0.000
       0.000 -0.000  0.048  0.000  0.000
      -0.000  0.000  0.000  0.364 -0.000
       0.000  0.000  0.000 -0.000  0.048
     ------------------------ ATOM   12 ------------------------
     Tr[ns( 12)] (up, down, total) =   3.80330  0.87271  4.67602
     Atomic magnetic moment for atom  12 =   2.93059
     SPIN  1
     eigenvalues:
       0.491  0.491  0.941  0.941  0.941
     eigenvectors (columns):
       0.752 -0.659 -0.000 -0.000 -0.000
      -0.000 -0.000 -0.015 -0.000  1.000
      -0.000 -0.000  0.000 -1.000 -0.000
       0.659  0.752  0.000 -0.000  0.000
       0.000  0.000 -1.000 -0.000 -0.015
     occupation matrix ns (before diag.):
       0.491 -0.000  0.000 -0.000  0.000
      -0.000  0.941 -0.000  0.000 -0.000
       0.000 -0.000  0.941  0.000  0.000
      -0.000  0.000  0.000  0.491 -0.000
       0.000 -0.000  0.000 -0.000  0.941
     SPIN  2
     eigenvalues:
       0.048  0.048  0.049  0.364  0.364
     eigenvectors (columns):
       0.000  0.000 -0.000  0.532  0.847
       1.000 -0.000  0.010 -0.000 -0.000
       0.000  1.000  0.000 -0.000  0.000
      -0.000  0.000  0.000  0.847 -0.532
      -0.010 -0.000  1.000 -0.000  0.000
     occupation matrix ns (before diag.):
       0.364 -0.000 -0.000 -0.000  0.000
      -0.000  0.048 -0.000  0.000  0.000
      -0.000 -0.000  0.048 -0.000  0.000
      -0.000  0.000 -0.000  0.364 -0.000
       0.000  0.000  0.000 -0.000  0.049

     Number of occupied Hubbard levels =   32.6986

     HUBBARD ENERGY =    0.9708  (Ry)

     total cpu time spent up to now is      359.1 secs

     total energy              =   -2329.13100013 Ry
     estimated scf accuracy    <       0.00000624 Ry

     total magnetization       =    -0.00 Bohr mag/cell
     absolute magnetization    =    28.25 Bohr mag/cell

     iteration # 17     ecut=   110.00 Ry     beta= 0.30
     Davidson diagonalization with overlap

---- Real-time Memory Report at c_bands before calling an iterative solver
           583 MiB given to the printing process from OS
           285 MiB allocation reported by mallinfo(arena+hblkhd)
        678003 MiB available memory on the node where the printing process lives
------------------
     ethr =  1.73E-09,  avg # of iterations =  2.8

     =================== HUBBARD OCCUPATIONS ===================
     ------------------------ ATOM    5 ------------------------
     Tr[ns(  5)] (up, down, total) =   0.41509  3.11305  3.52814
     Atomic magnetic moment for atom   5 =  -2.69796
     SPIN  1
     eigenvalues:
       0.023  0.023  0.025  0.161  0.182
     eigenvectors (columns):
      -0.000 -0.000  0.001  0.866  0.500
       0.707 -0.707  0.000 -0.000 -0.000
      -0.000 -0.000 -1.000  0.000  0.001
       0.000  0.000 -0.001  0.500 -0.866
       0.707  0.707 -0.000 -0.000  0.000
     occupation matrix ns (before diag.):
       0.166 -0.000  0.000 -0.009  0.000
      -0.000  0.023 -0.000  0.000 -0.000
       0.000 -0.000  0.025 -0.000  0.000
      -0.009  0.000 -0.000  0.177 -0.000
       0.000 -0.000  0.000 -0.000  0.023
     SPIN  2
     eigenvalues:
       0.199  0.228  0.892  0.894  0.901
     eigenvectors (columns):
       0.866  0.500 -0.000 -0.000  0.001
      -0.000  0.000  0.707 -0.707  0.000
      -0.000  0.002  0.000  0.000 -1.000
       0.500 -0.866  0.000  0.000 -0.002
      -0.000 -0.000 -0.707 -0.707 -0.000
     occupation matrix ns (before diag.):
       0.206 -0.000 -0.001 -0.013  0.000
      -0.000  0.893 -0.000  0.000  0.001
      -0.001 -0.000  0.901  0.001  0.000
      -0.013  0.000  0.001  0.221 -0.000
       0.000  0.001  0.000 -0.000  0.893
     ------------------------ ATOM    6 ------------------------
     Tr[ns(  6)] (up, down, total) =   0.39882  3.10532  3.50415
     Atomic magnetic moment for atom   6 =  -2.70650
     SPIN  1
     eigenvalues:
       0.025  0.025  0.025  0.161  0.161
     eigenvectors (columns):
       0.000 -0.000 -0.000 -0.866  0.500
      -0.000 -0.707  0.707  0.000 -0.000
      -1.000  0.000  0.000 -0.000  0.000
      -0.000  0.000  0.000 -0.500 -0.866
       0.000  0.707  0.707  0.000  0.000
     occupation matrix ns (before diag.):
       0.161 -0.000  0.000 -0.000  0.000
      -0.000  0.025 -0.000  0.000  0.000
       0.000 -0.000  0.025 -0.000  0.000
      -0.000  0.000 -0.000  0.161 -0.000
       0.000  0.000  0.000 -0.000  0.025
     SPIN  2
     eigenvalues:
       0.199  0.199  0.902  0.902  0.902
     eigenvectors (columns):
       0.866  0.500  0.000  0.000  0.000
      -0.000  0.000 -0.000 -0.707  0.707
      -0.000  0.000 -1.000  0.000  0.000
       0.500 -0.866 -0.000 -0.000 -0.000
      -0.000 -0.000  0.000  0.707  0.707
     occupation matrix ns (before diag.):
       0.199 -0.000 -0.000 -0.000  0.000
      -0.000  0.902 -0.000  0.000  0.000
      -0.000 -0.000  0.902  0.000  0.000
      -0.000  0.000  0.000  0.199 -0.000
       0.000  0.000  0.000 -0.000  0.902
     ------------------------ ATOM    7 ------------------------
     Tr[ns(  7)] (up, down, total) =   0.39897  3.10615  3.50512
     Atomic magnetic moment for atom   7 =  -2.70718
     SPIN  1
     eigenvalues:
       0.025  0.025  0.025  0.161  0.162
     eigenvectors (columns):
      -0.000 -0.000 -0.000 -0.032  0.999
      -1.000 -0.003  0.000  0.000 -0.000
      -0.000 -0.000 -1.000 -0.000 -0.000
       0.000  0.000 -0.000  0.999  0.032
      -0.003  1.000 -0.000 -0.000  0.000
     occupation matrix ns (before diag.):
       0.162 -0.000 -0.000  0.000  0.000
      -0.000  0.025 -0.000  0.000 -0.000
      -0.000 -0.000  0.025 -0.000  0.000
       0.000  0.000 -0.000  0.161 -0.000
       0.000 -0.000  0.000 -0.000  0.025
     SPIN  2
     eigenvalues:
       0.199  0.199  0.902  0.902  0.904
     eigenvectors (columns):
       0.079  0.997  0.000 -0.000 -0.000
       0.000  0.000  0.000 -0.002  1.000
      -0.000 -0.000  1.000 -0.000 -0.000
      -0.997  0.079 -0.000  0.000  0.000
      -0.000 -0.000 -0.000 -1.000 -0.002
     occupation matrix ns (before diag.):
       0.199 -0.000  0.000  0.000  0.000
      -0.000  0.904 -0.000  0.000 -0.000
       0.000 -0.000  0.902 -0.000  0.000
       0.000  0.000 -0.000  0.199 -0.000
       0.000 -0.000  0.000 -0.000  0.902
     ------------------------ ATOM    8 ------------------------
     Tr[ns(  8)] (up, down, total) =   0.39897  3.10615  3.50512
     Atomic magnetic moment for atom   8 =  -2.70718
     SPIN  1
     eigenvalues:
       0.025  0.025  0.025  0.161  0.162
     eigenvectors (columns):
      -0.000 -0.000  0.000  0.850 -0.527
       0.003 -1.000  0.000 -0.000 -0.000
      -0.000 -0.000 -1.000  0.000 -0.000
       0.000  0.000  0.000 -0.527 -0.850
       1.000  0.003 -0.000  0.000  0.000
     occupation matrix ns (before diag.):
       0.161 -0.000  0.000  0.000  0.000
      -0.000  0.025 -0.000  0.000 -0.000
       0.000 -0.000  0.025  0.000  0.000
       0.000  0.000  0.000  0.162 -0.000
       0.000 -0.000  0.000 -0.000  0.025
     SPIN  2
     eigenvalues:
       0.199  0.199  0.902  0.902  0.904
     eigenvectors (columns):
      -0.824 -0.567  0.000 -0.000  0.000
      -0.000  0.000  0.000  1.000 -0.002
       0.000 -0.000  1.000 -0.000  0.000
       0.567 -0.824 -0.000  0.000 -0.000
       0.000 -0.000 -0.000  0.002  1.000
     occupation matrix ns (before diag.):
       0.199 -0.000  0.000  0.000  0.000
      -0.000  0.902 -0.000  0.000 -0.000
       0.000 -0.000  0.902 -0.000  0.000
       0.000  0.000 -0.000  0.199 -0.000
       0.000 -0.000  0.000 -0.000  0.904
     ------------------------ ATOM    9 ------------------------
     Tr[ns(  9)] (up, down, total) =   3.77941  0.84778  4.62719
     Atomic magnetic moment for atom   9 =   2.93163
     SPIN  1
     eigenvalues:
       0.447  0.496  0.943  0.947  0.947
     eigenvectors (columns):
      -0.500  0.866 -0.001  0.000  0.000
      -0.000  0.000 -0.000  0.707 -0.707
       0.002 -0.000 -1.000  0.000  0.000
       0.866  0.500  0.001 -0.000 -0.000
       0.000 -0.000  0.000  0.707  0.707
     occupation matrix ns (before diag.):
       0.484 -0.000  0.000  0.021  0.000
      -0.000  0.947 -0.000  0.000 -0.000
       0.000 -0.000  0.943 -0.001  0.000
       0.021  0.000 -0.001  0.459 -0.000
       0.000 -0.000  0.000 -0.000  0.947
     SPIN  2
     eigenvalues:
       0.048  0.051  0.052  0.330  0.366
     eigenvectors (columns):
       0.000 -0.000 -0.000  0.500 -0.866
       0.000 -0.707  0.707 -0.000  0.000
       1.000  0.000  0.000 -0.001 -0.000
      -0.001  0.000  0.000 -0.866 -0.500
      -0.000  0.707  0.707  0.000  0.000
     occupation matrix ns (before diag.):
       0.357 -0.000 -0.000  0.016  0.000
      -0.000  0.051 -0.000  0.000  0.000
      -0.000 -0.000  0.048  0.000  0.000
       0.016  0.000  0.000  0.339 -0.000
       0.000  0.000  0.000 -0.000  0.051
     ------------------------ ATOM   10 ------------------------
     Tr[ns( 10)] (up, down, total) =   3.80353  0.87239  4.67592
     Atomic magnetic moment for atom  10 =   2.93114
     SPIN  1
     eigenvalues:
       0.491  0.491  0.941  0.941  0.941
     eigenvectors (columns):
       0.500  0.866 -0.000 -0.000 -0.000
       0.000 -0.000 -0.707  0.707 -0.000
       0.000 -0.000  0.000  0.000  1.000
      -0.866  0.500  0.000  0.000  0.000
      -0.000 -0.000 -0.707 -0.707  0.000
     occupation matrix ns (before diag.):
       0.491 -0.000 -0.000  0.000  0.000
      -0.000  0.941 -0.000  0.000 -0.000
      -0.000 -0.000  0.941  0.000  0.000
       0.000  0.000  0.000  0.491 -0.000
       0.000 -0.000  0.000 -0.000  0.941
     SPIN  2
     eigenvalues:
       0.048  0.048  0.048  0.364  0.364
     eigenvectors (columns):
      -0.000 -0.000  0.000 -0.500 -0.866
      -0.707  0.707  0.000  0.000 -0.000
      -0.000 -0.000 -1.000 -0.000 -0.000
       0.000  0.000 -0.000  0.866 -0.500
       0.707  0.707 -0.000 -0.000  0.000
     occupation matrix ns (before diag.):
       0.364 -0.000  0.000  0.000  0.000
      -0.000  0.048 -0.000  0.000  0.000
       0.000 -0.000  0.048 -0.000  0.000
       0.000  0.000 -0.000  0.364 -0.000
       0.000  0.000  0.000 -0.000  0.048
     ------------------------ ATOM   11 ------------------------
     Tr[ns( 11)] (up, down, total) =   3.80330  0.87271  4.67602
     Atomic magnetic moment for atom  11 =   2.93059
     SPIN  1
     eigenvalues:
       0.491  0.491  0.941  0.941  0.941
     eigenvectors (columns):
       0.948 -0.319 -0.000  0.000  0.000
       0.000 -0.000  1.000  0.000 -0.015
       0.000 -0.000  0.000 -1.000  0.000
       0.319  0.948  0.000  0.000 -0.000
      -0.000  0.000  0.015  0.000  1.000
     occupation matrix ns (before diag.):
       0.491 -0.000 -0.000 -0.000  0.000
      -0.000  0.941 -0.000  0.000 -0.000
      -0.000 -0.000  0.941 -0.000  0.000
      -0.000  0.000 -0.000  0.491 -0.000
       0.000 -0.000  0.000 -0.000  0.941
     SPIN  2
     eigenvalues:
       0.048  0.048  0.049  0.364  0.364
     eigenvectors (columns):
      -0.000  0.000  0.000 -0.999  0.036
      -0.010 -0.000  1.000  0.000 -0.000
      -0.000 -1.000 -0.000 -0.000 -0.000
       0.000  0.000 -0.000 -0.036 -0.999
       1.000 -0.000  0.010 -0.000  0.000
     occupation matrix ns (before diag.):
       0.364 -0.000  0.000 -0.000  0.000
      -0.000  0.049 -0.000  0.000  0.000
       0.000 -0.000  0.048  0.000  0.000
      -0.000  0.000  0.000  0.364 -0.000
       0.000  0.000  0.000 -0.000  0.048
     ------------------------ ATOM   12 ------------------------
     Tr[ns( 12)] (up, down, total) =   3.80330  0.87271  4.67602
     Atomic magnetic moment for atom  12 =   2.93059
     SPIN  1
     eigenvalues:
       0.491  0.491  0.941  0.941  0.941
     eigenvectors (columns):
       0.750 -0.661 -0.000 -0.000 -0.000
      -0.000 -0.000 -0.015 -0.000  1.000
      -0.000 -0.000  0.000 -1.000 -0.000
       0.661  0.750  0.000 -0.000  0.000
       0.000  0.000 -1.000 -0.000 -0.015
     occupation matrix ns (before diag.):
       0.491 -0.000  0.000 -0.000  0.000
      -0.000  0.941 -0.000  0.000 -0.000
       0.000 -0.000  0.941  0.000  0.000
      -0.000  0.000  0.000  0.491 -0.000
       0.000 -0.000  0.000 -0.000  0.941
     SPIN  2
     eigenvalues:
       0.048  0.048  0.049  0.364  0.364
     eigenvectors (columns):
       0.000  0.000 -0.000  0.531  0.847
       1.000 -0.000  0.010 -0.000 -0.000
       0.000  1.000  0.000 -0.000 -0.000
      -0.000  0.000  0.000  0.847 -0.531
      -0.010 -0.000  1.000 -0.000  0.000
     occupation matrix ns (before diag.):
       0.364 -0.000 -0.000 -0.000  0.000
      -0.000  0.048 -0.000  0.000  0.000
      -0.000 -0.000  0.048 -0.000  0.000
      -0.000  0.000 -0.000  0.364 -0.000
       0.000  0.000  0.000 -0.000  0.049

     Number of occupied Hubbard levels =   32.6977

     HUBBARD ENERGY =    0.9710  (Ry)

     Magnetic moment per site  (integrated on atomic sphere of radius R)
     atom   1 (R=0.147)  charge=  7.9788  magn= -0.0010
     atom   2 (R=0.147)  charge=  7.9788  magn= -0.0010
     atom   3 (R=0.147)  charge=  7.9789  magn= -0.0012
     atom   4 (R=0.147)  charge=  7.9789  magn= -0.0012
     atom   5 (R=0.082)  charge= 10.1322  magn= -1.9965
     atom   6 (R=0.082)  charge= 10.1327  magn= -2.0186
     atom   7 (R=0.082)  charge= 10.1334  magn= -2.0189
     atom   8 (R=0.082)  charge= 10.1334  magn= -2.0189
     atom   9 (R=0.078)  charge= 10.9315  magn=  2.2991
     atom  10 (R=0.078)  charge= 10.9384  magn=  2.2753
     atom  11 (R=0.078)  charge= 10.9392  magn=  2.2752
     atom  12 (R=0.078)  charge= 10.9392  magn=  2.2752
     atom  13 (R=0.045)  charge=  1.8418  magn= -0.0490
     atom  14 (R=0.045)  charge=  1.0279  magn= -0.0433
     atom  15 (R=0.045)  charge=  1.0283  magn= -0.0444
     atom  16 (R=0.045)  charge=  1.0283  magn= -0.0444
     atom  17 (R=0.045)  charge=  1.0283  magn= -0.0444
     atom  18 (R=0.045)  charge=  1.0283  magn= -0.0444
     atom  19 (R=0.045)  charge=  1.0275  magn= -0.0434
     atom  20 (R=0.045)  charge=  1.0275  magn= -0.0434
     atom  21 (R=0.045)  charge=  1.0279  magn= -0.0434
     atom  22 (R=0.045)  charge=  1.0279  magn= -0.0434
     atom  23 (R=0.045)  charge=  1.0279  magn= -0.0434
     atom  24 (R=0.045)  charge=  1.0279  magn= -0.0434
     atom  25 (R=0.045)  charge=  1.0279  magn= -0.0434
     atom  26 (R=0.045)  charge=  1.0280  magn= -0.0435
     atom  27 (R=0.045)  charge=  1.0275  magn= -0.0434
     atom  28 (R=0.045)  charge=  1.0275  magn= -0.0434
     atom  29 (R=0.045)  charge=  1.0287  magn= -0.0428
     atom  30 (R=0.045)  charge=  1.0287  magn= -0.0428
     atom  31 (R=0.045)  charge=  1.0279  magn= -0.0434
     atom  32 (R=0.045)  charge=  1.0280  magn= -0.0435
     atom  33 (R=0.045)  charge=  1.0287  magn= -0.0428
     atom  34 (R=0.045)  charge=  1.0287  magn= -0.0428
     atom  35 (R=0.045)  charge=  1.0275  magn= -0.0434
     atom  36 (R=0.045)  charge=  1.0275  magn= -0.0434
     atom  37 (R=0.045)  charge=  1.0175  magn=  0.0304
     atom  38 (R=0.045)  charge=  1.8316  magn=  0.0451
     atom  39 (R=0.045)  charge=  1.8341  magn=  0.0474
     atom  40 (R=0.045)  charge=  1.8341  magn=  0.0474
     atom  41 (R=0.045)  charge=  1.8341  magn=  0.0474
     atom  42 (R=0.045)  charge=  1.8341  magn=  0.0474
     atom  43 (R=0.045)  charge=  1.8350  magn=  0.0469
     atom  44 (R=0.045)  charge=  1.8350  magn=  0.0469
     atom  45 (R=0.045)  charge=  1.8359  magn=  0.0469
     atom  46 (R=0.045)  charge=  1.8359  magn=  0.0469
     atom  47 (R=0.045)  charge=  1.8359  magn=  0.0469
     atom  48 (R=0.045)  charge=  1.8359  magn=  0.0469
     atom  49 (R=0.045)  charge=  1.8358  magn=  0.0467
     atom  50 (R=0.045)  charge=  1.8359  magn=  0.0469
     atom  51 (R=0.045)  charge=  1.8350  magn=  0.0469
     atom  52 (R=0.045)  charge=  1.8350  magn=  0.0469
     atom  53 (R=0.045)  charge=  1.8363  magn=  0.0450
     atom  54 (R=0.045)  charge=  1.8363  magn=  0.0450
     atom  55 (R=0.045)  charge=  1.8358  magn=  0.0467
     atom  56 (R=0.045)  charge=  1.8359  magn=  0.0469
     atom  57 (R=0.045)  charge=  1.8363  magn=  0.0450
     atom  58 (R=0.045)  charge=  1.8363  magn=  0.0450
     atom  59 (R=0.045)  charge=  1.8350  magn=  0.0469
     atom  60 (R=0.045)  charge=  1.8350  magn=  0.0469

     total cpu time spent up to now is      378.4 secs

     End of self-consistent calculation

 ------ SPIN UP ------------


          k = 0.2500 0.2500 0.2500 (160125 PWs)   bands (ev):

   -71.5559 -71.4293 -71.4293 -71.4278 -59.7414 -59.7352 -59.7309 -59.7309
   -42.9651 -42.9108 -42.9094 -42.8050 -42.8050 -42.8049 -42.8049 -42.8044
   -42.8044 -42.8034 -42.8032 -42.8032 -33.6168 -33.6166 -33.6165 -33.6163
   -33.6138 -33.6092 -33.6092 -33.6057 -33.6057 -33.6053 -33.6053 -33.5953
   -29.1644 -29.1644 -29.1640 -29.1640 -16.2539 -16.2199 -16.2176 -16.2114
   -16.1456 -16.1310 -16.1291 -16.1129 -16.0888 -16.0845 -16.0818 -16.0809
   -16.0803 -16.0795 -16.0785 -16.0781 -16.0698 -16.0654 -16.0624 -16.0455
   -16.0425 -16.0424 -16.0416 -16.0409 -12.6113 -12.6112 -12.6105 -12.6099
   -12.6098 -12.6097 -12.6094 -12.6094 -12.6085 -12.6077 -12.6077 -12.6071
    -6.7353  -6.5492  -6.4762  -6.4746  -5.9523  -5.9317  -5.9091  -5.5523
    -5.1726  -4.9622  -4.9536  -4.9187  -4.9171  -4.9168  -4.9155  -4.9144
    -4.9078  -4.9074  -4.9061  -4.8995  -4.8994  -4.8759  -4.8724  -4.8711
    -4.0027  -3.6386  -3.6319  -3.5570  -3.3820  -3.3614  -3.3398  -3.3320
    -3.2918  -3.2793  -3.1884  -3.1676  -3.1640  -3.1240  -3.1084  -3.0867
    -3.0772  -3.0763  -3.0435  -2.9706  -2.9522  -2.9414  -2.9231  -2.9035
    -2.8794  -2.8672  -2.8214  -2.8127  -2.7865  -2.7688  -2.7137  -2.7068
    -2.6539  -2.5734  -2.5385  -2.4116  -2.4005  -2.3970  -2.3800  -2.3622
    -2.3527  -2.2896  -2.2162  -2.2154  -2.1528  -2.1368  -2.1357  -1.9819
    -1.9756  -1.9728  -1.9615  -1.9347  -1.9305  -1.9272  -1.8977  -1.8471
    -1.8317  -1.6827  -1.6814  -1.6749  -1.6154  -1.5115  -1.5113  -1.4914
    -1.4435  -1.4395  -1.3572  -1.3524  -1.3513  -1.3063  -1.2919  -1.2692
    -0.9538  -0.9273  -0.9155  -0.9148  -0.8832  -0.8793  -0.7399  -0.7209
    -0.7180  -0.7102  -0.6914  -0.6771   4.3226   4.4669   4.5306   4.5368
     4.5383   4.5560   4.5569   4.5658   4.6856   4.7178   4.7470   4.7609
     4.7863   4.7900   5.0322   5.1238   5.1315   5.2018   5.2314   5.2553
     5.4838   5.6741   5.6998   5.7187   5.7409   5.8327   5.8625   5.8691
     5.8775   5.8905   5.9194   5.9316   5.9458   6.1064   6.1422   6.1701

     occupation numbers 
     1.0000   1.0000   1.0000   1.0000   1.0000   1.0000   1.0000   1.0000
     1.0000   1.0000   1.0000   1.0000   1.0000   1.0000   1.0000   1.0000
     1.0000   1.0000   1.0000   1.0000   1.0000   1.0000   1.0000   1.0000
     1.0000   1.0000   1.0000   1.0000   1.0000   1.0000   1.0000   1.0000
     1.0000   1.0000   1.0000   1.0000   1.0000   1.0000   1.0000   1.0000
     1.0000   1.0000   1.0000   1.0000   1.0000   1.0000   1.0000   1.0000
     1.0000   1.0000   1.0000   1.0000   1.0000   1.0000   1.0000   1.0000
     1.0000   1.0000   1.0000   1.0000   1.0000   1.0000   1.0000   1.0000
     1.0000   1.0000   1.0000   1.0000   1.0000   1.0000   1.0000   1.0000
     1.0000   1.0000   1.0000   1.0000   1.0000   1.0000   1.0000   1.0000
     1.0000   1.0000   1.0000   1.0000   1.0000   1.0000   1.0000   1.0000
     1.0000   1.0000   1.0000   1.0000   1.0000   1.0000   1.0000   1.0000
     1.0000   1.0000   1.0000   1.0000   1.0000   1.0000   1.0000   1.0000
     1.0000   1.0000   1.0000   1.0000   1.0000   1.0000   1.0000   1.0000
     1.0000   1.0000   1.0000   1.0000   1.0000   1.0000   1.0000   1.0000
     1.0000   1.0000   1.0000   1.0000   1.0000   1.0000   1.0000   1.0000
     1.0000   1.0000   1.0000   1.0000   1.0000   1.0000   1.0000   1.0000
     1.0000   1.0000   1.0000   1.0000   1.0000   1.0000   1.0000   1.0000
     1.0000   1.0000   1.0000   1.0000   1.0000   1.0000   1.0000   1.0000
     1.0000   1.0000   1.0000   1.0000   1.0000   1.0000   1.0000   1.0000
     1.0000   1.0000   1.0000   1.0000   1.0000   1.0000   1.0000   1.0000
     1.0000   1.0000   1.0000   1.0000   1.0000   1.0000   1.0000   1.0000
     1.0000   1.0000   1.0000   1.0000   0.0000   0.0000   0.0000   0.0000
     0.0000   0.0000   0.0000   0.0000   0.0000   0.0000   0.0000   0.0000
     0.0000   0.0000   0.0000   0.0000   0.0000   0.0000   0.0000   0.0000
     0.0000   0.0000   0.0000   0.0000   0.0000   0.0000   0.0000   0.0000
     0.0000   0.0000   0.0000   0.0000   0.0000   0.0000   0.0000   0.0000

          k = 0.2500 0.2500-0.2500 (160125 PWs)   bands (ev):

   -71.5559 -71.4293 -71.4293 -71.4278 -59.7414 -59.7352 -59.7309 -59.7309
   -42.9651 -42.9108 -42.9094 -42.8050 -42.8050 -42.8049 -42.8049 -42.8044
   -42.8044 -42.8034 -42.8032 -42.8032 -33.6168 -33.6166 -33.6165 -33.6163
   -33.6138 -33.6092 -33.6092 -33.6057 -33.6057 -33.6053 -33.6053 -33.5953
   -29.1644 -29.1644 -29.1640 -29.1640 -16.2539 -16.2199 -16.2176 -16.2114
   -16.1456 -16.1310 -16.1292 -16.1129 -16.0888 -16.0844 -16.0818 -16.0809
   -16.0803 -16.0795 -16.0785 -16.0781 -16.0698 -16.0654 -16.0624 -16.0455
   -16.0425 -16.0424 -16.0416 -16.0409 -12.6112 -12.6112 -12.6102 -12.6102
   -12.6099 -12.6096 -12.6094 -12.6093 -12.6086 -12.6083 -12.6076 -12.6068
    -6.7352  -6.5492  -6.4761  -6.4746  -5.9522  -5.9317  -5.9091  -5.5524
    -5.1729  -4.9619  -4.9532  -4.9184  -4.9172  -4.9168  -4.9157  -4.9147
    -4.9090  -4.9072  -4.9056  -4.8994  -4.8992  -4.8758  -4.8722  -4.8711
    -4.0022  -3.6377  -3.6316  -3.5644  -3.3701  -3.3651  -3.3454  -3.3294
    -3.2931  -3.2811  -3.1806  -3.1665  -3.1653  -3.1277  -3.1008  -3.0858
    -3.0815  -3.0758  -3.0528  -2.9631  -2.9516  -2.9395  -2.9228  -2.8942
    -2.8826  -2.8676  -2.8349  -2.8024  -2.7845  -2.7745  -2.7146  -2.7082
    -2.6586  -2.5776  -2.5375  -2.4402  -2.4002  -2.3795  -2.3792  -2.3550
    -2.3532  -2.2731  -2.2257  -2.2128  -2.1494  -2.1402  -2.1268  -1.9796
    -1.9753  -1.9715  -1.9623  -1.9372  -1.9369  -1.9304  -1.9019  -1.8497
    -1.8277  -1.6818  -1.6813  -1.6742  -1.6161  -1.5151  -1.5092  -1.4923
    -1.4490  -1.4333  -1.3567  -1.3522  -1.3436  -1.3060  -1.2986  -1.2679
    -0.9541  -0.9276  -0.9156  -0.9155  -0.8922  -0.8691  -0.7395  -0.7211
    -0.7178  -0.7102  -0.6935  -0.6756   4.3229   4.4668   4.5336   4.5356
     4.5373   4.5557   4.5563   4.5652   4.6875   4.7160   4.7465   4.7605
     4.7827   4.7902   5.0500   5.1184   5.1312   5.1852   5.2356   5.2601
     5.4916   5.6878   5.7072   5.7100   5.7282   5.8452   5.8496   5.8615
     5.8746   5.8756   5.9157   5.9375   5.9529   6.1192   6.1418   6.1630

     occupation numbers 
     1.0000   1.0000   1.0000   1.0000   1.0000   1.0000   1.0000   1.0000
     1.0000   1.0000   1.0000   1.0000   1.0000   1.0000   1.0000   1.0000
     1.0000   1.0000   1.0000   1.0000   1.0000   1.0000   1.0000   1.0000
     1.0000   1.0000   1.0000   1.0000   1.0000   1.0000   1.0000   1.0000
     1.0000   1.0000   1.0000   1.0000   1.0000   1.0000   1.0000   1.0000
     1.0000   1.0000   1.0000   1.0000   1.0000   1.0000   1.0000   1.0000
     1.0000   1.0000   1.0000   1.0000   1.0000   1.0000   1.0000   1.0000
     1.0000   1.0000   1.0000   1.0000   1.0000   1.0000   1.0000   1.0000
     1.0000   1.0000   1.0000   1.0000   1.0000   1.0000   1.0000   1.0000
     1.0000   1.0000   1.0000   1.0000   1.0000   1.0000   1.0000   1.0000
     1.0000   1.0000   1.0000   1.0000   1.0000   1.0000   1.0000   1.0000
     1.0000   1.0000   1.0000   1.0000   1.0000   1.0000   1.0000   1.0000
     1.0000   1.0000   1.0000   1.0000   1.0000   1.0000   1.0000   1.0000
     1.0000   1.0000   1.0000   1.0000   1.0000   1.0000   1.0000   1.0000
     1.0000   1.0000   1.0000   1.0000   1.0000   1.0000   1.0000   1.0000
     1.0000   1.0000   1.0000   1.0000   1.0000   1.0000   1.0000   1.0000
     1.0000   1.0000   1.0000   1.0000   1.0000   1.0000   1.0000   1.0000
     1.0000   1.0000   1.0000   1.0000   1.0000   1.0000   1.0000   1.0000
     1.0000   1.0000   1.0000   1.0000   1.0000   1.0000   1.0000   1.0000
     1.0000   1.0000   1.0000   1.0000   1.0000   1.0000   1.0000   1.0000
     1.0000   1.0000   1.0000   1.0000   1.0000   1.0000   1.0000   1.0000
     1.0000   1.0000   1.0000   1.0000   1.0000   1.0000   1.0000   1.0000
     1.0000   1.0000   1.0000   1.0000   0.0000   0.0000   0.0000   0.0000
     0.0000   0.0000   0.0000   0.0000   0.0000   0.0000   0.0000   0.0000
     0.0000   0.0000   0.0000   0.0000   0.0000   0.0000   0.0000   0.0000
     0.0000   0.0000   0.0000   0.0000   0.0000   0.0000   0.0000   0.0000
     0.0000   0.0000   0.0000   0.0000   0.0000   0.0000   0.0000   0.0000

 ------ SPIN DOWN ----------


          k = 0.2500 0.2500 0.2500 (160125 PWs)   bands (ev):

   -68.6301 -68.5346 -68.5346 -68.5328 -62.2541 -62.2440 -62.2440 -62.2216
   -40.0032 -39.9483 -39.9446 -39.8723 -39.8723 -39.8720 -39.8720 -39.8718
   -39.8718 -39.8704 -39.8702 -39.8702 -36.1367 -36.1366 -36.1365 -36.1278
   -36.1278 -36.1266 -36.1266 -36.1265 -36.1265 -36.1121 -36.1114 -36.0864
   -29.1648 -29.1648 -29.1643 -29.1642 -16.2226 -16.1847 -16.1798 -16.1771
   -16.1353 -16.0943 -16.0929 -16.0786 -16.0636 -16.0457 -16.0449 -16.0442
   -16.0405 -16.0403 -16.0389 -16.0380 -16.0352 -16.0257 -16.0241 -16.0114
   -16.0039 -16.0018 -15.9991 -15.9984 -12.6114 -12.6113 -12.6106 -12.6101
   -12.6100 -12.6099 -12.6097 -12.6096 -12.6087 -12.6080 -12.6079 -12.6073
    -6.7273  -6.4855  -6.4277  -6.4234  -6.0545  -6.0262  -6.0025  -5.6041
    -5.1351  -5.0125  -4.9991  -4.9757  -4.9735  -4.9669  -4.9580  -4.9558
    -4.9167  -4.8748  -4.8741  -4.8668  -4.8602  -4.8563  -4.8557  -4.8549
    -3.9919  -3.5959  -3.5873  -3.5028  -3.2678  -3.2607  -3.2518  -3.1930
    -3.0860  -3.0818  -3.0752  -3.0740  -3.0394  -2.9427  -2.9310  -2.9292
    -2.8775  -2.8667  -2.8589  -2.6887  -2.6629  -2.6365  -2.6333  -2.6288
    -2.6283  -2.6136  -2.5971  -2.5448  -2.5358  -2.5348  -2.4589  -2.4492
    -2.4382  -2.4214  -2.4108  -2.3915  -2.3870  -2.3694  -2.3670  -2.3670
    -2.3643  -2.2749  -2.1897  -2.1841  -2.1491  -2.1391  -2.1011  -1.9959
    -1.9572  -1.9297  -1.9248  -1.9224  -1.8959  -1.8950  -1.8585  -1.8164
    -1.8096  -1.6539  -1.6514  -1.6467  -1.5866  -1.5075  -1.5051  -1.4842
    -1.4420  -1.4312  -1.3568  -1.3491  -1.3473  -1.2988  -1.2922  -1.2656
     1.0346   1.0369   1.0528   1.0555   1.0586   1.0600   1.2908   1.2948
     1.3170   1.3181   1.3229   1.3231   3.5025   3.5165   3.5228   3.5433
     3.5625   3.5684   3.5778   3.5921   3.5940   3.5944   3.6907   3.7010
     5.4443   5.5843   5.6548   5.6975   5.7273   5.7500   5.7523   5.7686
     5.7721   5.8292   5.8710   5.8860   5.9049   5.9477   5.9864   5.9934
     6.0065   6.0282   6.0860   6.0867   6.1111   6.1433   6.1868   6.2180

     occupation numbers 
     1.0000   1.0000   1.0000   1.0000   1.0000   1.0000   1.0000   1.0000
     1.0000   1.0000   1.0000   1.0000   1.0000   1.0000   1.0000   1.0000
     1.0000   1.0000   1.0000   1.0000   1.0000   1.0000   1.0000   1.0000
     1.0000   1.0000   1.0000   1.0000   1.0000   1.0000   1.0000   1.0000
     1.0000   1.0000   1.0000   1.0000   1.0000   1.0000   1.0000   1.0000
     1.0000   1.0000   1.0000   1.0000   1.0000   1.0000   1.0000   1.0000
     1.0000   1.0000   1.0000   1.0000   1.0000   1.0000   1.0000   1.0000
     1.0000   1.0000   1.0000   1.0000   1.0000   1.0000   1.0000   1.0000
     1.0000   1.0000   1.0000   1.0000   1.0000   1.0000   1.0000   1.0000
     1.0000   1.0000   1.0000   1.0000   1.0000   1.0000   1.0000   1.0000
     1.0000   1.0000   1.0000   1.0000   1.0000   1.0000   1.0000   1.0000
     1.0000   1.0000   1.0000   1.0000   1.0000   1.0000   1.0000   1.0000
     1.0000   1.0000   1.0000   1.0000   1.0000   1.0000   1.0000   1.0000
     1.0000   1.0000   1.0000   1.0000   1.0000   1.0000   1.0000   1.0000
     1.0000   1.0000   1.0000   1.0000   1.0000   1.0000   1.0000   1.0000
     1.0000   1.0000   1.0000   1.0000   1.0000   1.0000   1.0000   1.0000
     1.0000   1.0000   1.0000   1.0000   1.0000   1.0000   1.0000   1.0000
     1.0000   1.0000   1.0000   1.0000   1.0000   1.0000   1.0000   1.0000
     1.0000   1.0000   1.0000   1.0000   1.0000   1.0000   1.0000   1.0000
     1.0000   1.0000   1.0000   1.0000   1.0000   1.0000   1.0000   1.0000
     1.0000   1.0000   1.0000   1.0000   1.0000   1.0000   1.0000   1.0000
     1.0000   1.0000   1.0000   1.0000   1.0000   1.0000   1.0000   1.0000
     1.0000   1.0000   1.0000   1.0000   0.0000   0.0000   0.0000   0.0000
     0.0000   0.0000   0.0000   0.0000   0.0000   0.0000   0.0000   0.0000
     0.0000   0.0000   0.0000   0.0000   0.0000   0.0000   0.0000   0.0000
     0.0000   0.0000   0.0000   0.0000   0.0000   0.0000   0.0000   0.0000
     0.0000   0.0000   0.0000   0.0000   0.0000   0.0000   0.0000   0.0000

          k = 0.2500 0.2500-0.2500 (160125 PWs)   bands (ev):

   -68.6301 -68.5346 -68.5346 -68.5328 -62.2541 -62.2440 -62.2440 -62.2216
   -40.0032 -39.9483 -39.9446 -39.8723 -39.8723 -39.8720 -39.8720 -39.8718
   -39.8718 -39.8704 -39.8702 -39.8702 -36.1367 -36.1366 -36.1365 -36.1278
   -36.1278 -36.1266 -36.1266 -36.1265 -36.1265 -36.1121 -36.1114 -36.0864
   -29.1648 -29.1648 -29.1643 -29.1642 -16.2226 -16.1848 -16.1798 -16.1771
   -16.1352 -16.0942 -16.0930 -16.0786 -16.0636 -16.0457 -16.0449 -16.0443
   -16.0405 -16.0403 -16.0390 -16.0380 -16.0351 -16.0257 -16.0241 -16.0114
   -16.0039 -16.0018 -15.9991 -15.9984 -12.6113 -12.6113 -12.6104 -12.6104
   -12.6101 -12.6098 -12.6096 -12.6095 -12.6088 -12.6085 -12.6079 -12.6070
    -6.7273  -6.4855  -6.4276  -6.4234  -6.0545  -6.0262  -6.0025  -5.6042
    -5.1355  -5.0123  -4.9988  -4.9757  -4.9735  -4.9669  -4.9579  -4.9560
    -4.9164  -4.8753  -4.8740  -4.8674  -4.8597  -4.8562  -4.8557  -4.8548
    -3.9914  -3.5957  -3.5859  -3.5114  -3.2693  -3.2635  -3.2312  -3.1946
    -3.0828  -3.0823  -3.0741  -3.0726  -3.0580  -2.9473  -2.9277  -2.9218
    -2.8785  -2.8587  -2.8568  -2.7022  -2.6614  -2.6387  -2.6321  -2.6280
    -2.6268  -2.6145  -2.6019  -2.5551  -2.5323  -2.5319  -2.4506  -2.4491
    -2.4405  -2.4271  -2.3989  -2.3977  -2.3848  -2.3736  -2.3675  -2.3655
    -2.3649  -2.2704  -2.1833  -2.1817  -2.1468  -2.1415  -2.1021  -1.9952
    -1.9580  -1.9301  -1.9239  -1.9221  -1.9002  -1.8953  -1.8657  -1.8188
    -1.8038  -1.6563  -1.6502  -1.6452  -1.5856  -1.5079  -1.5070  -1.4821
    -1.4435  -1.4301  -1.3565  -1.3490  -1.3454  -1.2985  -1.2934  -1.2663
     1.0312   1.0406   1.0527   1.0556   1.0585   1.0600   1.2882   1.2971
     1.3170   1.3181   1.3229   1.3230   3.5026   3.5166   3.5225   3.5431
     3.5625   3.5682   3.5782   3.5924   3.5939   3.5944   3.6904   3.7012
     5.4358   5.6063   5.6475   5.6998   5.7275   5.7468   5.7490   5.7657
     5.7845   5.8564   5.8777   5.8890   5.8988   5.9405   5.9760   5.9929
     6.0046   6.0260   6.0429   6.0873   6.0959   6.1765   6.1820   6.1972

     occupation numbers 
     1.0000   1.0000   1.0000   1.0000   1.0000   1.0000   1.0000   1.0000
     1.0000   1.0000   1.0000   1.0000   1.0000   1.0000   1.0000   1.0000
     1.0000   1.0000   1.0000   1.0000   1.0000   1.0000   1.0000   1.0000
     1.0000   1.0000   1.0000   1.0000   1.0000   1.0000   1.0000   1.0000
     1.0000   1.0000   1.0000   1.0000   1.0000   1.0000   1.0000   1.0000
     1.0000   1.0000   1.0000   1.0000   1.0000   1.0000   1.0000   1.0000
     1.0000   1.0000   1.0000   1.0000   1.0000   1.0000   1.0000   1.0000
     1.0000   1.0000   1.0000   1.0000   1.0000   1.0000   1.0000   1.0000
     1.0000   1.0000   1.0000   1.0000   1.0000   1.0000   1.0000   1.0000
     1.0000   1.0000   1.0000   1.0000   1.0000   1.0000   1.0000   1.0000
     1.0000   1.0000   1.0000   1.0000   1.0000   1.0000   1.0000   1.0000
     1.0000   1.0000   1.0000   1.0000   1.0000   1.0000   1.0000   1.0000
     1.0000   1.0000   1.0000   1.0000   1.0000   1.0000   1.0000   1.0000
     1.0000   1.0000   1.0000   1.0000   1.0000   1.0000   1.0000   1.0000
     1.0000   1.0000   1.0000   1.0000   1.0000   1.0000   1.0000   1.0000
     1.0000   1.0000   1.0000   1.0000   1.0000   1.0000   1.0000   1.0000
     1.0000   1.0000   1.0000   1.0000   1.0000   1.0000   1.0000   1.0000
     1.0000   1.0000   1.0000   1.0000   1.0000   1.0000   1.0000   1.0000
     1.0000   1.0000   1.0000   1.0000   1.0000   1.0000   1.0000   1.0000
     1.0000   1.0000   1.0000   1.0000   1.0000   1.0000   1.0000   1.0000
     1.0000   1.0000   1.0000   1.0000   1.0000   1.0000   1.0000   1.0000
     1.0000   1.0000   1.0000   1.0000   1.0000   1.0000   1.0000   1.0000
     1.0000   1.0000   1.0000   1.0000   0.0000   0.0000   0.0000   0.0000
     0.0000   0.0000   0.0000   0.0000   0.0000   0.0000   0.0000   0.0000
     0.0000   0.0000   0.0000   0.0000   0.0000   0.0000   0.0000   0.0000
     0.0000   0.0000   0.0000   0.0000   0.0000   0.0000   0.0000   0.0000
     0.0000   0.0000   0.0000   0.0000   0.0000   0.0000   0.0000   0.0000

     the Fermi energy is     1.9524 ev

!    total energy              =   -2329.13100050 Ry
     estimated scf accuracy    <       0.00000115 Ry
     smearing contrib. (-TS)   =      -0.00000000 Ry
     internal energy E=F+TS    =   -2329.13100050 Ry

     The total energy is F=E-TS. E is the sum of the following terms:
     one-electron contribution =   -2050.84371440 Ry
     hartree contribution      =    1108.17339412 Ry
     xc contribution           =    -492.99955228 Ry
     ewald contribution        =    -894.43209110 Ry
     Hubbard energy            =       0.97096316 Ry

     total magnetization       =    -0.00 Bohr mag/cell
     absolute magnetization    =    28.24 Bohr mag/cell

     convergence has been achieved in  17 iterations

     Writing all to output data dir /tmp/scratch/KVCr_FLIP_lcm/KVCr_FLIP_lcm.save/ :
     XML data file, charge density, pseudopotentials, collected wavefunctions

     init_run     :      8.79s CPU     11.52s WALL (       1 calls)
     electrons    :    269.57s CPU    366.41s WALL (       1 calls)

     Called by init_run:
     wfcinit      :      6.86s CPU      9.22s WALL (       1 calls)
     wfcinit:atom :      0.05s CPU      0.07s WALL (       1 calls)
     wfcinit:wfcr :      5.85s CPU      8.14s WALL (       1 calls)
     potinit      :      0.76s CPU      1.01s WALL (       1 calls)
     hinit0       :      0.60s CPU      0.65s WALL (       1 calls)

     Called by electrons:
     c_bands      :    207.87s CPU    280.22s WALL (      17 calls)
     sum_band     :     40.92s CPU     59.13s WALL (      17 calls)
     v_of_rho     :      6.38s CPU     10.16s WALL (      18 calls)
     v_h          :      0.23s CPU      0.42s WALL (      18 calls)
     v_xc         :      6.15s CPU      9.72s WALL (      18 calls)
     mix_rho      :     12.23s CPU     14.72s WALL (      17 calls)

     Called by c_bands:
     init_us_2    :      1.52s CPU      1.58s WALL (      36 calls)
     cegterg      :    192.08s CPU    263.92s WALL (      17 calls)

     Called by sum_band:
     sum_band:wei :      0.03s CPU      0.04s WALL (      17 calls)
     sum_band:loo :     38.19s CPU     53.54s WALL (      17 calls)
     sum_band:buf :      0.00s CPU      0.00s WALL (      17 calls)
     sum_band:ini :      0.71s CPU      0.75s WALL (      17 calls)

     Called by *egterg:
     cdiaghg      :      5.42s CPU      6.51s WALL (     120 calls)
     cegterg:over :      9.09s CPU      9.48s WALL (     103 calls)
     cegterg:upda :      5.77s CPU      6.02s WALL (     103 calls)
     cegterg:last :      7.45s CPU      7.74s WALL (      34 calls)
     cdiaghg:chol :      0.51s CPU      0.53s WALL (     120 calls)
     cdiaghg:inve :      0.08s CPU      0.09s WALL (     120 calls)
     cdiaghg:para :      1.87s CPU      2.50s WALL (     240 calls)
     h_psi        :    166.01s CPU    237.93s WALL (     121 calls)
     g_psi        :      0.30s CPU      0.31s WALL (     103 calls)

     Called by h_psi:
     h_psi:calbec :     10.97s CPU     11.56s WALL (     121 calls)
     vloc_psi     :    143.18s CPU    213.87s WALL (     121 calls)
                                        0.00s GPU  (     121 calls)
     add_vuspsi   :      9.18s CPU      9.50s WALL (     121 calls)
     vhpsi        :      2.23s CPU      2.46s WALL (     121 calls)

     General routines
     calbec       :     12.96s CPU     13.75s WALL (     260 calls)
     fft          :      4.69s CPU      8.92s WALL (     340 calls)
     ffts         :      6.37s CPU      9.50s WALL (    1162 calls)
     fftw         :    163.45s CPU    249.11s WALL (   22396 calls)

     Parallel routines

     Hubbard U routines
     new_ns       :      0.43s CPU      0.44s WALL (      17 calls)
     vhpsi        :      2.23s CPU      2.46s WALL (     121 calls)

     PWSCF        :   4m39.50s CPU   6m19.70s WALL


   This run was terminated on:  12:49: 9   3Oct2026            

=------------------------------------------------------------------------------=
   JOB DONE.
=------------------------------------------------------------------------------=
Note: The following floating-point exceptions are signalling: IEEE_DENORMAL
Note: The following floating-point exceptions are signalling: IEEE_UNDERFLOW_FLAG IEEE_DENORMAL
Note: The following floating-point exceptions are signalling: IEEE_DENORMAL
Note: The following floating-point exceptions are signalling: IEEE_UNDERFLOW_FLAG IEEE_DENORMAL
Note: The following floating-point exceptions are signalling: IEEE_UNDERFLOW_FLAG IEEE_DENORMAL
Note: The following floating-point exceptions are signalling: IEEE_DENORMAL
Note: The following floating-point exceptions are signalling: IEEE_DENORMAL
Note: The following floating-point exceptions are signalling: IEEE_UNDERFLOW_FLAG IEEE_DENORMAL
Note: The following floating-point exceptions are signalling: IEEE_DENORMAL
Note: The following floating-point exceptions are signalling: IEEE_DENORMAL
Note: The following floating-point exceptions are signalling: IEEE_DENORMAL
Note: The following floating-point exceptions are signalling: IEEE_DENORMAL
Note: The following floating-point exceptions are signalling: IEEE_UNDERFLOW_FLAG IEEE_DENORMAL
Note: The following floating-point exceptions are signalling: IEEE_UNDERFLOW_FLAG IEEE_DENORMAL
Note: The following floating-point exceptions are signalling: IEEE_DENORMAL
Note: The following floating-point exceptions are signalling: IEEE_DENORMAL
