
     Program PWSCF v.7.5 starts on  3Oct2026 at 18: 1:18 

     This program is part of the open-source Quantum ESPRESSO suite
     for quantum simulation of materials; please cite
         "P. Giannozzi et al., J. Phys.:Condens. Matter 21 395502 (2009);
         "P. Giannozzi et al., J. Phys.:Condens. Matter 29 465901 (2017);
         "P. Giannozzi et al., J. Chem. Phys. 152 154105 (2020);
          URL http://www.quantum-espresso.org", 
     in publications or presentations arising from this work. More details at
     http://www.quantum-espresso.org/quote

     Parallel version (MPI & OpenMP), running on      64 processor cores
     Number of MPI processes:                64
     Threads/MPI process:                     1

     MPI processes distributed on     1 nodes
     695159 MiB available memory on the printing compute node when the environment starts

     Reading input from KVCr_VAC_w1_lcm.in

     Current dimensions of program PWSCF are:
     Max number of different atomic species (ntypx) = 10
     Max number of k-points (npk) =  40000
     Max angular momentum in pseudopotentials (lmaxx) =  4

     K-points division:     npool     =       8
     R & G space division:  proc/nbgrp/npool/nimage =       8
     Subspace diagonalization in iterative solution of the eigenvalue problem:
     one sub-group per band group will be used
     ELPA distributed-memory algorithm (size of sub-group:  2*  2 procs)


     Parallelization info
     --------------------
     sticks:   dense  smooth     PW     G-vecs:    dense   smooth      PW
     Min        1783    1783    457               160144   160144   20795
     Max        1785    1785    458               160147   160147   20800
     Sum       14273   14273   3657              1281167  1281167  166365

     Using Slab Decomposition



     bravais-lattice index     =            0
     lattice parameter (alat)  =      20.1821  a.u.
     unit-cell volume          =    8220.5409 (a.u.)^3
     number of atoms/cell      =           65
     number of atomic types    =            7
     number of electrons       =       321.00
     number of Kohn-Sham states=          193
     kinetic-energy cutoff     =     110.0000  Ry
     charge density cutoff     =     440.0000  Ry
     scf convergence threshold =      6.5E-06
     mixing beta               =       0.3000
     number of iterations used =            8  local-TF  mixing
     Exchange-correlation= PBE
                           (   1   4   3   4   0   0   0)
     Hubbard projectors: ortho-atomic
     Hubbard parameters of DFT+U (Dudarev formulation) in eV:
     U(V-3d) =  3.0000
     U(Cr-3d) =  3.0000

     Internal variables: lda_plus_u =T, lda_plus_u_kind = 0

     Internal variables: orbital_resolved =F, hub_pot_fix =F, apply_U = F

     celldm(1)=  20.182121  celldm(2)=   0.000000  celldm(3)=   0.000000
     celldm(4)=   0.000000  celldm(5)=   0.000000  celldm(6)=   0.000000

     crystal axes: (cart. coord. in units of alat)
               a(1) = (   1.000000   0.000000   0.000000 )  
               a(2) = (   0.000000   1.000000   0.000000 )  
               a(3) = (   0.000000   0.000000   1.000000 )  

     reciprocal axes: (cart. coord. in units 2 pi/alat)
               b(1) = (  1.000000  0.000000  0.000000 )  
               b(2) = (  0.000000  1.000000  0.000000 )  
               b(3) = (  0.000000  0.000000  1.000000 )  


     PseudoPot. # 1 for K  read from file:
     /data/pseudo/dojo_sr/K.upf
     MD5 check sum: 0aa97b2c023445f040759afc9fdb6c80
     Pseudo is Norm-conserving + core correction, Zval =  9.0
     Generated using ONCVPSP code by D. R. Hamann
     Using radial grid of 2222 points,  6 beta functions with: 
                l(1) =   0
                l(2) =   0
                l(3) =   1
                l(4) =   1
                l(5) =   2
                l(6) =   2

     PseudoPot. # 2 for V  read from file:
     /data/pseudo/dojo_sr/V.upf
     MD5 check sum: 40fb93c06b4f9d8c28c5ccd071294a04
     Pseudo is Norm-conserving + core correction, Zval = 13.0
     Generated using ONCVPSP code by D. R. Hamann
     Using radial grid of 1536 points,  6 beta functions with: 
                l(1) =   0
                l(2) =   0
                l(3) =   1
                l(4) =   1
                l(5) =   2
                l(6) =   2

     PseudoPot. # 3 for Cr read from file:
     /data/pseudo/dojo_sr/Cr.upf
     MD5 check sum: 41892f80c335c8b1e803fd21ab4016b0
     Pseudo is Norm-conserving + core correction, Zval = 14.0
     Generated using ONCVPSP code by D. R. Hamann
     Using radial grid of 1638 points,  6 beta functions with: 
                l(1) =   0
                l(2) =   0
                l(3) =   1
                l(4) =   1
                l(5) =   2
                l(6) =   2

     PseudoPot. # 4 for C  read from file:
     /data/pseudo/dojo_sr/C.upf
     MD5 check sum: 34a24e64c0a39f27c6c36b90a16ac686
     Pseudo is Norm-conserving + core correction, Zval =  4.0
     Generated using ONCVPSP code by D. R. Hamann
     Using radial grid of 1248 points,  4 beta functions with: 
                l(1) =   0
                l(2) =   0
                l(3) =   1
                l(4) =   1

     PseudoPot. # 5 for N  read from file:
     /data/pseudo/dojo_sr/N.upf
     MD5 check sum: d34365f73bb0e2ee98afc20ec3e87676
     Pseudo is Norm-conserving + core correction, Zval =  5.0
     Generated using ONCVPSP code by D. R. Hamann
     Using radial grid of 1058 points,  4 beta functions with: 
                l(1) =   0
                l(2) =   0
                l(3) =   1
                l(4) =   1

     PseudoPot. # 6 for O  read from file:
     /data/pseudo/dojo_sr/O.upf
     MD5 check sum: 3e3f909f7470e8921608ab6b1f57bbae
     Pseudo is Norm-conserving + core correction, Zval =  6.0
     Generated using ONCVPSP code by D. R. Hamann
     Using radial grid of  936 points,  5 beta functions with: 
                l(1) =   0
                l(2) =   0
                l(3) =   1
                l(4) =   1
                l(5) =   2

     PseudoPot. # 7 for H  read from file:
     /data/pseudo/dojo_sr/H.upf
     MD5 check sum: e96aa7e3e4a958db16958554ea960e2a
     Pseudo is Norm-conserving, Zval =  1.0
     Generated using ONCVPSP code by D. R. Hamann
     Using radial grid of 1166 points,  3 beta functions with: 
                l(1) =   0
                l(2) =   0
                l(3) =   1

     atomic species   valence    mass     pseudopotential
     K                 9.00    39.09830     K ( 1.00)
     V                13.00    50.94150     V ( 1.00)
     Cr               14.00    51.99610     Cr( 1.00)
     C                 4.00    12.01100     C ( 1.00)
     N                 5.00    14.00700     N ( 1.00)
     O                 6.00    15.99900     O ( 1.00)
     H                 1.00     1.00800     H ( 1.00)

     Starting magnetic structure 
     atomic species   magnetization
     K               0.000
     V              -0.231
     Cr              0.214
     C               0.000
     N               0.000
     O               0.000
     H               0.000

     No symmetry found


                                    s                        frac. trans.

      isym =  1     identity                                     

 cryst.   s( 1) = (     1          0          0      )
                  (     0          1          0      )
                  (     0          0          1      )

 cart.    s( 1) = (  1.0000000  0.0000000  0.0000000 )
                  (  0.0000000  1.0000000  0.0000000 )
                  (  0.0000000  0.0000000  1.0000000 )


   Cartesian axes

     site n.     atom                  positions (alat units)
         1        K      tau(   1) = (   0.6940988   0.3062250   0.3059910  )
         2        V      tau(   2) = (   0.5029435   0.0020794   0.0172811  )
         3        V      tau(   3) = (   0.4968833   0.5030815   0.5030652  )
         4        V      tau(   4) = (   0.9980902   0.0170490   0.4929047  )
         5        V      tau(   5) = (   0.9833993   0.4949894   0.0020442  )
         6        Cr     tau(   6) = (   0.9985600   0.5144803   0.5016439  )
         7        Cr     tau(   7) = (   0.4982303   0.0014554   0.5144174  )
         8        Cr     tau(   8) = (   0.4854318   0.5017059   0.0014757  )
         9        C      tau(   9) = (   0.4912706   0.3080870   0.0064681  )
        10        C      tau(  10) = (   0.4897351   0.6953129   0.0055195  )
        11        C      tau(  11) = (   0.5036269   0.0024603   0.3220763  )
        12        C      tau(  12) = (   0.4964021   0.0014538   0.7086328  )
        13        C      tau(  13) = (   0.8054800   0.5112267   0.5019871  )
        14        C      tau(  14) = (   0.1907843   0.5098959   0.5009909  )
        15        C      tau(  15) = (   0.4989988   0.8092548   0.5098918  )
        16        C      tau(  16) = (   0.4980108   0.1944878   0.5112195  )
        17        C      tau(  17) = (   0.4900969   0.5009957   0.8092149  )
        18        C      tau(  18) = (   0.4887621   0.5019849   0.1945215  )
        19        C      tau(  19) = (   0.3047227   0.0055121   0.5103773  )
        20        C      tau(  20) = (   0.6918618   0.0064540   0.5088348  )
        21        C      tau(  21) = (   0.9975449   0.3220500   0.4964633  )
        22        C      tau(  22) = (   0.9985474   0.7086905   0.5037038  )
        23        C      tau(  23) = (   0.2914729   0.5036575   0.0014599  )
        24        C      tau(  24) = (   0.6778597   0.4964111   0.0024820  )
        25        C      tau(  25) = (   0.9935232   0.5087765   0.3081904  )
        26        C      tau(  26) = (   0.9944908   0.5103424   0.6951708  )
        27        N      tau(  27) = (   0.5014106   0.1992191   0.0133736  )
        28        N      tau(  28) = (   0.4958828   0.8044972   0.0114417  )
        29        N      tau(  29) = (   0.5099385   0.0038169   0.2128886  )
        30        N      tau(  30) = (   0.4968128   0.0021372   0.8181769  )
        31        N      tau(  31) = (   0.6962854   0.5040250   0.5001827  )
        32        N      tau(  32) = (   0.2998661   0.5049264   0.5013834  )
        33        N      tau(  33) = (   0.4986438   0.7001682   0.5049422  )
        34        N      tau(  34) = (   0.4998239   0.3036835   0.5040611  )
        35        N      tau(  35) = (   0.4950897   0.5013671   0.7001323  )
        36        N      tau(  36) = (   0.4959885   0.5001675   0.3037096  )
        37        N      tau(  37) = (   0.1955173   0.0114604   0.5048364  )
        38        N      tau(  38) = (   0.8007740   0.0133803   0.4990525  )
        39        N      tau(  39) = (   0.9961598   0.2128493   0.4903149  )
        40        N      tau(  40) = (   0.9978381   0.8182351   0.5041665  )
        41        N      tau(  41) = (   0.1819948   0.5036451   0.0021068  )
        42        N      tau(  42) = (   0.7870677   0.4901896   0.0037977  )
        43        N      tau(  43) = (   0.9865657   0.4988057   0.1993437  )
        44        N      tau(  44) = (   0.9884901   0.5044160   0.8043375  )
        45        O      tau(  45) = (   0.7163914   0.9957081   0.0002852  )
        46        H      tau(  46) = (   0.7332223   0.0565912   0.9348097  )
        47        H      tau(  47) = (   0.7286465   0.9130477   0.9639341  )
        48        O      tau(  48) = (   0.2985837   0.9984266   0.0106210  )
        49        H      tau(  49) = (   0.2802274   0.0677048   0.9548687  )
        50        H      tau(  50) = (   0.2893566   0.9235461   0.9599422  )
        51        O      tau(  51) = (   0.0019304   0.0108374   0.7078767  )
        52        H      tau(  52) = (   0.0767587   0.9586556   0.7079714  )
        53        H      tau(  53) = (   0.9320098   0.9532609   0.7172016  )
        54        O      tau(  54) = (   0.0039971   0.9994897   0.2901156  )
        55        H      tau(  55) = (   0.0853714   0.9656417   0.2677858  )
        56        H      tau(  56) = (   0.9446994   0.9361560   0.2641874  )
        57        O      tau(  57) = (   0.9889048   0.7011570   0.9984074  )
        58        H      tau(  58) = (   0.0452142   0.7205944   0.0671112  )
        59        H      tau(  59) = (   0.0403680   0.7104617   0.9241371  )
        60        O      tau(  60) = (   0.0002809   0.2903185   0.9956959  )
        61        H      tau(  61) = (   0.0628510   0.2628665   0.0556220  )
        62        H      tau(  62) = (   0.0350141   0.2692749   0.9146774  )
        63        O      tau(  63) = (   0.0012355   0.9983664   0.9992648  )
        64        H      tau(  64) = (   0.9110847   0.9993830   0.0128177  )
        65        H      tau(  65) = (   0.0104602   0.0052594   0.9095547  )

   Crystallographic axes

     site n.     atom                  positions (cryst. coord.)
         1        K      tau(   1) = (  0.6940988  0.3062250  0.3059910  )
         2        V      tau(   2) = (  0.5029435  0.0020794  0.0172811  )
         3        V      tau(   3) = (  0.4968833  0.5030815  0.5030652  )
         4        V      tau(   4) = (  0.9980902  0.0170490  0.4929047  )
         5        V      tau(   5) = (  0.9833993  0.4949894  0.0020442  )
         6        Cr     tau(   6) = (  0.9985600  0.5144803  0.5016439  )
         7        Cr     tau(   7) = (  0.4982303  0.0014554  0.5144174  )
         8        Cr     tau(   8) = (  0.4854318  0.5017059  0.0014757  )
         9        C      tau(   9) = (  0.4912706  0.3080870  0.0064681  )
        10        C      tau(  10) = (  0.4897351  0.6953129  0.0055195  )
        11        C      tau(  11) = (  0.5036269  0.0024603  0.3220763  )
        12        C      tau(  12) = (  0.4964021  0.0014538  0.7086328  )
        13        C      tau(  13) = (  0.8054800  0.5112267  0.5019871  )
        14        C      tau(  14) = (  0.1907843  0.5098959  0.5009909  )
        15        C      tau(  15) = (  0.4989988  0.8092548  0.5098918  )
        16        C      tau(  16) = (  0.4980108  0.1944878  0.5112195  )
        17        C      tau(  17) = (  0.4900969  0.5009957  0.8092149  )
        18        C      tau(  18) = (  0.4887621  0.5019849  0.1945215  )
        19        C      tau(  19) = (  0.3047227  0.0055121  0.5103773  )
        20        C      tau(  20) = (  0.6918618  0.0064540  0.5088348  )
        21        C      tau(  21) = (  0.9975449  0.3220500  0.4964633  )
        22        C      tau(  22) = (  0.9985474  0.7086905  0.5037038  )
        23        C      tau(  23) = (  0.2914729  0.5036575  0.0014599  )
        24        C      tau(  24) = (  0.6778597  0.4964111  0.0024820  )
        25        C      tau(  25) = (  0.9935232  0.5087765  0.3081904  )
        26        C      tau(  26) = (  0.9944908  0.5103424  0.6951708  )
        27        N      tau(  27) = (  0.5014106  0.1992191  0.0133736  )
        28        N      tau(  28) = (  0.4958828  0.8044972  0.0114417  )
        29        N      tau(  29) = (  0.5099385  0.0038169  0.2128886  )
        30        N      tau(  30) = (  0.4968128  0.0021372  0.8181769  )
        31        N      tau(  31) = (  0.6962854  0.5040250  0.5001827  )
        32        N      tau(  32) = (  0.2998661  0.5049264  0.5013834  )
        33        N      tau(  33) = (  0.4986438  0.7001682  0.5049422  )
        34        N      tau(  34) = (  0.4998239  0.3036835  0.5040611  )
        35        N      tau(  35) = (  0.4950897  0.5013671  0.7001323  )
        36        N      tau(  36) = (  0.4959885  0.5001675  0.3037096  )
        37        N      tau(  37) = (  0.1955173  0.0114604  0.5048364  )
        38        N      tau(  38) = (  0.8007740  0.0133803  0.4990525  )
        39        N      tau(  39) = (  0.9961598  0.2128493  0.4903149  )
        40        N      tau(  40) = (  0.9978381  0.8182351  0.5041665  )
        41        N      tau(  41) = (  0.1819948  0.5036451  0.0021068  )
        42        N      tau(  42) = (  0.7870677  0.4901896  0.0037977  )
        43        N      tau(  43) = (  0.9865657  0.4988057  0.1993437  )
        44        N      tau(  44) = (  0.9884901  0.5044160  0.8043375  )
        45        O      tau(  45) = (  0.7163914  0.9957081  0.0002852  )
        46        H      tau(  46) = (  0.7332223  0.0565912  0.9348097  )
        47        H      tau(  47) = (  0.7286465  0.9130477  0.9639341  )
        48        O      tau(  48) = (  0.2985837  0.9984266  0.0106210  )
        49        H      tau(  49) = (  0.2802274  0.0677048  0.9548687  )
        50        H      tau(  50) = (  0.2893566  0.9235461  0.9599422  )
        51        O      tau(  51) = (  0.0019304  0.0108374  0.7078767  )
        52        H      tau(  52) = (  0.0767587  0.9586556  0.7079714  )
        53        H      tau(  53) = (  0.9320098  0.9532609  0.7172016  )
        54        O      tau(  54) = (  0.0039971  0.9994897  0.2901156  )
        55        H      tau(  55) = (  0.0853714  0.9656417  0.2677858  )
        56        H      tau(  56) = (  0.9446994  0.9361560  0.2641874  )
        57        O      tau(  57) = (  0.9889048  0.7011570  0.9984074  )
        58        H      tau(  58) = (  0.0452142  0.7205944  0.0671112  )
        59        H      tau(  59) = (  0.0403680  0.7104617  0.9241371  )
        60        O      tau(  60) = (  0.0002809  0.2903185  0.9956959  )
        61        H      tau(  61) = (  0.0628510  0.2628665  0.0556220  )
        62        H      tau(  62) = (  0.0350141  0.2692749  0.9146774  )
        63        O      tau(  63) = (  0.0012355  0.9983664  0.9992648  )
        64        H      tau(  64) = (  0.9110847  0.9993830  0.0128177  )
        65        H      tau(  65) = (  0.0104602  0.0052594  0.9095547  )

     number of k points=     4  Gaussian smearing, width (Ry)=  0.0050
                       cart. coord. in units 2pi/alat
        k(    1) = (   0.2500000   0.2500000   0.2500000), wk =   0.2500000
        k(    2) = (  -0.2500000  -0.2500000   0.2500000), wk =   0.2500000
        k(    3) = (  -0.2500000   0.2500000  -0.2500000), wk =   0.2500000
        k(    4) = (   0.2500000  -0.2500000  -0.2500000), wk =   0.2500000

                       cryst. coord.
        k(    1) = (   0.2500000   0.2500000   0.2500000), wk =   0.2500000
        k(    2) = (  -0.2500000  -0.2500000   0.2500000), wk =   0.2500000
        k(    3) = (  -0.2500000   0.2500000  -0.2500000), wk =   0.2500000
        k(    4) = (   0.2500000  -0.2500000  -0.2500000), wk =   0.2500000

     Dense  grid:  1281167 G-vectors     FFT dimensions: ( 135, 135, 135)

     Dynamical RAM for                 wfc:      58.95 MB

     Dynamical RAM for     wfc (w. buffer):      58.95 MB

     Dynamical RAM for             U proj.:      10.69 MB

     Dynamical RAM for  U proj. (w. buff.):      10.69 MB

     Dynamical RAM for           str. fact:      17.11 MB

     Dynamical RAM for           local pot:       0.00 MB

     Dynamical RAM for          nlocal pot:     181.14 MB

     Dynamical RAM for                qrad:      11.78 MB

     Dynamical RAM for          rho,v,vnew:      28.84 MB

     Dynamical RAM for               rhoin:       9.61 MB

     Dynamical RAM for            rho*nmix:      78.20 MB

     Dynamical RAM for           G-vectors:      10.39 MB

     Dynamical RAM for          h,s,v(r/c):       1.71 MB

     Dynamical RAM for          <psi|beta>:       1.75 MB

     Dynamical RAM for                 psi:     117.91 MB

     Dynamical RAM for                hpsi:     117.91 MB

     Dynamical RAM for      wfcinit/wfcrot:     118.76 MB

     Estimated static dynamical RAM per process >     362.25 MB

     Estimated max dynamical RAM per process >     679.72 MB

     Estimated total dynamical RAM >      38.21 GB
     Generating pointlists ...
     new r_m :   0.1143 (alat units)  2.3077 (a.u.) for type    1
     new r_m :   0.0807 (alat units)  1.6296 (a.u.) for type    2
     new r_m :   0.0793 (alat units)  1.6006 (a.u.) for type    3
     new r_m :   0.0450 (alat units)  0.9091 (a.u.) for type    4
     new r_m :   0.0450 (alat units)  0.9091 (a.u.) for type    5
     new r_m :   0.0373 (alat units)  0.7530 (a.u.) for type    6
     new r_m :   0.0373 (alat units)  0.7530 (a.u.) for type    7

     Initial potential from superposition of free atoms

     starting charge     320.9712, renormalised to     321.0000

     HUBBARD ENERGY =    0.5292  (Ry)

     STARTING HUBBARD OCCUPATIONS:

     =================== HUBBARD OCCUPATIONS ===================
     ------------------------ ATOM    2 ------------------------
     Tr[ns(  2)] (up, down, total) =   0.00000  3.00000  3.00000
     Atomic magnetic moment for atom   2 =  -3.00000
     SPIN  1
     eigenvalues:
       0.000  0.000  0.000  0.000  0.000
     eigenvectors (columns):
       1.000  0.000  0.000  0.000  0.000
       0.000  1.000  0.000  0.000  0.000
       0.000  0.000  1.000  0.000  0.000
       0.000  0.000  0.000  1.000  0.000
       0.000  0.000  0.000  0.000  1.000
     occupation matrix ns (before diag.):
       0.000  0.000  0.000  0.000  0.000
       0.000  0.000  0.000  0.000  0.000
       0.000  0.000  0.000  0.000  0.000
       0.000  0.000  0.000  0.000  0.000
       0.000  0.000  0.000  0.000  0.000
     SPIN  2
     eigenvalues:
       0.600  0.600  0.600  0.600  0.600
     eigenvectors (columns):
       1.000  0.000  0.000  0.000  0.000
       0.000  1.000  0.000  0.000  0.000
       0.000  0.000  1.000  0.000  0.000
       0.000  0.000  0.000  1.000  0.000
       0.000  0.000  0.000  0.000  1.000
     occupation matrix ns (before diag.):
       0.600  0.000  0.000  0.000  0.000
       0.000  0.600  0.000  0.000  0.000
       0.000  0.000  0.600  0.000  0.000
       0.000  0.000  0.000  0.600  0.000
       0.000  0.000  0.000  0.000  0.600
     ------------------------ ATOM    3 ------------------------
     Tr[ns(  3)] (up, down, total) =   0.00000  3.00000  3.00000
     Atomic magnetic moment for atom   3 =  -3.00000
     SPIN  1
     eigenvalues:
       0.000  0.000  0.000  0.000  0.000
     eigenvectors (columns):
       1.000  0.000  0.000  0.000  0.000
       0.000  1.000  0.000  0.000  0.000
       0.000  0.000  1.000  0.000  0.000
       0.000  0.000  0.000  1.000  0.000
       0.000  0.000  0.000  0.000  1.000
     occupation matrix ns (before diag.):
       0.000  0.000  0.000  0.000  0.000
       0.000  0.000  0.000  0.000  0.000
       0.000  0.000  0.000  0.000  0.000
       0.000  0.000  0.000  0.000  0.000
       0.000  0.000  0.000  0.000  0.000
     SPIN  2
     eigenvalues:
       0.600  0.600  0.600  0.600  0.600
     eigenvectors (columns):
       1.000  0.000  0.000  0.000  0.000
       0.000  1.000  0.000  0.000  0.000
       0.000  0.000  1.000  0.000  0.000
       0.000  0.000  0.000  1.000  0.000
       0.000  0.000  0.000  0.000  1.000
     occupation matrix ns (before diag.):
       0.600  0.000  0.000  0.000  0.000
       0.000  0.600  0.000  0.000  0.000
       0.000  0.000  0.600  0.000  0.000
       0.000  0.000  0.000  0.600  0.000
       0.000  0.000  0.000  0.000  0.600
     ------------------------ ATOM    4 ------------------------
     Tr[ns(  4)] (up, down, total) =   0.00000  3.00000  3.00000
     Atomic magnetic moment for atom   4 =  -3.00000
     SPIN  1
     eigenvalues:
       0.000  0.000  0.000  0.000  0.000
     eigenvectors (columns):
       1.000  0.000  0.000  0.000  0.000
       0.000  1.000  0.000  0.000  0.000
       0.000  0.000  1.000  0.000  0.000
       0.000  0.000  0.000  1.000  0.000
       0.000  0.000  0.000  0.000  1.000
     occupation matrix ns (before diag.):
       0.000  0.000  0.000  0.000  0.000
       0.000  0.000  0.000  0.000  0.000
       0.000  0.000  0.000  0.000  0.000
       0.000  0.000  0.000  0.000  0.000
       0.000  0.000  0.000  0.000  0.000
     SPIN  2
     eigenvalues:
       0.600  0.600  0.600  0.600  0.600
     eigenvectors (columns):
       1.000  0.000  0.000  0.000  0.000
       0.000  1.000  0.000  0.000  0.000
       0.000  0.000  1.000  0.000  0.000
       0.000  0.000  0.000  1.000  0.000
       0.000  0.000  0.000  0.000  1.000
     occupation matrix ns (before diag.):
       0.600  0.000  0.000  0.000  0.000
       0.000  0.600  0.000  0.000  0.000
       0.000  0.000  0.600  0.000  0.000
       0.000  0.000  0.000  0.600  0.000
       0.000  0.000  0.000  0.000  0.600
     ------------------------ ATOM    5 ------------------------
     Tr[ns(  5)] (up, down, total) =   0.00000  3.00000  3.00000
     Atomic magnetic moment for atom   5 =  -3.00000
     SPIN  1
     eigenvalues:
       0.000  0.000  0.000  0.000  0.000
     eigenvectors (columns):
       1.000  0.000  0.000  0.000  0.000
       0.000  1.000  0.000  0.000  0.000
       0.000  0.000  1.000  0.000  0.000
       0.000  0.000  0.000  1.000  0.000
       0.000  0.000  0.000  0.000  1.000
     occupation matrix ns (before diag.):
       0.000  0.000  0.000  0.000  0.000
       0.000  0.000  0.000  0.000  0.000
       0.000  0.000  0.000  0.000  0.000
       0.000  0.000  0.000  0.000  0.000
       0.000  0.000  0.000  0.000  0.000
     SPIN  2
     eigenvalues:
       0.600  0.600  0.600  0.600  0.600
     eigenvectors (columns):
       1.000  0.000  0.000  0.000  0.000
       0.000  1.000  0.000  0.000  0.000
       0.000  0.000  1.000  0.000  0.000
       0.000  0.000  0.000  1.000  0.000
       0.000  0.000  0.000  0.000  1.000
     occupation matrix ns (before diag.):
       0.600  0.000  0.000  0.000  0.000
       0.000  0.600  0.000  0.000  0.000
       0.000  0.000  0.600  0.000  0.000
       0.000  0.000  0.000  0.600  0.000
       0.000  0.000  0.000  0.000  0.600
     ------------------------ ATOM    6 ------------------------
     Tr[ns(  6)] (up, down, total) =   5.00000  0.00000  5.00000
     Atomic magnetic moment for atom   6 =   5.00000
     SPIN  1
     eigenvalues:
       1.000  1.000  1.000  1.000  1.000
     eigenvectors (columns):
       1.000  0.000  0.000  0.000  0.000
       0.000  1.000  0.000  0.000  0.000
       0.000  0.000  1.000  0.000  0.000
       0.000  0.000  0.000  1.000  0.000
       0.000  0.000  0.000  0.000  1.000
     occupation matrix ns (before diag.):
       1.000  0.000  0.000  0.000  0.000
       0.000  1.000  0.000  0.000  0.000
       0.000  0.000  1.000  0.000  0.000
       0.000  0.000  0.000  1.000  0.000
       0.000  0.000  0.000  0.000  1.000
     SPIN  2
     eigenvalues:
       0.000  0.000  0.000  0.000  0.000
     eigenvectors (columns):
       1.000  0.000  0.000  0.000  0.000
       0.000  1.000  0.000  0.000  0.000
       0.000  0.000  1.000  0.000  0.000
       0.000  0.000  0.000  1.000  0.000
       0.000  0.000  0.000  0.000  1.000
     occupation matrix ns (before diag.):
       0.000  0.000  0.000  0.000  0.000
       0.000  0.000  0.000  0.000  0.000
       0.000  0.000  0.000  0.000  0.000
       0.000  0.000  0.000  0.000  0.000
       0.000  0.000  0.000  0.000  0.000
     ------------------------ ATOM    7 ------------------------
     Tr[ns(  7)] (up, down, total) =   5.00000  0.00000  5.00000
     Atomic magnetic moment for atom   7 =   5.00000
     SPIN  1
     eigenvalues:
       1.000  1.000  1.000  1.000  1.000
     eigenvectors (columns):
       1.000  0.000  0.000  0.000  0.000
       0.000  1.000  0.000  0.000  0.000
       0.000  0.000  1.000  0.000  0.000
       0.000  0.000  0.000  1.000  0.000
       0.000  0.000  0.000  0.000  1.000
     occupation matrix ns (before diag.):
       1.000  0.000  0.000  0.000  0.000
       0.000  1.000  0.000  0.000  0.000
       0.000  0.000  1.000  0.000  0.000
       0.000  0.000  0.000  1.000  0.000
       0.000  0.000  0.000  0.000  1.000
     SPIN  2
     eigenvalues:
       0.000  0.000  0.000  0.000  0.000
     eigenvectors (columns):
       1.000  0.000  0.000  0.000  0.000
       0.000  1.000  0.000  0.000  0.000
       0.000  0.000  1.000  0.000  0.000
       0.000  0.000  0.000  1.000  0.000
       0.000  0.000  0.000  0.000  1.000
     occupation matrix ns (before diag.):
       0.000  0.000  0.000  0.000  0.000
       0.000  0.000  0.000  0.000  0.000
       0.000  0.000  0.000  0.000  0.000
       0.000  0.000  0.000  0.000  0.000
       0.000  0.000  0.000  0.000  0.000
     ------------------------ ATOM    8 ------------------------
     Tr[ns(  8)] (up, down, total) =   5.00000  0.00000  5.00000
     Atomic magnetic moment for atom   8 =   5.00000
     SPIN  1
     eigenvalues:
       1.000  1.000  1.000  1.000  1.000
     eigenvectors (columns):
       1.000  0.000  0.000  0.000  0.000
       0.000  1.000  0.000  0.000  0.000
       0.000  0.000  1.000  0.000  0.000
       0.000  0.000  0.000  1.000  0.000
       0.000  0.000  0.000  0.000  1.000
     occupation matrix ns (before diag.):
       1.000  0.000  0.000  0.000  0.000
       0.000  1.000  0.000  0.000  0.000
       0.000  0.000  1.000  0.000  0.000
       0.000  0.000  0.000  1.000  0.000
       0.000  0.000  0.000  0.000  1.000
     SPIN  2
     eigenvalues:
       0.000  0.000  0.000  0.000  0.000
     eigenvectors (columns):
       1.000  0.000  0.000  0.000  0.000
       0.000  1.000  0.000  0.000  0.000
       0.000  0.000  1.000  0.000  0.000
       0.000  0.000  0.000  1.000  0.000
       0.000  0.000  0.000  0.000  1.000
     occupation matrix ns (before diag.):
       0.000  0.000  0.000  0.000  0.000
       0.000  0.000  0.000  0.000  0.000
       0.000  0.000  0.000  0.000  0.000
       0.000  0.000  0.000  0.000  0.000
       0.000  0.000  0.000  0.000  0.000

     Number of occupied Hubbard levels =   27.0000

     Atomic wfc used for Hubbard projectors are orthogonalized

     Starting wfcs are  261 randomized atomic wfcs

     total cpu time spent up to now is       19.4 secs

     per-process dynamical memory:   367.4 Mb

     Self-consistent Calculation

     iteration #  1     ecut=   110.00 Ry     beta= 0.30
     Davidson diagonalization with overlap

---- Real-time Memory Report at c_bands before calling an iterative solver
           709 MiB given to the printing process from OS
           359 MiB allocation reported by mallinfo(arena+hblkhd)
        669659 MiB available memory on the node where the printing process lives
------------------
     ethr =  1.00E-02,  avg # of iterations =  2.0

     =================== HUBBARD OCCUPATIONS ===================
     ------------------------ ATOM    2 ------------------------
     Tr[ns(  2)] (up, down, total) =   0.28315  2.98775  3.27091
     Atomic magnetic moment for atom   2 =  -2.70460
     SPIN  1
     eigenvalues:
       0.016  0.021  0.027  0.089  0.130
     eigenvectors (columns):
       0.013 -0.049  0.006 -0.499 -0.865
       0.166 -0.983  0.051  0.040  0.036
       0.060  0.062  0.996  0.008 -0.001
       0.018  0.019 -0.010  0.865 -0.501
       0.984  0.163 -0.070 -0.016  0.014
     occupation matrix ns (before diag.):
       0.120 -0.005 -0.000  0.018 -0.001
      -0.005  0.021  0.000  0.000 -0.001
      -0.000  0.000  0.027  0.000 -0.001
       0.018  0.000  0.000  0.100 -0.002
      -0.001 -0.001 -0.001 -0.002  0.016
     SPIN  2
     eigenvalues:
       0.151  0.198  0.837  0.899  0.902
     eigenvectors (columns):
       0.501 -0.863  0.003  0.059  0.031
      -0.052  0.046  0.025  0.927  0.367
      -0.004 -0.000  0.999 -0.041  0.036
      -0.864 -0.502 -0.006 -0.030  0.018
       0.021  0.020 -0.048 -0.366  0.929
     occupation matrix ns (before diag.):
       0.190  0.047  0.001  0.020  0.004
       0.047  0.896 -0.002 -0.017  0.001
       0.001 -0.002  0.838 -0.002  0.003
       0.020 -0.017 -0.002  0.164  0.020
       0.004  0.001  0.003  0.020  0.901
     ------------------------ ATOM    3 ------------------------
     Tr[ns(  3)] (up, down, total) =   0.33732  2.93648  3.27380
     Atomic magnetic moment for atom   3 =  -2.59915
     SPIN  1
     eigenvalues:
       0.026  0.026  0.028  0.128  0.129
     eigenvectors (columns):
      -0.006 -0.004 -0.000  0.699 -0.715
       0.750 -0.327 -0.574  0.005  0.001
       0.095 -0.806  0.584  0.002  0.005
      -0.004  0.005 -0.000  0.715  0.699
       0.654  0.492  0.574  0.004 -0.004
     occupation matrix ns (before diag.):
       0.128  0.000 -0.000 -0.000  0.001
       0.000  0.027 -0.000  0.000 -0.000
      -0.000 -0.000  0.027  0.000  0.000
      -0.000  0.000  0.000  0.128  0.000
       0.001 -0.000  0.000  0.000  0.027
     SPIN  2
     eigenvalues:
       0.196  0.196  0.845  0.850  0.850
     eigenvectors (columns):
      -0.491 -0.871 -0.000  0.001  0.002
      -0.002  0.000  0.583 -0.797  0.159
      -0.001  0.002 -0.557 -0.250  0.792
      -0.871  0.491 -0.000  0.002 -0.001
      -0.001 -0.002 -0.591 -0.551 -0.589
     occupation matrix ns (before diag.):
       0.196 -0.000  0.001 -0.000 -0.001
      -0.000  0.848  0.001 -0.001  0.001
       0.001  0.001  0.848 -0.001 -0.001
      -0.000 -0.001 -0.001  0.196 -0.000
      -0.001  0.001 -0.001 -0.000  0.848
     ------------------------ ATOM    4 ------------------------
     Tr[ns(  4)] (up, down, total) =   0.28251  2.98558  3.26809
     Atomic magnetic moment for atom   4 =  -2.70307
     SPIN  1
     eigenvalues:
       0.016  0.021  0.027  0.089  0.130
     eigenvectors (columns):
       0.006 -0.084 -0.012  0.996  0.005
      -0.974  0.213  0.075  0.025 -0.015
      -0.216 -0.972 -0.034 -0.080 -0.036
      -0.022 -0.031  0.000 -0.008  0.999
       0.066 -0.050  0.997  0.008 -0.000
     occupation matrix ns (before diag.):
       0.088  0.002 -0.005  0.000  0.000
       0.002  0.017 -0.001 -0.002  0.001
      -0.005 -0.001  0.021 -0.004 -0.000
       0.000 -0.002 -0.004  0.130 -0.000
       0.000  0.001 -0.000 -0.000  0.026
     SPIN  2
     eigenvalues:
       0.149  0.198  0.838  0.899  0.902
     eigenvectors (columns):
      -0.996 -0.004 -0.007 -0.091  0.006
      -0.028  0.021  0.058  0.353  0.933
       0.087  0.048 -0.026 -0.929  0.355
       0.008 -0.999  0.000 -0.037  0.037
      -0.003  0.000  0.998 -0.045 -0.046
     occupation matrix ns (before diag.):
       0.156 -0.021  0.065  0.003 -0.002
      -0.021  0.901  0.002  0.015 -0.004
       0.065  0.002  0.892  0.033  0.002
       0.003  0.015  0.033  0.200  0.000
      -0.002 -0.004  0.002  0.000  0.838
     ------------------------ ATOM    5 ------------------------
     Tr[ns(  5)] (up, down, total) =   0.28781  2.99501  3.28282
     Atomic magnetic moment for atom   5 =  -2.70720
     SPIN  1
     eigenvalues:
       0.016  0.022  0.026  0.094  0.130
     eigenvectors (columns):
      -0.023 -0.003  0.006  0.503  0.864
      -0.061 -0.058 -0.996  0.007  0.000
       0.982  0.171 -0.070  0.021  0.015
       0.002 -0.072  0.010  0.862 -0.502
      -0.175  0.981 -0.046  0.061 -0.036
     occupation matrix ns (before diag.):
       0.121  0.000  0.002 -0.016 -0.001
       0.000  0.026  0.001  0.000  0.000
       0.002  0.001  0.016  0.001  0.001
      -0.016  0.000  0.001  0.102  0.006
      -0.001  0.000  0.001  0.006  0.022
     SPIN  2
     eigenvalues:
       0.156  0.198  0.838  0.900  0.903
     eigenvectors (columns):
       0.501  0.865 -0.004  0.005 -0.030
       0.003  0.001  0.998  0.041 -0.041
       0.024  0.020  0.052 -0.336  0.940
       0.862 -0.499 -0.005  0.083  0.018
       0.070 -0.047  0.025 -0.937 -0.338
     occupation matrix ns (before diag.):
       0.188 -0.001 -0.021 -0.018  0.003
      -0.001  0.838 -0.003 -0.002 -0.002
      -0.021 -0.003  0.902 -0.009 -0.002
      -0.018 -0.002 -0.009  0.172 -0.061
       0.003 -0.002 -0.002 -0.061  0.895
     ------------------------ ATOM    6 ------------------------
     Tr[ns(  6)] (up, down, total) =   2.87908  0.47926  3.35834
     Atomic magnetic moment for atom   6 =   2.39982
     SPIN  1
     eigenvalues:
       0.365  0.370  0.709  0.716  0.719
     eigenvectors (columns):
       0.995 -0.097  0.004  0.004  0.010
      -0.007  0.007  0.662  0.739  0.120
       0.011  0.016  0.136  0.040 -0.990
       0.097  0.995 -0.016  0.003  0.015
      -0.000 -0.012 -0.737  0.672 -0.074
     occupation matrix ns (before diag.):
       0.365  0.003 -0.003 -0.000 -0.000
       0.003  0.713 -0.001 -0.002  0.004
      -0.003 -0.001  0.719 -0.006  0.001
      -0.000 -0.002 -0.006  0.370  0.004
      -0.000  0.004  0.001  0.004  0.712
     SPIN  2
     eigenvalues:
       0.022  0.023  0.028  0.202  0.204
     eigenvectors (columns):
      -0.004 -0.003 -0.005 -0.974  0.228
      -0.776 -0.627  0.070  0.004 -0.003
       0.013  0.095  0.995 -0.010 -0.019
      -0.003  0.005 -0.021 -0.228 -0.973
      -0.631  0.773 -0.065  0.002  0.007
     occupation matrix ns (before diag.):
       0.202 -0.001  0.001 -0.000 -0.000
      -0.001  0.022  0.000  0.000 -0.001
       0.001  0.000  0.028  0.004 -0.000
      -0.000  0.000  0.004  0.204 -0.001
      -0.000 -0.001 -0.000 -0.001  0.023
     ------------------------ ATOM    7 ------------------------
     Tr[ns(  7)] (up, down, total) =   2.87846  0.47944  3.35790
     Atomic magnetic moment for atom   7 =   2.39903
     SPIN  1
     eigenvalues:
       0.365  0.369  0.709  0.717  0.719
     eigenvectors (columns):
      -0.764  0.644 -0.011  0.005 -0.020
      -0.016  0.013  0.145  0.086  0.985
      -0.004  0.012  0.740 -0.670 -0.051
       0.645  0.764 -0.012 -0.003  0.002
       0.006  0.009  0.656  0.737 -0.161
     occupation matrix ns (before diag.):
       0.367 -0.007 -0.004  0.002 -0.000
      -0.007  0.719 -0.001  0.000 -0.001
      -0.004 -0.001  0.712 -0.002 -0.004
       0.002  0.000 -0.002  0.367 -0.004
      -0.000 -0.001 -0.004 -0.004  0.713
     SPIN  2
     eigenvalues:
       0.022  0.023  0.028  0.202  0.204
     eigenvectors (columns):
       0.005  0.002 -0.022  0.711 -0.703
      -0.012  0.092  0.995  0.012 -0.019
      -0.628 -0.775  0.064  0.002 -0.007
      -0.002  0.005 -0.006 -0.703 -0.711
       0.778 -0.625  0.067 -0.004 -0.003
     occupation matrix ns (before diag.):
       0.203  0.004  0.001  0.001 -0.000
       0.004  0.028  0.000  0.001  0.000
       0.001  0.000  0.023  0.001  0.001
       0.001  0.001  0.001  0.203  0.001
      -0.000  0.000  0.001  0.001  0.023
     ------------------------ ATOM    8 ------------------------
     Tr[ns(  8)] (up, down, total) =   2.87770  0.47943  3.35713
     Atomic magnetic moment for atom   8 =   2.39827
     SPIN  1
     eigenvalues:
       0.363  0.370  0.709  0.716  0.719
     eigenvectors (columns):
      -0.381 -0.924  0.015 -0.000  0.008
       0.001 -0.012 -0.749 -0.660  0.064
       0.006  0.007  0.649 -0.750 -0.129
      -0.925  0.381 -0.005 -0.005 -0.017
       0.012 -0.016 -0.133  0.055 -0.989
     occupation matrix ns (before diag.):
       0.369 -0.004  0.003 -0.003 -0.004
      -0.004  0.712  0.004  0.002 -0.001
       0.003  0.004  0.713  0.001  0.001
      -0.003  0.002  0.001  0.364  0.006
      -0.004 -0.001  0.001  0.006  0.719
     SPIN  2
     eigenvalues:
       0.022  0.023  0.028  0.202  0.204
     eigenvectors (columns):
      -0.001 -0.006  0.016 -0.365  0.931
       0.629  0.775 -0.063  0.001  0.007
       0.777 -0.625  0.073  0.005 -0.003
       0.005 -0.001 -0.016 -0.931 -0.364
       0.017 -0.095 -0.995  0.009  0.020
     occupation matrix ns (before diag.):
       0.204  0.001 -0.001 -0.001  0.003
       0.001  0.023 -0.001 -0.001  0.000
      -0.001 -0.001  0.022 -0.001 -0.000
      -0.001 -0.001 -0.001  0.202 -0.003
       0.003  0.000 -0.000 -0.003  0.028

     Number of occupied Hubbard levels =   23.1690

     HUBBARD ENERGY =    0.8816  (Ry)

     total cpu time spent up to now is       55.5 secs

     total energy              =   -2023.55689728 Ry
     estimated scf accuracy    <      15.28007276 Ry

     total magnetization       =    -3.00 Bohr mag/cell
     absolute magnetization    =    20.21 Bohr mag/cell

     iteration #  2     ecut=   110.00 Ry     beta= 0.30
     Davidson diagonalization with overlap

---- Real-time Memory Report at c_bands before calling an iterative solver
           801 MiB given to the printing process from OS
           461 MiB allocation reported by mallinfo(arena+hblkhd)
        665563 MiB available memory on the node where the printing process lives
------------------
     ethr =  4.76E-03,  avg # of iterations =  1.0

     =================== HUBBARD OCCUPATIONS ===================
     ------------------------ ATOM    2 ------------------------
     Tr[ns(  2)] (up, down, total) =   0.28081  3.10608  3.38689
     Atomic magnetic moment for atom   2 =  -2.82527
     SPIN  1
     eigenvalues:
       0.012  0.018  0.021  0.093  0.135
     eigenvectors (columns):
       0.012 -0.050  0.008 -0.500 -0.865
       0.153 -0.982  0.097  0.040  0.037
       0.065  0.108  0.992  0.009 -0.001
       0.019  0.018 -0.011  0.865 -0.501
       0.986  0.146 -0.080 -0.017  0.015
     occupation matrix ns (before diag.):
       0.125 -0.005 -0.000  0.018 -0.001
      -0.005  0.018  0.000  0.000 -0.001
      -0.000  0.000  0.021  0.001 -0.001
       0.018  0.000  0.001  0.104 -0.002
      -0.001 -0.001 -0.001 -0.002  0.013
     SPIN  2
     eigenvalues:
       0.136  0.185  0.893  0.945  0.947
     eigenvectors (columns):
       0.500 -0.864  0.002  0.049  0.039
      -0.050  0.043  0.015  0.840  0.538
      -0.004 -0.001  0.999 -0.034  0.025
      -0.864 -0.502 -0.005 -0.033  0.011
       0.020  0.018 -0.040 -0.538  0.841
     occupation matrix ns (before diag.):
       0.176  0.049  0.001  0.020  0.004
       0.049  0.942 -0.001 -0.019  0.001
       0.001 -0.001  0.894 -0.003  0.002
       0.020 -0.019 -0.003  0.149  0.021
       0.004  0.001  0.002  0.021  0.946
     ------------------------ ATOM    3 ------------------------
     Tr[ns(  3)] (up, down, total) =   0.32887  3.08055  3.40942
     Atomic magnetic moment for atom   3 =  -2.75167
     SPIN  1
     eigenvalues:
       0.020  0.020  0.021  0.133  0.133
     eigenvectors (columns):
      -0.001 -0.007 -0.000 -0.751 -0.660
       0.754  0.318 -0.574 -0.006  0.002
       0.649 -0.492  0.580 -0.001  0.005
      -0.007  0.001  0.000 -0.660  0.751
       0.098  0.810  0.578 -0.004 -0.004
     occupation matrix ns (before diag.):
       0.133  0.000 -0.000 -0.000  0.001
       0.000  0.021 -0.000  0.001 -0.000
      -0.000 -0.000  0.021  0.001  0.000
      -0.000  0.001  0.001  0.133 -0.000
       0.001 -0.000  0.000 -0.000  0.021
     SPIN  2
     eigenvalues:
       0.182  0.183  0.904  0.906  0.906
     eigenvectors (columns):
      -0.512  0.859 -0.000  0.002  0.000
      -0.002 -0.000  0.577 -0.328  0.748
      -0.000 -0.002 -0.567  0.498  0.656
      -0.859 -0.512 -0.000  0.000 -0.002
      -0.001  0.001 -0.588 -0.802  0.101
     occupation matrix ns (before diag.):
       0.183 -0.000  0.001 -0.000 -0.001
      -0.000  0.905  0.001 -0.001  0.001
       0.001  0.001  0.905 -0.001 -0.001
      -0.000 -0.001 -0.001  0.182 -0.000
      -0.001  0.001 -0.001 -0.000  0.905
     ------------------------ ATOM    4 ------------------------
     Tr[ns(  4)] (up, down, total) =   0.28027  3.10470  3.38497
     Atomic magnetic moment for atom   4 =  -2.82443
     SPIN  1
     eigenvalues:
       0.013  0.019  0.021  0.093  0.135
     eigenvectors (columns):
      -0.007 -0.085 -0.015  0.996 -0.005
       0.976  0.198  0.086  0.026  0.015
       0.204 -0.973 -0.058 -0.082  0.037
       0.022 -0.032 -0.000 -0.008 -0.999
      -0.073 -0.075  0.994  0.008  0.000
     occupation matrix ns (before diag.):
       0.092  0.002 -0.006  0.000  0.001
       0.002  0.013 -0.001 -0.002  0.001
      -0.006 -0.001  0.019 -0.004 -0.000
       0.000 -0.002 -0.004  0.135 -0.000
       0.001  0.001 -0.000 -0.000  0.021
     SPIN  2
     eigenvalues:
       0.135  0.184  0.895  0.945  0.947
     eigenvectors (columns):
      -0.996  0.006 -0.006 -0.090  0.017
      -0.027 -0.019  0.048  0.467  0.882
       0.087 -0.045 -0.021 -0.878  0.467
       0.009  0.999  0.000 -0.030  0.038
      -0.003 -0.000  0.999 -0.041 -0.033
     occupation matrix ns (before diag.):
       0.142 -0.022  0.070  0.003 -0.002
      -0.022  0.945  0.002  0.015 -0.003
       0.070  0.002  0.937  0.034  0.001
       0.003  0.015  0.034  0.186  0.000
      -0.002 -0.003  0.001  0.000  0.895
     ------------------------ ATOM    5 ------------------------
     Tr[ns(  5)] (up, down, total) =   0.28581  3.11165  3.39747
     Atomic magnetic moment for atom   5 =  -2.82584
     SPIN  1
     eigenvalues:
       0.013  0.020  0.021  0.098  0.135
     eigenvectors (columns):
       0.024 -0.002  0.006  0.502  0.864
       0.068 -0.146 -0.987  0.007  0.000
      -0.984  0.151 -0.090  0.022  0.015
      -0.001 -0.072  0.017  0.862 -0.501
       0.162  0.975 -0.133  0.062 -0.037
     occupation matrix ns (before diag.):
       0.125  0.000  0.003 -0.016 -0.001
       0.000  0.021  0.001  0.000  0.000
       0.003  0.001  0.013  0.001  0.001
      -0.016  0.000  0.001  0.107  0.006
      -0.001  0.000  0.001  0.006  0.020
     SPIN  2
     eigenvalues:
       0.142  0.184  0.894  0.945  0.946
     eigenvectors (columns):
       0.502  0.864  0.003 -0.001 -0.028
       0.003  0.001 -0.999 -0.019 -0.038
       0.024  0.019 -0.040  0.173  0.984
       0.862 -0.500  0.004 -0.083  0.003
       0.069 -0.044 -0.012  0.981 -0.174
     occupation matrix ns (before diag.):
       0.174 -0.001 -0.022 -0.018  0.001
      -0.001  0.894 -0.002 -0.002 -0.001
      -0.022 -0.002  0.946 -0.010 -0.001
      -0.018 -0.002 -0.010  0.158 -0.065
       0.001 -0.001 -0.001 -0.065  0.940
     ------------------------ ATOM    6 ------------------------
     Tr[ns(  6)] (up, down, total) =   3.14395  0.51071  3.65466
     Atomic magnetic moment for atom   6 =   2.63325
     SPIN  1
     eigenvalues:
       0.356  0.363  0.804  0.809  0.812
     eigenvectors (columns):
      -0.995 -0.097  0.003 -0.006  0.009
      -0.003 -0.000  0.505  0.855  0.116
      -0.010  0.017  0.107  0.071 -0.992
      -0.097  0.995 -0.002 -0.001  0.018
      -0.006 -0.001 -0.856  0.513 -0.055
     occupation matrix ns (before diag.):
       0.356 -0.001 -0.004 -0.001 -0.003
      -0.001  0.808 -0.001  0.000  0.002
      -0.004 -0.001  0.811 -0.008  0.001
      -0.001  0.000 -0.008  0.363 -0.000
      -0.003  0.002  0.001 -0.000  0.806
     SPIN  2
     eigenvalues:
       0.021  0.021  0.022  0.222  0.224
     eigenvectors (columns):
      -0.005 -0.006  0.000 -0.970 -0.244
      -0.785 -0.169 -0.596  0.004  0.003
       0.232  0.812 -0.535 -0.011  0.019
      -0.007 -0.012  0.017 -0.244  0.970
      -0.575  0.559  0.598  0.002 -0.007
     occupation matrix ns (before diag.):
       0.223 -0.001  0.001 -0.000 -0.000
      -0.001  0.021  0.000  0.000 -0.000
       0.001  0.000  0.021  0.004 -0.000
      -0.000  0.000  0.004  0.224 -0.001
      -0.000 -0.000 -0.000 -0.001  0.021
     ------------------------ ATOM    7 ------------------------
     Tr[ns(  7)] (up, down, total) =   3.14150  0.51077  3.65227
     Atomic magnetic moment for atom   7 =   2.63074
     SPIN  1
     eigenvalues:
       0.356  0.362  0.803  0.808  0.811
     eigenvectors (columns):
       0.768  0.640  0.005 -0.005 -0.021
       0.014  0.014  0.074 -0.096  0.992
      -0.013  0.000  0.805 -0.582 -0.116
      -0.641  0.768 -0.002  0.012 -0.000
       0.007 -0.006  0.589  0.807  0.034
     occupation matrix ns (before diag.):
       0.359 -0.009  0.004  0.003 -0.001
      -0.009  0.811 -0.001 -0.001 -0.000
       0.004 -0.001  0.805 -0.004 -0.002
       0.003 -0.001 -0.004  0.360  0.004
      -0.001 -0.000 -0.002  0.004  0.807
     SPIN  2
     eigenvalues:
       0.021  0.021  0.022  0.222  0.224
     eigenvectors (columns):
      -0.010  0.015 -0.014 -0.696 -0.718
       0.264 -0.840  0.473 -0.011 -0.019
       0.546  0.535  0.645 -0.002 -0.007
       0.001  0.002 -0.008  0.718 -0.696
      -0.795  0.088  0.601  0.004 -0.003
     occupation matrix ns (before diag.):
       0.223  0.004  0.001  0.001 -0.000
       0.004  0.021  0.000  0.001  0.000
       0.001  0.000  0.021  0.001  0.001
       0.001  0.001  0.001  0.223  0.001
      -0.000  0.000  0.001  0.001  0.021
     ------------------------ ATOM    8 ------------------------
     Tr[ns(  8)] (up, down, total) =   3.14200  0.51085  3.65285
     Atomic magnetic moment for atom   8 =   2.63114
     SPIN  1
     eigenvalues:
       0.353  0.364  0.804  0.809  0.812
     eigenvectors (columns):
      -0.371 -0.929  0.002 -0.006  0.011
      -0.010 -0.000 -0.626  0.759  0.181
      -0.003 -0.000  0.775  0.631  0.033
      -0.929  0.370  0.002 -0.006 -0.019
       0.011 -0.018 -0.089  0.161 -0.983
     occupation matrix ns (before diag.):
       0.362 -0.002 -0.001 -0.004 -0.005
      -0.002  0.807  0.002 -0.004 -0.001
      -0.001  0.002  0.806 -0.001  0.000
      -0.004 -0.004 -0.001  0.355  0.008
      -0.005 -0.001  0.000  0.008  0.812
     SPIN  2
     eigenvalues:
       0.021  0.021  0.022  0.222  0.225
     eigenvectors (columns):
      -0.004  0.008  0.014 -0.374  0.927
       0.529  0.586 -0.614  0.001  0.007
       0.798 -0.097  0.595  0.005 -0.003
       0.009 -0.011 -0.009 -0.927 -0.374
       0.289 -0.804 -0.518  0.009  0.020
     occupation matrix ns (before diag.):
       0.224  0.001 -0.001 -0.001  0.003
       0.001  0.021 -0.001 -0.001  0.000
      -0.001 -0.001  0.021 -0.001 -0.000
      -0.001 -0.001 -0.001  0.223 -0.003
       0.003  0.000 -0.000 -0.003  0.021

     Number of occupied Hubbard levels =   24.5385

     HUBBARD ENERGY =    0.7811  (Ry)

     total cpu time spent up to now is       80.6 secs

     total energy              =   -2020.52593493 Ry
     estimated scf accuracy    <       8.00611828 Ry

     total magnetization       =    -3.00 Bohr mag/cell
     absolute magnetization    =    21.49 Bohr mag/cell

     iteration #  3     ecut=   110.00 Ry     beta= 0.30
     Davidson diagonalization with overlap

---- Real-time Memory Report at c_bands before calling an iterative solver
           875 MiB given to the printing process from OS
           471 MiB allocation reported by mallinfo(arena+hblkhd)
        665396 MiB available memory on the node where the printing process lives
------------------
     ethr =  2.49E-03,  avg # of iterations =  6.0

     =================== HUBBARD OCCUPATIONS ===================
     ------------------------ ATOM    2 ------------------------
     Tr[ns(  2)] (up, down, total) =   0.31541  3.19843  3.51384
     Atomic magnetic moment for atom   2 =  -2.88302
     SPIN  1
     eigenvalues:
       0.014  0.021  0.022  0.106  0.152
     eigenvectors (columns):
       0.011  0.004 -0.048 -0.497  0.866
       0.137  0.157 -0.977  0.035 -0.037
       0.073 -0.986 -0.148  0.009  0.000
       0.019  0.007  0.015  0.867  0.498
       0.988  0.051  0.146 -0.017 -0.014
     occupation matrix ns (before diag.):
       0.141 -0.006 -0.000  0.020 -0.001
      -0.006  0.022  0.000  0.000 -0.001
      -0.000  0.000  0.021  0.001 -0.001
       0.020  0.000  0.001  0.118 -0.002
      -0.001 -0.001 -0.001 -0.002  0.014
     SPIN  2
     eigenvalues:
       0.172  0.225  0.899  0.950  0.952
     eigenvectors (columns):
       0.498 -0.865 -0.002  0.054 -0.024
      -0.048  0.040 -0.008  0.944 -0.325
      -0.003 -0.001 -0.999 -0.018 -0.026
      -0.865 -0.500  0.004 -0.029 -0.017
       0.020  0.017  0.031 -0.325 -0.945
     occupation matrix ns (before diag.):
       0.214  0.044  0.001  0.022  0.003
       0.044  0.947 -0.001 -0.018  0.001
       0.001 -0.001  0.899 -0.002  0.002
       0.022 -0.018 -0.002  0.186  0.019
       0.003  0.001  0.002  0.019  0.951
     ------------------------ ATOM    3 ------------------------
     Tr[ns(  3)] (up, down, total) =   0.35725  3.19789  3.55514
     Atomic magnetic moment for atom   3 =  -2.84063
     SPIN  1
     eigenvalues:
       0.020  0.020  0.020  0.149  0.149
     eigenvectors (columns):
      -0.006  0.004 -0.000 -0.473 -0.881
      -0.020 -0.821 -0.571  0.003 -0.005
      -0.709 -0.391  0.587  0.006 -0.000
       0.004  0.006 -0.000  0.881 -0.473
       0.705 -0.416  0.574 -0.003 -0.005
     occupation matrix ns (before diag.):
       0.149  0.000 -0.000  0.000  0.001
       0.000  0.020 -0.000  0.001 -0.000
      -0.000 -0.000  0.020  0.001  0.000
       0.000  0.001  0.001  0.149 -0.000
       0.001 -0.000  0.000 -0.000  0.020
     SPIN  2
     eigenvalues:
       0.224  0.224  0.916  0.917  0.917
     eigenvectors (columns):
      -0.430  0.903  0.000  0.002 -0.000
      -0.002 -0.000  0.457 -0.220  0.862
      -0.001 -0.001 -0.614  0.623  0.484
      -0.903 -0.430  0.000 -0.000 -0.002
      -0.001  0.001 -0.644 -0.750  0.150
     occupation matrix ns (before diag.):
       0.224 -0.000  0.001 -0.000 -0.001
      -0.000  0.917  0.000 -0.001  0.000
       0.001  0.000  0.917 -0.001 -0.000
      -0.000 -0.001 -0.001  0.224 -0.000
      -0.001  0.000 -0.000 -0.000  0.916
     ------------------------ ATOM    4 ------------------------
     Tr[ns(  4)] (up, down, total) =   0.31410  3.19696  3.51106
     Atomic magnetic moment for atom   4 =  -2.88286
     SPIN  1
     eigenvalues:
       0.014  0.021  0.023  0.106  0.151
     eigenvectors (columns):
       0.008 -0.007 -0.088 -0.996  0.014
      -0.978  0.080  0.189 -0.026 -0.015
      -0.188  0.024 -0.977  0.085 -0.036
      -0.022  0.002 -0.031  0.017  0.999
       0.083  0.996  0.008 -0.007  0.000
     occupation matrix ns (before diag.):
       0.105  0.002 -0.007  0.000  0.001
       0.002  0.014 -0.002 -0.002  0.001
      -0.007 -0.002  0.023 -0.005  0.000
       0.000 -0.002 -0.005  0.151  0.000
       0.001  0.001  0.000  0.000  0.021
     SPIN  2
     eigenvalues:
       0.170  0.224  0.901  0.950  0.952
     eigenvectors (columns):
      -0.996  0.009 -0.005  0.091  0.009
      -0.027 -0.018  0.042 -0.381  0.923
       0.088 -0.044 -0.015  0.919  0.382
       0.012  0.999  0.001  0.032  0.033
      -0.002 -0.001  0.999  0.031 -0.033
     occupation matrix ns (before diag.):
       0.177 -0.021  0.068  0.003 -0.002
      -0.021  0.951  0.002  0.013 -0.002
       0.068  0.002  0.943  0.031  0.001
       0.003  0.013  0.031  0.226  0.000
      -0.002 -0.002  0.001  0.000  0.901
     ------------------------ ATOM    5 ------------------------
     Tr[ns(  5)] (up, down, total) =   0.32061  3.20011  3.52072
     Atomic magnetic moment for atom   5 =  -2.87951
     SPIN  1
     eigenvalues:
       0.014  0.020  0.024  0.112  0.150
     eigenvectors (columns):
      -0.023  0.005 -0.003 -0.504 -0.864
      -0.075 -0.997  0.017 -0.007 -0.000
       0.986 -0.071  0.151 -0.022 -0.015
      -0.000  0.004 -0.071 -0.861  0.503
      -0.150  0.028  0.986 -0.060  0.036
     occupation matrix ns (before diag.):
       0.141  0.000  0.003 -0.017 -0.001
       0.000  0.020  0.001  0.001  0.000
       0.003  0.001  0.014  0.001  0.002
      -0.017  0.001  0.001  0.121  0.007
      -0.001  0.000  0.002  0.007  0.024
     SPIN  2
     eigenvalues:
       0.179  0.223  0.899  0.949  0.951
     eigenvectors (columns):
       0.505  0.862 -0.003  0.002 -0.027
       0.003  0.001  0.999  0.012 -0.031
       0.024  0.017  0.033 -0.141  0.989
       0.860 -0.504 -0.003  0.081 -0.000
       0.068 -0.042  0.007 -0.987 -0.142
     occupation matrix ns (before diag.):
       0.212 -0.001 -0.020 -0.019 -0.000
      -0.001  0.899 -0.002 -0.001 -0.000
      -0.020 -0.002  0.950 -0.009 -0.001
      -0.019 -0.001 -0.009  0.196 -0.061
      -0.000 -0.000 -0.001 -0.061  0.944
     ------------------------ ATOM    6 ------------------------
     Tr[ns(  6)] (up, down, total) =   3.89442  0.93150  4.82593
     Atomic magnetic moment for atom   6 =   2.96292
     SPIN  1
     eigenvalues:
       0.493  0.539  0.952  0.955  0.955
     eigenvectors (columns):
      -0.114 -0.993  0.008 -0.001  0.004
      -0.006 -0.002  0.077 -0.366 -0.927
       0.018 -0.010 -0.993 -0.105 -0.042
       0.993 -0.114  0.021 -0.010 -0.001
       0.011 -0.004 -0.082  0.925 -0.372
     occupation matrix ns (before diag.):
       0.538 -0.001 -0.003  0.005 -0.001
      -0.001  0.955  0.000  0.003  0.000
      -0.003  0.000  0.952 -0.009 -0.000
       0.005  0.003 -0.009  0.494 -0.005
      -0.001  0.000 -0.000 -0.005  0.955
     SPIN  2
     eigenvalues:
       0.083  0.085  0.086  0.338  0.340
     eigenvectors (columns):
       0.000 -0.006 -0.000 -0.961  0.278
       0.683 -0.332  0.651  0.001 -0.002
      -0.021  0.881  0.471 -0.012 -0.019
       0.004 -0.017 -0.015 -0.278 -0.960
       0.730  0.336 -0.595 -0.000  0.006
     occupation matrix ns (before diag.):
       0.338 -0.001  0.001 -0.001  0.000
      -0.001  0.084  0.000  0.000 -0.001
       0.001  0.000  0.085  0.006 -0.000
      -0.001  0.000  0.006  0.340 -0.002
       0.000 -0.001 -0.000 -0.002  0.084
     ------------------------ ATOM    7 ------------------------
     Tr[ns(  7)] (up, down, total) =   3.92399  0.93237  4.85636
     Atomic magnetic moment for atom   7 =   2.99162
     SPIN  1
     eigenvalues:
       0.503  0.559  0.952  0.955  0.955
     eigenvectors (columns):
      -0.675  0.737  0.020 -0.012 -0.003
      -0.015  0.011 -0.986 -0.128  0.102
       0.011 -0.006  0.051 -0.834 -0.550
      -0.737 -0.675  0.005 -0.008  0.005
       0.012  0.001  0.155 -0.537  0.829
     occupation matrix ns (before diag.):
       0.534 -0.008  0.005 -0.028  0.003
      -0.008  0.952  0.000 -0.002  0.001
       0.005  0.000  0.955  0.002 -0.000
      -0.028 -0.002  0.002  0.529  0.004
       0.003  0.001 -0.000  0.004  0.955
     SPIN  2
     eigenvalues:
       0.083  0.084  0.086  0.338  0.341
     eigenvectors (columns):
       0.004 -0.020 -0.008  0.659 -0.752
      -0.080  0.961  0.262  0.010 -0.021
      -0.591 -0.258  0.764 -0.002 -0.006
       0.002 -0.005 -0.007 -0.752 -0.659
       0.803 -0.094  0.589 -0.002 -0.001
     occupation matrix ns (before diag.):
       0.340  0.006  0.001  0.001 -0.000
       0.006  0.084  0.000  0.002  0.000
       0.001  0.000  0.085  0.001  0.001
       0.001  0.002  0.001  0.340  0.001
      -0.000  0.000  0.001  0.001  0.084
     ------------------------ ATOM    8 ------------------------
     Tr[ns(  8)] (up, down, total) =   3.90361  0.93364  4.83725
     Atomic magnetic moment for atom   8 =   2.96998
     SPIN  1
     eigenvalues:
       0.488  0.553  0.952  0.955  0.955
     eigenvectors (columns):
       0.923 -0.385 -0.015  0.004  0.003
      -0.011 -0.012 -0.041  0.564  0.825
       0.005  0.002  0.144 -0.813  0.564
      -0.385 -0.923  0.019 -0.009 -0.011
       0.020  0.011  0.988  0.142 -0.047
     occupation matrix ns (before diag.):
       0.498  0.003 -0.002  0.023 -0.007
       0.003  0.955  0.000 -0.006  0.000
      -0.002  0.000  0.955  0.002 -0.000
       0.023 -0.006  0.002  0.544  0.007
      -0.007  0.000 -0.000  0.007  0.952
     SPIN  2
     eigenvalues:
       0.083  0.085  0.086  0.338  0.341
     eigenvectors (columns):
      -0.001  0.011  0.014 -0.388  0.921
       0.571  0.470 -0.673 -0.001  0.005
       0.820 -0.287  0.495  0.003 -0.002
       0.003 -0.014 -0.008 -0.921 -0.388
       0.039 -0.835 -0.549  0.008  0.022
     occupation matrix ns (before diag.):
       0.341  0.001 -0.001 -0.001  0.004
       0.001  0.085 -0.001 -0.000  0.000
      -0.001 -0.001  0.084 -0.000 -0.000
      -0.001 -0.000 -0.000  0.338 -0.004
       0.004  0.000 -0.000 -0.004  0.086

     Number of occupied Hubbard levels =   28.6203

     HUBBARD ENERGY =    0.8138  (Ry)

     total cpu time spent up to now is      111.4 secs

     total energy              =   -2022.15976582 Ry
     estimated scf accuracy    <       1.24209971 Ry

     total magnetization       =    -3.00 Bohr mag/cell
     absolute magnetization    =    24.20 Bohr mag/cell

     iteration #  4     ecut=   110.00 Ry     beta= 0.30
     Davidson diagonalization with overlap

---- Real-time Memory Report at c_bands before calling an iterative solver
           885 MiB given to the printing process from OS
           481 MiB allocation reported by mallinfo(arena+hblkhd)
        665403 MiB available memory on the node where the printing process lives
------------------
     ethr =  3.87E-04,  avg # of iterations =  6.4

     =================== HUBBARD OCCUPATIONS ===================
     ------------------------ ATOM    2 ------------------------
     Tr[ns(  2)] (up, down, total) =   0.33642  3.20467  3.54109
     Atomic magnetic moment for atom   2 =  -2.86825
     SPIN  1
     eigenvalues:
       0.018  0.026  0.027  0.109  0.157
     eigenvectors (columns):
       0.011 -0.046  0.008 -0.501 -0.864
       0.138 -0.984  0.101  0.034  0.035
       0.058  0.110  0.992  0.007 -0.000
       0.019  0.013 -0.009  0.865 -0.502
       0.989  0.131 -0.072 -0.016  0.014
     occupation matrix ns (before diag.):
       0.144 -0.005 -0.000  0.021 -0.001
      -0.005  0.026  0.000  0.000 -0.001
      -0.000  0.000  0.027  0.001 -0.001
       0.021  0.000  0.001  0.121 -0.002
      -0.001 -0.001 -0.001 -0.002  0.018
     SPIN  2
     eigenvalues:
       0.162  0.215  0.912  0.957  0.958
     eigenvectors (columns):
       0.498 -0.865  0.002  0.045  0.040
      -0.048  0.041  0.012  0.801  0.595
      -0.004 -0.001  0.999 -0.030  0.021
      -0.866 -0.499 -0.004 -0.032  0.008
       0.020  0.017 -0.035 -0.596  0.802
     occupation matrix ns (before diag.):
       0.205  0.045  0.001  0.022  0.003
       0.045  0.954 -0.001 -0.018  0.001
       0.001 -0.001  0.912 -0.002  0.002
       0.022 -0.018 -0.002  0.176  0.020
       0.003  0.001  0.002  0.020  0.957
     ------------------------ ATOM    3 ------------------------
     Tr[ns(  3)] (up, down, total) =   0.38674  3.19734  3.58408
     Atomic magnetic moment for atom   3 =  -2.81060
     SPIN  1
     eigenvalues:
       0.026  0.026  0.027  0.153  0.154
     eigenvectors (columns):
      -0.006  0.001 -0.001 -0.999  0.053
       0.396 -0.744 -0.537 -0.003 -0.004
      -0.516 -0.665  0.541  0.002 -0.005
       0.001  0.006 -0.001 -0.053 -0.999
       0.760 -0.063  0.647 -0.005  0.000
     occupation matrix ns (before diag.):
       0.153  0.000 -0.000 -0.000  0.001
       0.000  0.027 -0.000  0.000 -0.000
      -0.000 -0.000  0.027  0.001  0.000
      -0.000  0.000  0.001  0.154 -0.000
       0.001 -0.000  0.000 -0.000  0.027
     SPIN  2
     eigenvalues:
       0.214  0.214  0.922  0.924  0.924
     eigenvectors (columns):
      -0.428 -0.904 -0.000  0.002 -0.001
      -0.002  0.000  0.585 -0.605 -0.540
      -0.001  0.002 -0.558  0.182 -0.809
      -0.904  0.428 -0.000  0.001  0.002
      -0.001 -0.001 -0.589 -0.775  0.231
     occupation matrix ns (before diag.):
       0.214 -0.000  0.001 -0.000 -0.001
      -0.000  0.923  0.001 -0.001  0.001
       0.001  0.001  0.923 -0.001 -0.001
      -0.000 -0.001 -0.001  0.214 -0.000
      -0.001  0.001 -0.001 -0.000  0.923
     ------------------------ ATOM    4 ------------------------
     Tr[ns(  4)] (up, down, total) =   0.33501  3.20288  3.53789
     Atomic magnetic moment for atom   4 =  -2.86786
     SPIN  1
     eigenvalues:
       0.018  0.026  0.027  0.108  0.155
     eigenvectors (columns):
      -0.009 -0.087 -0.010  0.996 -0.006
       0.979  0.192  0.062  0.026  0.015
       0.194 -0.977 -0.012 -0.084  0.033
       0.021 -0.029  0.001 -0.008 -0.999
      -0.058 -0.024  0.998  0.007  0.000
     occupation matrix ns (before diag.):
       0.108  0.002 -0.007  0.000  0.001
       0.002  0.019 -0.002 -0.002  0.001
      -0.007 -0.002  0.027 -0.004  0.000
       0.000 -0.002 -0.004  0.155 -0.000
       0.001  0.001  0.000 -0.000  0.027
     SPIN  2
     eigenvalues:
       0.160  0.215  0.913  0.957  0.958
     eigenvectors (columns):
      -0.996  0.009 -0.005 -0.090  0.020
      -0.027 -0.018  0.048  0.490  0.870
       0.088 -0.044 -0.016 -0.866  0.490
       0.012  0.999  0.001 -0.028  0.038
      -0.002 -0.000  0.999 -0.038 -0.033
     occupation matrix ns (before diag.):
       0.167 -0.021  0.070  0.003 -0.002
      -0.021  0.957  0.002  0.014 -0.002
       0.070  0.002  0.949  0.032  0.001
       0.003  0.014  0.032  0.217  0.000
      -0.002 -0.002  0.001  0.000  0.913
     ------------------------ ATOM    5 ------------------------
     Tr[ns(  5)] (up, down, total) =   0.34013  3.20702  3.54715
     Atomic magnetic moment for atom   5 =  -2.86689
     SPIN  1
     eigenvalues:
       0.018  0.027  0.027  0.114  0.154
     eigenvectors (columns):
       0.022  0.004 -0.004 -0.497 -0.867
       0.055 -0.959  0.278 -0.006 -0.001
      -0.986 -0.010  0.162 -0.021 -0.014
       0.000 -0.015 -0.069 -0.865  0.496
       0.153  0.283  0.944 -0.060  0.035
     occupation matrix ns (before diag.):
       0.144  0.000  0.003 -0.018 -0.001
       0.000  0.027  0.001  0.000  0.000
       0.003  0.001  0.018  0.001  0.001
      -0.018  0.000  0.001  0.123  0.007
      -0.001  0.000  0.001  0.007  0.027
     SPIN  2
     eigenvalues:
       0.169  0.214  0.911  0.956  0.957
     eigenvectors (columns):
      -0.506 -0.862 -0.003  0.007 -0.026
      -0.003 -0.001  0.999  0.021 -0.032
      -0.024 -0.018  0.036 -0.324  0.945
      -0.860  0.504 -0.003  0.080  0.015
      -0.069  0.043  0.009 -0.942 -0.324
     occupation matrix ns (before diag.):
       0.203 -0.001 -0.021 -0.019  0.000
      -0.001  0.911 -0.002 -0.002 -0.001
      -0.021 -0.002  0.956 -0.010 -0.001
      -0.019 -0.002 -0.010  0.186 -0.062
       0.000 -0.001 -0.001 -0.062  0.951
     ------------------------ ATOM    6 ------------------------
     Tr[ns(  6)] (up, down, total) =   3.90503  0.86130  4.76633
     Atomic magnetic moment for atom   6 =   3.04374
     SPIN  1
     eigenvalues:
       0.525  0.526  0.951  0.951  0.952
     eigenvectors (columns):
      -0.532 -0.847  0.003  0.005  0.007
       0.004  0.001  0.697 -0.557  0.451
       0.010 -0.016  0.063 -0.579 -0.813
       0.847 -0.531 -0.007  0.008  0.015
      -0.006  0.001 -0.714 -0.595  0.368
     occupation matrix ns (before diag.):
       0.526  0.001 -0.004  0.001 -0.001
       0.001  0.951 -0.000 -0.001  0.000
      -0.004 -0.000  0.951 -0.007  0.000
       0.001 -0.001 -0.007  0.526  0.002
      -0.001  0.000  0.000  0.002  0.951
     SPIN  2
     eigenvalues:
       0.054  0.055  0.056  0.347  0.349
     eigenvectors (columns):
       0.003 -0.007  0.001 -0.965 -0.264
       0.731 -0.155  0.665  0.003  0.003
      -0.130  0.924  0.359 -0.011  0.018
       0.006 -0.016 -0.013 -0.264  0.964
       0.670  0.349 -0.655  0.001 -0.007
     occupation matrix ns (before diag.):
       0.347 -0.001  0.002 -0.001  0.000
      -0.001  0.055  0.000  0.001 -0.001
       0.002  0.000  0.055  0.006 -0.000
      -0.001  0.001  0.006  0.349 -0.002
       0.000 -0.001 -0.000 -0.002  0.055
     ------------------------ ATOM    7 ------------------------
     Tr[ns(  7)] (up, down, total) =   3.90318  0.85993  4.76311
     Atomic magnetic moment for atom   7 =   3.04326
     SPIN  1
     eigenvalues:
       0.524  0.526  0.950  0.951  0.951
     eigenvectors (columns):
      -0.447  0.894 -0.003 -0.011  0.016
      -0.010  0.017  0.032  0.588 -0.808
      -0.005 -0.000  0.739 -0.558 -0.377
      -0.894 -0.448 -0.005  0.001  0.002
      -0.002 -0.000  0.673  0.585  0.453
     occupation matrix ns (before diag.):
       0.526 -0.008 -0.001 -0.001 -0.000
      -0.008  0.951 -0.000 -0.001 -0.000
      -0.001 -0.000  0.951 -0.002 -0.000
      -0.001 -0.001 -0.002  0.525 -0.001
      -0.000 -0.000 -0.000 -0.001  0.951
     SPIN  2
     eigenvalues:
       0.053  0.054  0.056  0.347  0.350
     eigenvectors (columns):
       0.010 -0.017 -0.009  0.664 -0.747
      -0.351  0.897  0.267  0.010 -0.019
      -0.494 -0.420  0.761 -0.000 -0.006
       0.001 -0.003 -0.007 -0.747 -0.665
       0.796  0.135  0.591 -0.003 -0.002
     occupation matrix ns (before diag.):
       0.349  0.006  0.001  0.002 -0.000
       0.006  0.054  0.000  0.002  0.000
       0.001  0.000  0.055  0.001  0.001
       0.002  0.002  0.001  0.348  0.001
      -0.000  0.000  0.001  0.001  0.054
     ------------------------ ATOM    8 ------------------------
     Tr[ns(  8)] (up, down, total) =   3.90405  0.86195  4.76600
     Atomic magnetic moment for atom   8 =   3.04210
     SPIN  1
     eigenvalues:
       0.525  0.526  0.951  0.951  0.951
     eigenvectors (columns):
       0.997 -0.082 -0.007 -0.003  0.010
       0.006 -0.000  0.716 -0.649 -0.256
      -0.004 -0.001 -0.697 -0.641 -0.322
       0.082  0.996 -0.001  0.006 -0.015
       0.010 -0.017  0.045  0.409 -0.911
     occupation matrix ns (before diag.):
       0.525 -0.002  0.002 -0.000 -0.005
      -0.002  0.951  0.000 -0.000 -0.000
       0.002  0.000  0.951  0.001  0.000
      -0.000 -0.000  0.001  0.526  0.007
      -0.005 -0.000  0.000  0.007  0.951
     SPIN  2
     eigenvalues:
       0.054  0.055  0.056  0.347  0.350
     eigenvectors (columns):
      -0.003  0.012  0.012 -0.405  0.914
       0.520  0.379 -0.765 -0.001  0.006
       0.838 -0.056  0.542  0.004 -0.002
       0.006 -0.014 -0.006 -0.914 -0.405
       0.162 -0.924 -0.347  0.008  0.020
     occupation matrix ns (before diag.):
       0.350  0.002 -0.001 -0.001  0.005
       0.002  0.055 -0.001 -0.001  0.000
      -0.001 -0.001  0.055 -0.001 -0.000
      -0.001 -0.001 -0.001  0.347 -0.005
       0.005  0.000 -0.000 -0.005  0.055

     Number of occupied Hubbard levels =   28.5057

     HUBBARD ENERGY =    0.7753  (Ry)

     total cpu time spent up to now is      141.5 secs

     total energy              =   -2022.08723245 Ry
     estimated scf accuracy    <       0.78415508 Ry

     total magnetization       =    -3.00 Bohr mag/cell
     absolute magnetization    =    24.19 Bohr mag/cell

     iteration #  5     ecut=   110.00 Ry     beta= 0.30
     Davidson diagonalization with overlap

---- Real-time Memory Report at c_bands before calling an iterative solver
           895 MiB given to the printing process from OS
           491 MiB allocation reported by mallinfo(arena+hblkhd)
        665707 MiB available memory on the node where the printing process lives
------------------
     ethr =  2.44E-04,  avg # of iterations =  5.8

     =================== HUBBARD OCCUPATIONS ===================
     ------------------------ ATOM    2 ------------------------
     Tr[ns(  2)] (up, down, total) =   0.33908  3.16964  3.50873
     Atomic magnetic moment for atom   2 =  -2.83056
     SPIN  1
     eigenvalues:
       0.019  0.026  0.030  0.108  0.156
     eigenvectors (columns):
       0.011 -0.046  0.006 -0.501 -0.864
       0.146 -0.987  0.050  0.034  0.035
       0.054  0.059  0.997  0.007 -0.000
       0.019  0.014 -0.008  0.865 -0.502
       0.988  0.143 -0.062 -0.016  0.014
     occupation matrix ns (before diag.):
       0.144 -0.005 -0.000  0.021 -0.001
      -0.005  0.026  0.000  0.000 -0.001
      -0.000  0.000  0.030  0.000 -0.001
       0.021  0.000  0.000  0.120 -0.002
      -0.001 -0.001 -0.001 -0.002  0.020
     SPIN  2
     eigenvalues:
       0.144  0.200  0.913  0.956  0.957
     eigenvectors (columns):
       0.496 -0.866  0.002 -0.023  0.054
      -0.047  0.040  0.017 -0.477  0.877
      -0.004 -0.001  0.999  0.044  0.005
      -0.867 -0.498 -0.005  0.032 -0.006
       0.019  0.017 -0.041  0.877  0.478
     occupation matrix ns (before diag.):
       0.189  0.045  0.001  0.024  0.003
       0.045  0.954 -0.001 -0.018  0.001
       0.001 -0.001  0.913 -0.002  0.002
       0.024 -0.018 -0.002  0.159  0.020
       0.003  0.001  0.002  0.020  0.956
     ------------------------ ATOM    3 ------------------------
     Tr[ns(  3)] (up, down, total) =   0.39113  3.14897  3.54011
     Atomic magnetic moment for atom   3 =  -2.75784
     SPIN  1
     eigenvalues:
       0.028  0.028  0.029  0.153  0.153
     eigenvectors (columns):
      -0.005  0.001 -0.000 -0.987  0.159
       0.343 -0.748 -0.569 -0.003 -0.003
      -0.497 -0.658  0.565  0.001 -0.005
       0.001  0.005 -0.000 -0.159 -0.987
       0.797 -0.089  0.597 -0.004  0.001
     occupation matrix ns (before diag.):
       0.153  0.000 -0.000 -0.000  0.001
       0.000  0.029 -0.000  0.000 -0.000
      -0.000 -0.000  0.029  0.001  0.000
      -0.000  0.000  0.001  0.153 -0.000
       0.001 -0.000  0.000 -0.000  0.029
     SPIN  2
     eigenvalues:
       0.198  0.198  0.915  0.919  0.919
     eigenvectors (columns):
      -0.368  0.930 -0.000  0.002 -0.000
      -0.002  0.000  0.564 -0.178  0.806
      -0.001 -0.002 -0.570  0.623  0.536
      -0.930 -0.368 -0.000 -0.001 -0.002
      -0.001  0.002 -0.598 -0.762  0.250
     occupation matrix ns (before diag.):
       0.198 -0.001  0.001 -0.000 -0.001
      -0.001  0.918  0.001 -0.001  0.001
       0.001  0.001  0.918 -0.001 -0.001
      -0.000 -0.001 -0.001  0.198 -0.000
      -0.001  0.001 -0.001 -0.000  0.918
     ------------------------ ATOM    4 ------------------------
     Tr[ns(  4)] (up, down, total) =   0.33794  3.16857  3.50652
     Atomic magnetic moment for atom   4 =  -2.83063
     SPIN  1
     eigenvalues:
       0.020  0.026  0.030  0.107  0.155
     eigenvectors (columns):
      -0.008  0.088 -0.009  0.996  0.007
       0.977 -0.199  0.063  0.026 -0.015
       0.201  0.975 -0.012 -0.085 -0.034
       0.021  0.030  0.001 -0.009  0.999
      -0.060  0.025  0.998  0.007  0.000
     occupation matrix ns (before diag.):
       0.106  0.002 -0.007  0.000  0.001
       0.002  0.020 -0.001 -0.002  0.001
      -0.007 -0.001  0.027 -0.004 -0.000
       0.000 -0.002 -0.004  0.155  0.000
       0.001  0.001 -0.000  0.000  0.030
     SPIN  2
     eigenvalues:
       0.143  0.200  0.913  0.956  0.957
     eigenvectors (columns):
       0.996  0.010 -0.006 -0.077 -0.052
       0.027 -0.018  0.058  0.769 -0.636
      -0.089 -0.044 -0.018 -0.632 -0.768
      -0.014  0.999  0.001 -0.013 -0.045
       0.003 -0.001  0.998 -0.057  0.023
     occupation matrix ns (before diag.):
       0.150 -0.022  0.072  0.003 -0.002
      -0.022  0.955  0.002  0.014 -0.003
       0.072  0.002  0.948  0.032  0.001
       0.003  0.014  0.032  0.202  0.000
      -0.002 -0.003  0.001  0.000  0.914
     ------------------------ ATOM    5 ------------------------
     Tr[ns(  5)] (up, down, total) =   0.34285  3.17097  3.51383
     Atomic magnetic moment for atom   5 =  -2.82812
     SPIN  1
     eigenvalues:
       0.019  0.027  0.029  0.113  0.154
     eigenvectors (columns):
      -0.022 -0.003 -0.005 -0.499 -0.866
      -0.053 -0.047  0.997 -0.006 -0.001
       0.985  0.158  0.060 -0.021 -0.014
       0.000 -0.071 -0.008 -0.864  0.498
      -0.161  0.984  0.037 -0.060  0.035
     occupation matrix ns (before diag.):
       0.144  0.000  0.003 -0.018 -0.001
       0.000  0.029  0.001  0.000  0.000
       0.003  0.001  0.020  0.001  0.001
      -0.018  0.000  0.001  0.123  0.007
      -0.001  0.000  0.001  0.007  0.028
     SPIN  2
     eigenvalues:
       0.151  0.199  0.911  0.955  0.956
     eigenvectors (columns):
       0.507  0.862  0.003 -0.025  0.011
       0.003  0.001 -0.999 -0.050 -0.000
       0.024  0.017 -0.047  0.935 -0.350
       0.859 -0.506  0.004 -0.039 -0.072
       0.069 -0.042 -0.017  0.348  0.934
     occupation matrix ns (before diag.):
       0.187 -0.001 -0.021 -0.021 -0.000
      -0.001  0.911 -0.002 -0.002 -0.001
      -0.021 -0.002  0.954 -0.010 -0.001
      -0.021 -0.002 -0.010  0.169 -0.064
      -0.000 -0.001 -0.001 -0.064  0.950
     ------------------------ ATOM    6 ------------------------
     Tr[ns(  6)] (up, down, total) =   3.69824  0.77002  4.46826
     Atomic magnetic moment for atom   6 =   2.92822
     SPIN  1
     eigenvalues:
       0.459  0.461  0.925  0.926  0.927
     eigenvectors (columns):
      -0.999  0.054 -0.003  0.009  0.003
       0.005 -0.004 -0.694  0.140  0.706
      -0.009 -0.017 -0.233 -0.972 -0.036
      -0.053 -0.998  0.012  0.015  0.004
      -0.001  0.008  0.681 -0.189  0.707
     occupation matrix ns (before diag.):
       0.459  0.002 -0.004 -0.000 -0.001
       0.002  0.926 -0.000 -0.002  0.001
      -0.004 -0.000  0.926 -0.008  0.000
      -0.000 -0.002 -0.008  0.461  0.004
      -0.001  0.001  0.000  0.004  0.926
     SPIN  2
     eigenvalues:
       0.034  0.035  0.036  0.331  0.335
     eigenvectors (columns):
       0.008 -0.001  0.002 -0.958  0.288
       0.356 -0.601  0.715  0.004 -0.004
      -0.934 -0.249  0.255 -0.012 -0.017
       0.018  0.001 -0.012 -0.288 -0.957
       0.024 -0.759 -0.650  0.002  0.007
     occupation matrix ns (before diag.):
       0.331 -0.001  0.002 -0.001  0.000
      -0.001  0.035  0.000  0.001 -0.001
       0.002  0.000  0.035  0.006 -0.000
      -0.001  0.001  0.006  0.334 -0.002
       0.000 -0.001 -0.000 -0.002  0.035
     ------------------------ ATOM    7 ------------------------
     Tr[ns(  7)] (up, down, total) =   3.69567  0.77126  4.46693
     Atomic magnetic moment for atom   7 =   2.92441
     SPIN  1
     eigenvalues:
       0.458  0.460  0.924  0.925  0.927
     eigenvectors (columns):
      -0.470  0.883 -0.011  0.017  0.005
      -0.008  0.018  0.287 -0.957 -0.047
       0.001  0.008  0.676  0.237 -0.698
       0.883  0.470 -0.008 -0.001 -0.001
       0.005  0.004  0.679  0.168  0.715
     occupation matrix ns (before diag.):
       0.460 -0.009 -0.003  0.001 -0.000
      -0.009  0.925 -0.000 -0.001 -0.000
      -0.003 -0.000  0.926 -0.002 -0.001
       0.001 -0.001 -0.002  0.459 -0.003
      -0.000 -0.000 -0.001 -0.003  0.926
     SPIN  2
     eigenvalues:
       0.034  0.034  0.036  0.332  0.335
     eigenvectors (columns):
      -0.020 -0.002 -0.009  0.607 -0.794
       0.937  0.275  0.215  0.010 -0.019
       0.018 -0.653  0.757  0.000 -0.008
      -0.002 -0.002 -0.007 -0.795 -0.607
      -0.349  0.705  0.617 -0.004 -0.003
     occupation matrix ns (before diag.):
       0.334  0.006  0.002  0.002 -0.000
       0.006  0.034  0.000  0.001  0.000
       0.002  0.000  0.035  0.001  0.001
       0.002  0.001  0.001  0.333  0.002
      -0.000  0.000  0.001  0.002  0.035
     ------------------------ ATOM    8 ------------------------
     Tr[ns(  8)] (up, down, total) =   3.69668  0.77148  4.46817
     Atomic magnetic moment for atom   8 =   2.92520
     SPIN  1
     eigenvalues:
       0.459  0.461  0.925  0.926  0.927
     eigenvectors (columns):
       0.622  0.783  0.012  0.009  0.002
       0.003  0.008 -0.684  0.230 -0.692
      -0.006 -0.003  0.694 -0.090 -0.715
       0.783 -0.622 -0.004 -0.015 -0.006
      -0.006  0.019 -0.226 -0.969 -0.098
     occupation matrix ns (before diag.):
       0.460 -0.004  0.003 -0.001 -0.005
      -0.004  0.926  0.001  0.001 -0.000
       0.003  0.001  0.926  0.001  0.000
      -0.001  0.001  0.001  0.459  0.008
      -0.005 -0.000  0.000  0.008  0.926
     SPIN  2
     eigenvalues:
       0.034  0.035  0.036  0.331  0.336
     eigenvectors (columns):
       0.009  0.007  0.012  0.294 -0.956
      -0.189  0.564 -0.804 -0.001 -0.008
      -0.615  0.571  0.545 -0.004  0.004
      -0.015 -0.006 -0.005  0.956  0.294
      -0.766 -0.597 -0.239 -0.011 -0.018
     occupation matrix ns (before diag.):
       0.335  0.002 -0.001 -0.001  0.004
       0.002  0.035 -0.001 -0.001  0.000
      -0.001 -0.001  0.035 -0.001 -0.000
      -0.001 -0.001 -0.001  0.331 -0.005
       0.004  0.000 -0.000 -0.005  0.035

     Number of occupied Hubbard levels =   27.4725

     HUBBARD ENERGY =    0.7403  (Ry)

     total cpu time spent up to now is      172.3 secs

     total energy              =   -2021.96985744 Ry
     estimated scf accuracy    <       0.66458434 Ry

     total magnetization       =    -3.00 Bohr mag/cell
     absolute magnetization    =    23.70 Bohr mag/cell

     iteration #  6     ecut=   110.00 Ry     beta= 0.30
     Davidson diagonalization with overlap

---- Real-time Memory Report at c_bands before calling an iterative solver
           904 MiB given to the printing process from OS
           500 MiB allocation reported by mallinfo(arena+hblkhd)
        665633 MiB available memory on the node where the printing process lives
------------------
     ethr =  2.07E-04,  avg # of iterations =  4.6

     =================== HUBBARD OCCUPATIONS ===================
     ------------------------ ATOM    2 ------------------------
     Tr[ns(  2)] (up, down, total) =   0.34153  3.18970  3.53123
     Atomic magnetic moment for atom   2 =  -2.84817
     SPIN  1
     eigenvalues:
       0.018  0.025  0.028  0.111  0.159
     eigenvectors (columns):
       0.011 -0.047  0.006 -0.499 -0.866
       0.144 -0.986  0.064  0.033  0.036
       0.054  0.073  0.996  0.007 -0.000
       0.019  0.013 -0.008  0.866 -0.499
       0.988  0.140 -0.064 -0.017  0.014
     occupation matrix ns (before diag.):
       0.147 -0.006 -0.000  0.021 -0.001
      -0.006  0.025  0.000  0.000 -0.001
      -0.000  0.000  0.028  0.000 -0.001
       0.021  0.000  0.000  0.123 -0.002
      -0.001 -0.001 -0.001 -0.002  0.018
     SPIN  2
     eigenvalues:
       0.151  0.210  0.914  0.957  0.958
     eigenvectors (columns):
       0.495 -0.867  0.002 -0.021  0.053
      -0.047  0.039  0.016 -0.446  0.893
      -0.003 -0.001  0.999  0.043  0.003
      -0.867 -0.497 -0.005  0.032 -0.008
       0.019  0.017 -0.039  0.893  0.447
     occupation matrix ns (before diag.):
       0.198  0.044  0.001  0.024  0.003
       0.044  0.955 -0.001 -0.018  0.001
       0.001 -0.001  0.914 -0.002  0.002
       0.024 -0.018 -0.002  0.166  0.020
       0.003  0.001  0.002  0.020  0.957
     ------------------------ ATOM    3 ------------------------
     Tr[ns(  3)] (up, down, total) =   0.39131  3.17145  3.56277
     Atomic magnetic moment for atom   3 =  -2.78014
     SPIN  1
     eigenvalues:
       0.026  0.026  0.027  0.156  0.156
     eigenvectors (columns):
      -0.005  0.001 -0.000 -0.950  0.313
       0.293 -0.765 -0.573 -0.003 -0.003
      -0.545 -0.626  0.557  0.000 -0.005
       0.001  0.006 -0.000 -0.313 -0.950
       0.786 -0.149  0.600 -0.004  0.002
     occupation matrix ns (before diag.):
       0.156  0.000 -0.000 -0.000  0.001
       0.000  0.027 -0.000  0.000 -0.000
      -0.000 -0.000  0.026  0.001  0.000
      -0.000  0.000  0.001  0.156 -0.000
       0.001 -0.000  0.000 -0.000  0.027
     SPIN  2
     eigenvalues:
       0.207  0.207  0.917  0.920  0.920
     eigenvectors (columns):
      -0.320  0.947 -0.000  0.002 -0.001
      -0.002  0.000  0.553 -0.124  0.824
      -0.001 -0.002 -0.576  0.657  0.486
      -0.947 -0.320  0.000 -0.001 -0.002
      -0.001  0.002 -0.602 -0.744  0.292
     occupation matrix ns (before diag.):
       0.207 -0.001  0.001 -0.000 -0.001
      -0.001  0.919  0.001 -0.001  0.001
       0.001  0.001  0.919 -0.001 -0.001
      -0.000 -0.001 -0.001  0.207 -0.000
      -0.001  0.001 -0.001 -0.000  0.919
     ------------------------ ATOM    4 ------------------------
     Tr[ns(  4)] (up, down, total) =   0.34083  3.18864  3.52947
     Atomic magnetic moment for atom   4 =  -2.84780
     SPIN  1
     eigenvalues:
       0.018  0.026  0.028  0.111  0.158
     eigenvectors (columns):
      -0.008  0.091 -0.009  0.996  0.008
       0.978 -0.196  0.065  0.026 -0.015
       0.198  0.975 -0.009 -0.088 -0.035
       0.022  0.031  0.001 -0.011  0.999
      -0.062  0.023  0.998  0.006  0.000
     occupation matrix ns (before diag.):
       0.110  0.002 -0.007  0.000  0.001
       0.002  0.019 -0.002 -0.002  0.001
      -0.007 -0.002  0.026 -0.005  0.000
       0.000 -0.002 -0.005  0.158  0.000
       0.001  0.001  0.000  0.000  0.028
     SPIN  2
     eigenvalues:
       0.149  0.209  0.915  0.957  0.958
     eigenvectors (columns):
       0.996  0.011 -0.006 -0.071 -0.061
       0.027 -0.018  0.058  0.835 -0.546
      -0.089 -0.044 -0.018 -0.542 -0.834
      -0.015  0.999  0.001 -0.008 -0.045
       0.002 -0.001  0.998 -0.059  0.016
     occupation matrix ns (before diag.):
       0.157 -0.021  0.072  0.003 -0.002
      -0.021  0.956  0.002  0.014 -0.002
       0.072  0.002  0.950  0.031  0.001
       0.003  0.014  0.031  0.211  0.000
      -0.002 -0.002  0.001  0.000  0.915
     ------------------------ ATOM    5 ------------------------
     Tr[ns(  5)] (up, down, total) =   0.34591  3.18998  3.53590
     Atomic magnetic moment for atom   5 =  -2.84407
     SPIN  1
     eigenvalues:
       0.018  0.027  0.028  0.117  0.157
     eigenvectors (columns):
      -0.023 -0.003 -0.005 -0.501 -0.865
      -0.055 -0.074  0.996 -0.006 -0.000
       0.986  0.152  0.066 -0.022 -0.014
      -0.001 -0.072 -0.010 -0.863  0.500
      -0.157  0.983  0.064 -0.062  0.036
     occupation matrix ns (before diag.):
       0.147  0.000  0.003 -0.017 -0.001
       0.000  0.028  0.001  0.000  0.000
       0.003  0.001  0.019  0.001  0.001
      -0.017  0.000  0.001  0.126  0.007
      -0.001  0.000  0.001  0.007  0.027
     SPIN  2
     eigenvalues:
       0.158  0.208  0.912  0.955  0.956
     eigenvectors (columns):
       0.508  0.861  0.003 -0.025  0.011
       0.003  0.001 -0.999 -0.049  0.001
       0.024  0.017 -0.046  0.933 -0.355
       0.858 -0.507  0.004 -0.039 -0.071
       0.069 -0.042 -0.016  0.353  0.932
     occupation matrix ns (before diag.):
       0.195 -0.001 -0.021 -0.021 -0.001
      -0.001  0.912 -0.002 -0.002 -0.001
      -0.021 -0.002  0.955 -0.010 -0.001
      -0.021 -0.002 -0.010  0.176 -0.063
      -0.001 -0.001 -0.001 -0.063  0.951
     ------------------------ ATOM    6 ------------------------
     Tr[ns(  6)] (up, down, total) =   3.89735  0.84468  4.74203
     Atomic magnetic moment for atom   6 =   3.05267
     SPIN  1
     eigenvalues:
       0.523  0.524  0.950  0.950  0.951
     eigenvectors (columns):
       0.988 -0.153  0.006  0.007  0.003
      -0.004  0.004 -0.252  0.627  0.737
       0.011  0.016 -0.945 -0.323 -0.048
       0.153  0.988  0.019 -0.002  0.003
       0.001 -0.008  0.208 -0.709  0.674
     occupation matrix ns (before diag.):
       0.523  0.002 -0.003 -0.000 -0.001
       0.002  0.950 -0.000 -0.002  0.000
      -0.003 -0.000  0.949 -0.007  0.000
      -0.000 -0.002 -0.007  0.524  0.003
      -0.001  0.000  0.000  0.003  0.950
     SPIN  2
     eigenvalues:
       0.045  0.046  0.048  0.351  0.355
     eigenvectors (columns):
       0.007  0.002 -0.003 -0.969 -0.248
       0.162  0.647 -0.745  0.004  0.004
      -0.985  0.064 -0.159 -0.011  0.018
       0.019  0.003  0.010 -0.248  0.969
      -0.056  0.759  0.648  0.001 -0.007
     occupation matrix ns (before diag.):
       0.351 -0.001  0.002 -0.001  0.000
      -0.001  0.047  0.000  0.001 -0.001
       0.002  0.000  0.045  0.006 -0.000
      -0.001  0.001  0.006  0.354 -0.002
       0.000 -0.001 -0.000 -0.002  0.047
     ------------------------ ATOM    7 ------------------------
     Tr[ns(  7)] (up, down, total) =   3.89506  0.84364  4.73869
     Atomic magnetic moment for atom   7 =   3.05142
     SPIN  1
     eigenvalues:
       0.522  0.524  0.949  0.950  0.950
     eigenvectors (columns):
      -0.471  0.882  0.020  0.001 -0.004
      -0.008  0.018 -0.985  0.164  0.045
       0.002  0.007 -0.088 -0.717  0.692
       0.882  0.471  0.003  0.007  0.000
       0.004  0.003 -0.146 -0.678 -0.721
     occupation matrix ns (before diag.):
       0.524 -0.008 -0.002  0.001 -0.000
      -0.008  0.949 -0.000 -0.001 -0.000
      -0.002 -0.000  0.950 -0.002 -0.000
       0.001 -0.001 -0.002  0.523 -0.002
      -0.000 -0.000 -0.000 -0.002  0.950
     SPIN  2
     eigenvalues:
       0.044  0.046  0.047  0.351  0.355
     eigenvectors (columns):
      -0.021  0.001  0.007  0.633 -0.774
       0.985  0.108 -0.134  0.010 -0.019
      -0.041 -0.612 -0.790  0.000 -0.007
      -0.003 -0.002  0.007 -0.774 -0.633
      -0.168  0.784 -0.598 -0.004 -0.003
     occupation matrix ns (before diag.):
       0.353  0.007  0.002  0.002 -0.000
       0.007  0.044  0.000  0.001  0.000
       0.002  0.000  0.047  0.001  0.001
       0.002  0.001  0.001  0.353  0.002
      -0.000  0.000  0.001  0.002  0.046
     ------------------------ ATOM    8 ------------------------
     Tr[ns(  8)] (up, down, total) =   3.89613  0.84553  4.74166
     Atomic magnetic moment for atom   8 =   3.05060
     SPIN  1
     eigenvalues:
       0.522  0.524  0.949  0.950  0.951
     eigenvectors (columns):
      -0.615  0.788 -0.013  0.005 -0.002
      -0.003  0.007  0.196 -0.633  0.749
       0.005 -0.003 -0.263  0.702  0.662
      -0.788 -0.615  0.015  0.006  0.003
       0.006  0.019  0.944  0.327  0.029
     occupation matrix ns (before diag.):
       0.524 -0.003  0.002 -0.001 -0.005
      -0.003  0.950  0.000  0.001 -0.000
       0.002  0.000  0.950  0.001  0.000
      -0.001  0.001  0.001  0.523  0.007
      -0.005 -0.000  0.000  0.007  0.949
     SPIN  2
     eigenvalues:
       0.045  0.046  0.048  0.351  0.356
     eigenvectors (columns):
      -0.012 -0.003  0.010  0.344 -0.939
       0.001 -0.526 -0.851 -0.000 -0.008
       0.270 -0.819  0.506 -0.004  0.003
       0.016  0.000 -0.003  0.939  0.343
       0.963  0.230 -0.141 -0.010 -0.019
     occupation matrix ns (before diag.):
       0.355  0.002 -0.001 -0.002  0.004
       0.002  0.047 -0.001 -0.001  0.000
      -0.001 -0.001  0.046 -0.001 -0.000
      -0.002 -0.001 -0.001  0.351 -0.005
       0.004  0.000 -0.000 -0.005  0.045

     Number of occupied Hubbard levels =   28.3818

     HUBBARD ENERGY =    0.7534  (Ry)

     total cpu time spent up to now is      203.2 secs

     total energy              =   -2022.07671962 Ry
     estimated scf accuracy    <       0.14434724 Ry

     total magnetization       =    -3.00 Bohr mag/cell
     absolute magnetization    =    24.80 Bohr mag/cell

     iteration #  7     ecut=   110.00 Ry     beta= 0.30
     Davidson diagonalization with overlap

---- Real-time Memory Report at c_bands before calling an iterative solver
           914 MiB given to the printing process from OS
           510 MiB allocation reported by mallinfo(arena+hblkhd)
        665067 MiB available memory on the node where the printing process lives
------------------
     c_bands:  2 eigenvalues not converged
     ethr =  4.50E-05,  avg # of iterations = 14.4

     =================== HUBBARD OCCUPATIONS ===================
     ------------------------ ATOM    2 ------------------------
     Tr[ns(  2)] (up, down, total) =   0.34303  3.18019  3.52322
     Atomic magnetic moment for atom   2 =  -2.83716
     SPIN  1
     eigenvalues:
       0.018  0.024  0.027  0.113  0.161
     eigenvectors (columns):
       0.011 -0.047  0.007 -0.498 -0.866
       0.145 -0.986  0.067  0.033  0.037
       0.055  0.076  0.996  0.007  0.000
       0.020  0.013 -0.008  0.867 -0.498
       0.988  0.141 -0.065 -0.017  0.014
     occupation matrix ns (before diag.):
       0.149 -0.006 -0.000  0.021 -0.001
      -0.006  0.025  0.000  0.000 -0.001
      -0.000  0.000  0.027  0.001 -0.001
       0.021  0.000  0.001  0.125 -0.002
      -0.001 -0.001 -0.001 -0.002  0.018
     SPIN  2
     eigenvalues:
       0.147  0.209  0.912  0.955  0.956
     eigenvectors (columns):
       0.495 -0.867  0.002 -0.019  0.054
      -0.046  0.040  0.018 -0.416  0.907
      -0.004 -0.001  0.999  0.046  0.001
      -0.867 -0.497 -0.005  0.031 -0.008
       0.019  0.017 -0.042  0.907  0.417
     occupation matrix ns (before diag.):
       0.196  0.044  0.001  0.026  0.003
       0.044  0.953 -0.001 -0.018  0.001
       0.001 -0.001  0.912 -0.002  0.002
       0.026 -0.018 -0.002  0.163  0.020
       0.003  0.001  0.002  0.020  0.955
     ------------------------ ATOM    3 ------------------------
     Tr[ns(  3)] (up, down, total) =   0.39229  3.15116  3.54345
     Atomic magnetic moment for atom   3 =  -2.75888
     SPIN  1
     eigenvalues:
       0.025  0.025  0.026  0.158  0.158
     eigenvectors (columns):
      -0.005 -0.002  0.000 -0.981 -0.192
       0.178  0.802 -0.570 -0.004  0.004
      -0.624  0.540  0.564  0.001  0.005
       0.002 -0.006 -0.000 -0.192  0.981
       0.761  0.256  0.597 -0.004 -0.001
     occupation matrix ns (before diag.):
       0.158  0.000 -0.000 -0.000  0.001
       0.000  0.025 -0.000  0.001 -0.000
      -0.000 -0.000  0.025  0.001  0.000
      -0.000  0.001  0.001  0.158  0.000
       0.001 -0.000  0.000  0.000  0.025
     SPIN  2
     eigenvalues:
       0.206  0.206  0.910  0.914  0.915
     eigenvectors (columns):
      -0.485  0.875 -0.000  0.003 -0.001
      -0.002 -0.000  0.540 -0.047  0.841
      -0.001 -0.002 -0.589  0.692  0.417
      -0.875 -0.485  0.000 -0.001 -0.003
      -0.001  0.002 -0.601 -0.720  0.346
     occupation matrix ns (before diag.):
       0.206 -0.001  0.001 -0.000 -0.002
      -0.001  0.913  0.002 -0.001  0.002
       0.001  0.002  0.913 -0.001 -0.001
      -0.000 -0.001 -0.001  0.206 -0.000
      -0.002  0.002 -0.001 -0.000  0.913
     ------------------------ ATOM    4 ------------------------
     Tr[ns(  4)] (up, down, total) =   0.34257  3.17914  3.52171
     Atomic magnetic moment for atom   4 =  -2.83657
     SPIN  1
     eigenvalues:
       0.018  0.025  0.027  0.113  0.160
     eigenvectors (columns):
      -0.008  0.094 -0.009  0.995  0.011
       0.978 -0.194  0.067  0.027 -0.015
       0.196  0.976 -0.008 -0.090 -0.037
       0.022  0.032  0.001 -0.013  0.999
      -0.064  0.021  0.998  0.006  0.000
     occupation matrix ns (before diag.):
       0.112  0.002 -0.008  0.000  0.001
       0.002  0.018 -0.002 -0.002  0.001
      -0.008 -0.002  0.026 -0.005  0.000
       0.000 -0.002 -0.005  0.160  0.000
       0.001  0.001  0.000  0.000  0.027
     SPIN  2
     eigenvalues:
       0.146  0.209  0.913  0.955  0.957
     eigenvectors (columns):
      -0.995 -0.011 -0.006 -0.059 -0.074
      -0.027  0.018  0.063  0.921 -0.384
       0.090  0.044 -0.020 -0.380 -0.919
       0.015 -0.999  0.001  0.000 -0.047
      -0.003  0.001  0.998 -0.066  0.005
     occupation matrix ns (before diag.):
       0.153 -0.021  0.073  0.003 -0.002
      -0.021  0.954  0.002  0.014 -0.003
       0.073  0.002  0.948  0.032  0.001
       0.003  0.014  0.032  0.210  0.000
      -0.002 -0.003  0.001  0.000  0.913
     ------------------------ ATOM    5 ------------------------
     Tr[ns(  5)] (up, down, total) =   0.34765  3.17874  3.52639
     Atomic magnetic moment for atom   5 =  -2.83109
     SPIN  1
     eigenvalues:
       0.018  0.026  0.027  0.119  0.159
     eigenvectors (columns):
      -0.023 -0.003  0.005  0.505 -0.863
      -0.056 -0.103 -0.993  0.006 -0.000
       0.986  0.149 -0.071  0.022 -0.014
      -0.000 -0.073  0.013  0.861  0.504
      -0.156  0.981 -0.092  0.063  0.037
     occupation matrix ns (before diag.):
       0.149  0.000  0.003 -0.017 -0.001
       0.000  0.027  0.001  0.000  0.000
       0.003  0.001  0.018  0.001  0.001
      -0.017  0.000  0.001  0.128  0.007
      -0.001  0.000  0.001  0.007  0.026
     SPIN  2
     eigenvalues:
       0.155  0.207  0.909  0.953  0.955
     eigenvectors (columns):
       0.508  0.861  0.003 -0.025  0.010
       0.003  0.001 -0.999 -0.054 -0.001
       0.024  0.017 -0.050  0.939 -0.340
       0.858 -0.507  0.004 -0.038 -0.072
       0.069 -0.042 -0.019  0.338  0.938
     occupation matrix ns (before diag.):
       0.194 -0.001 -0.021 -0.023 -0.001
      -0.001  0.909 -0.002 -0.002 -0.001
      -0.021 -0.002  0.953 -0.010 -0.001
      -0.023 -0.002 -0.010  0.174 -0.063
      -0.001 -0.001 -0.001 -0.063  0.949
     ------------------------ ATOM    6 ------------------------
     Tr[ns(  6)] (up, down, total) =   3.87988  0.89674  4.77662
     Atomic magnetic moment for atom   6 =   2.98314
     SPIN  1
     eigenvalues:
       0.514  0.519  0.948  0.949  0.950
     eigenvectors (columns):
      -0.957 -0.290 -0.007  0.006  0.003
       0.003  0.005  0.160  0.621  0.767
      -0.013  0.014  0.978 -0.203 -0.039
      -0.290  0.957 -0.019 -0.006  0.003
       0.001 -0.009 -0.132 -0.757  0.640
     occupation matrix ns (before diag.):
       0.515  0.002 -0.004 -0.001 -0.001
       0.002  0.949 -0.000 -0.002  0.001
      -0.004 -0.000  0.948 -0.007  0.000
      -0.001 -0.002 -0.007  0.518  0.004
      -0.001  0.001  0.000  0.004  0.949
     SPIN  2
     eigenvalues:
       0.048  0.050  0.052  0.371  0.376
     eigenvectors (columns):
       0.007  0.002 -0.003 -0.942 -0.335
       0.117  0.622 -0.774  0.003  0.005
      -0.991  0.026 -0.128 -0.013  0.016
       0.018  0.004  0.010 -0.335  0.942
      -0.060  0.783  0.619  0.002 -0.008
     occupation matrix ns (before diag.):
       0.372 -0.002  0.002 -0.002  0.000
      -0.002  0.051  0.000  0.001 -0.001
       0.002  0.000  0.048  0.006 -0.000
      -0.002  0.001  0.006  0.375 -0.003
       0.000 -0.001 -0.000 -0.003  0.051
     ------------------------ ATOM    7 ------------------------
     Tr[ns(  7)] (up, down, total) =   3.87918  0.89678  4.77596
     Atomic magnetic moment for atom   7 =   2.98240
     SPIN  1
     eigenvalues:
       0.514  0.519  0.948  0.949  0.950
     eigenvectors (columns):
       0.708 -0.706  0.020  0.003 -0.004
       0.013 -0.015 -0.990  0.135  0.029
       0.000 -0.009 -0.080 -0.734  0.674
      -0.706 -0.708  0.002  0.008  0.000
      -0.003 -0.005 -0.112 -0.665 -0.738
     occupation matrix ns (before diag.):
       0.516 -0.009 -0.003  0.003 -0.001
      -0.009  0.948 -0.000 -0.001 -0.000
      -0.003 -0.000  0.949 -0.003 -0.000
       0.003 -0.001 -0.003  0.516 -0.003
      -0.001 -0.000 -0.000 -0.003  0.949
     SPIN  2
     eigenvalues:
       0.047  0.050  0.052  0.371  0.377
     eigenvectors (columns):
      -0.021  0.002  0.007 -0.714  0.699
       0.991  0.073 -0.107 -0.013  0.017
      -0.040 -0.618 -0.785 -0.001  0.008
      -0.003 -0.002  0.007  0.700  0.714
      -0.123  0.783 -0.610  0.004  0.004
     occupation matrix ns (before diag.):
       0.374  0.007  0.002  0.003  0.000
       0.007  0.048  0.000  0.001  0.000
       0.002  0.000  0.051  0.002  0.001
       0.003  0.001  0.002  0.374  0.002
       0.000  0.000  0.001  0.002  0.050
     ------------------------ ATOM    8 ------------------------
     Tr[ns(  8)] (up, down, total) =   3.87941  0.89760  4.77701
     Atomic magnetic moment for atom   8 =   2.98182
     SPIN  1
     eigenvalues:
       0.514  0.519  0.948  0.949  0.950
     eigenvectors (columns):
      -0.392  0.920 -0.013  0.008 -0.002
      -0.001  0.009  0.107 -0.667  0.737
       0.004 -0.005 -0.144  0.723  0.675
      -0.920 -0.392  0.016  0.003  0.004
       0.011  0.017  0.984  0.178  0.019
     occupation matrix ns (before diag.):
       0.518 -0.004  0.003 -0.002 -0.005
      -0.004  0.949  0.001  0.001 -0.000
       0.003  0.001  0.949  0.001  0.000
      -0.002  0.001  0.001  0.515  0.007
      -0.005 -0.000  0.000  0.007  0.948
     SPIN  2
     eigenvalues:
       0.048  0.050  0.052  0.371  0.377
     eigenvectors (columns):
      -0.012 -0.002  0.010  0.322 -0.947
      -0.030 -0.498 -0.867 -0.000 -0.008
       0.176 -0.856  0.486 -0.004  0.004
       0.016 -0.001 -0.003  0.947  0.322
       0.984  0.138 -0.113 -0.011 -0.018
     occupation matrix ns (before diag.):
       0.376  0.002 -0.002 -0.002  0.004
       0.002  0.051 -0.001 -0.001  0.000
      -0.002 -0.001  0.050 -0.001 -0.000
      -0.002 -0.001 -0.001  0.371 -0.005
       0.004  0.000 -0.000 -0.005  0.048

     Number of occupied Hubbard levels =   28.4444

     HUBBARD ENERGY =    0.7597  (Ry)

     total cpu time spent up to now is      238.1 secs

     total energy              =   -2022.03950906 Ry
     estimated scf accuracy    <       0.15449003 Ry

     total magnetization       =    -3.00 Bohr mag/cell
     absolute magnetization    =    24.69 Bohr mag/cell

     iteration #  8     ecut=   110.00 Ry     beta= 0.30
     Davidson diagonalization with overlap

---- Real-time Memory Report at c_bands before calling an iterative solver
           924 MiB given to the printing process from OS
           520 MiB allocation reported by mallinfo(arena+hblkhd)
        665007 MiB available memory on the node where the printing process lives
------------------
     ethr =  4.50E-05,  avg # of iterations =  8.6

     =================== HUBBARD OCCUPATIONS ===================
     ------------------------ ATOM    2 ------------------------
     Tr[ns(  2)] (up, down, total) =   0.34186  3.15155  3.49342
     Atomic magnetic moment for atom   2 =  -2.80969
     SPIN  1
     eigenvalues:
       0.018  0.024  0.028  0.111  0.161
     eigenvectors (columns):
       0.011 -0.047  0.006 -0.497 -0.866
       0.149 -0.986  0.053  0.033  0.037
       0.053  0.062  0.997  0.007 -0.000
       0.020  0.013 -0.008  0.867 -0.498
       0.987  0.145 -0.062 -0.017  0.014
     occupation matrix ns (before diag.):
       0.148 -0.006 -0.000  0.021 -0.001
      -0.006  0.024  0.000 -0.000 -0.001
      -0.000  0.000  0.028  0.001 -0.001
       0.021 -0.000  0.001  0.123 -0.002
      -0.001 -0.001 -0.001 -0.002  0.018
     SPIN  2
     eigenvalues:
       0.137  0.202  0.907  0.952  0.953
     eigenvectors (columns):
       0.495 -0.867  0.002  0.013  0.056
      -0.046  0.040  0.021  0.317  0.946
      -0.004 -0.000  0.999 -0.049 -0.006
      -0.867 -0.497 -0.005 -0.030 -0.011
       0.019  0.017 -0.044 -0.947  0.318
     occupation matrix ns (before diag.):
       0.189  0.045  0.001  0.027  0.003
       0.045  0.950 -0.001 -0.018  0.001
       0.001 -0.001  0.907 -0.002  0.002
       0.027 -0.018 -0.002  0.154  0.020
       0.003  0.001  0.002  0.020  0.952
     ------------------------ ATOM    3 ------------------------
     Tr[ns(  3)] (up, down, total) =   0.39210  3.10892  3.50102
     Atomic magnetic moment for atom   3 =  -2.71682
     SPIN  1
     eigenvalues:
       0.025  0.025  0.026  0.158  0.158
     eigenvectors (columns):
      -0.005  0.002  0.000 -0.961  0.276
       0.145 -0.796 -0.588 -0.004 -0.003
      -0.635 -0.531  0.562  0.001 -0.005
       0.002  0.006  0.000 -0.276 -0.961
       0.759 -0.292  0.582 -0.004  0.001
     occupation matrix ns (before diag.):
       0.158  0.000 -0.000 -0.000  0.001
       0.000  0.026 -0.000  0.001 -0.000
      -0.000 -0.000  0.026  0.001  0.000
      -0.000  0.001  0.001  0.158 -0.000
       0.001 -0.000  0.000 -0.000  0.026
     SPIN  2
     eigenvalues:
       0.199  0.199  0.900  0.906  0.906
     eigenvectors (columns):
       0.433  0.901  0.000 -0.003 -0.001
       0.003 -0.000  0.532 -0.001  0.847
       0.001 -0.002 -0.595 -0.712  0.373
       0.901 -0.433 -0.000  0.002 -0.003
       0.001  0.003 -0.603  0.702  0.379
     occupation matrix ns (before diag.):
       0.199 -0.001  0.001 -0.000 -0.002
      -0.001  0.904  0.002 -0.002  0.002
       0.001  0.002  0.904 -0.001 -0.002
      -0.000 -0.002 -0.001  0.199  0.000
      -0.002  0.002 -0.002  0.000  0.903
     ------------------------ ATOM    4 ------------------------
     Tr[ns(  4)] (up, down, total) =   0.34130  3.15059  3.49189
     Atomic magnetic moment for atom   4 =  -2.80928
     SPIN  1
     eigenvalues:
       0.018  0.025  0.028  0.111  0.160
     eigenvectors (columns):
      -0.008  0.093 -0.008  0.995  0.011
       0.978 -0.196  0.067  0.027 -0.015
       0.198  0.975 -0.010 -0.090 -0.037
       0.022  0.032  0.001 -0.014  0.999
      -0.064  0.024  0.998  0.006  0.000
     occupation matrix ns (before diag.):
       0.110  0.002 -0.008  0.000  0.000
       0.002  0.019 -0.001 -0.002  0.001
      -0.008 -0.001  0.025 -0.005  0.000
       0.000 -0.002 -0.005  0.160  0.000
       0.000  0.001  0.000  0.000  0.028
     SPIN  2
     eigenvalues:
       0.136  0.202  0.907  0.952  0.953
     eigenvectors (columns):
      -0.995  0.012 -0.006 -0.050  0.082
      -0.027 -0.018  0.067  0.961  0.265
       0.092 -0.045 -0.021 -0.262  0.960
       0.015  0.999  0.001  0.006  0.047
      -0.003 -0.000  0.998 -0.070  0.003
     occupation matrix ns (before diag.):
       0.144 -0.022  0.075  0.004 -0.002
      -0.022  0.951  0.002  0.014 -0.003
       0.075  0.002  0.945  0.032  0.001
       0.004  0.014  0.032  0.204  0.000
      -0.002 -0.003  0.001  0.000  0.907
     ------------------------ ATOM    5 ------------------------
     Tr[ns(  5)] (up, down, total) =   0.34644  3.15015  3.49659
     Atomic magnetic moment for atom   5 =  -2.80371
     SPIN  1
     eigenvalues:
       0.018  0.026  0.027  0.117  0.159
     eigenvectors (columns):
      -0.023 -0.003 -0.005 -0.505 -0.863
      -0.056 -0.055  0.997 -0.006 -0.000
       0.985  0.156  0.064 -0.023 -0.014
      -0.000 -0.074 -0.009 -0.860  0.504
      -0.159  0.984  0.045 -0.063  0.037
     occupation matrix ns (before diag.):
       0.148  0.000  0.003 -0.018 -0.001
       0.000  0.027  0.001  0.000  0.000
       0.003  0.001  0.018  0.001  0.001
      -0.018  0.000  0.001  0.127  0.007
      -0.001  0.000  0.001  0.007  0.026
     SPIN  2
     eigenvalues:
       0.145  0.202  0.903  0.949  0.951
     eigenvectors (columns):
       0.508  0.861  0.003 -0.026  0.009
       0.003  0.001 -0.998 -0.057 -0.006
       0.024  0.017 -0.054  0.963 -0.264
       0.858 -0.507  0.005 -0.033 -0.076
       0.070 -0.043 -0.021  0.262  0.961
     occupation matrix ns (before diag.):
       0.188 -0.001 -0.021 -0.025 -0.001
      -0.001  0.903 -0.003 -0.002 -0.001
      -0.021 -0.003  0.949 -0.010 -0.001
      -0.025 -0.002 -0.010  0.165 -0.065
      -0.001 -0.001 -0.001 -0.065  0.946
     ------------------------ ATOM    6 ------------------------
     Tr[ns(  6)] (up, down, total) =   3.75499  0.81211  4.56710
     Atomic magnetic moment for atom   6 =   2.94288
     SPIN  1
     eigenvalues:
       0.471  0.478  0.934  0.935  0.937
     eigenvectors (columns):
      -0.946 -0.324 -0.007  0.007  0.004
       0.004  0.007  0.163  0.611  0.774
      -0.013  0.014  0.972 -0.233 -0.021
      -0.324  0.946 -0.019 -0.007  0.003
       0.002 -0.010 -0.167 -0.756  0.632
     occupation matrix ns (before diag.):
       0.471  0.003 -0.004 -0.002 -0.001
       0.003  0.936 -0.000 -0.002  0.001
      -0.004 -0.000  0.934 -0.008  0.000
      -0.002 -0.002 -0.008  0.477  0.005
      -0.001  0.001  0.000  0.005  0.936
     SPIN  2
     eigenvalues:
       0.041  0.043  0.044  0.339  0.345
     eigenvectors (columns):
       0.007  0.002 -0.004 -0.906 -0.422
       0.110  0.591 -0.799  0.003  0.005
      -0.992  0.013 -0.127 -0.014  0.015
       0.018  0.004  0.010 -0.422  0.906
      -0.065  0.806  0.588  0.003 -0.008
     occupation matrix ns (before diag.):
       0.340 -0.001  0.002 -0.002  0.000
      -0.001  0.044  0.000  0.001 -0.001
       0.002  0.000  0.041  0.006 -0.000
      -0.002  0.001  0.006  0.344 -0.002
       0.000 -0.001 -0.000 -0.002  0.043
     ------------------------ ATOM    7 ------------------------
     Tr[ns(  7)] (up, down, total) =   3.75550  0.81346  4.56897
     Atomic magnetic moment for atom   7 =   2.94204
     SPIN  1
     eigenvalues:
       0.470  0.479  0.934  0.936  0.937
     eigenvectors (columns):
       0.745 -0.667  0.021  0.003 -0.005
       0.014 -0.014 -0.983  0.183  0.026
       0.002 -0.010 -0.117 -0.726  0.678
      -0.667 -0.745  0.003  0.010  0.001
      -0.004 -0.007 -0.143 -0.663 -0.735
     occupation matrix ns (before diag.):
       0.474 -0.009 -0.004  0.005 -0.001
      -0.009  0.934 -0.000 -0.000 -0.000
      -0.004 -0.000  0.936 -0.003 -0.001
       0.005 -0.000 -0.003  0.475 -0.004
      -0.001 -0.000 -0.001 -0.004  0.936
     SPIN  2
     eigenvalues:
       0.040  0.043  0.044  0.340  0.346
     eigenvectors (columns):
      -0.020  0.003  0.008 -0.746  0.666
       0.992  0.060 -0.107 -0.013  0.017
      -0.045 -0.636 -0.770 -0.002  0.008
      -0.003 -0.002  0.008  0.666  0.746
      -0.115  0.769 -0.629  0.004  0.005
     occupation matrix ns (before diag.):
       0.342  0.006  0.002  0.003  0.000
       0.006  0.040  0.000  0.001  0.000
       0.002  0.000  0.044  0.001  0.001
       0.003  0.001  0.001  0.343  0.002
       0.000  0.000  0.001  0.002  0.044
     ------------------------ ATOM    8 ------------------------
     Tr[ns(  8)] (up, down, total) =   3.75518  0.81327  4.56845
     Atomic magnetic moment for atom   8 =   2.94191
     SPIN  1
     eigenvalues:
       0.470  0.479  0.934  0.935  0.937
     eigenvectors (columns):
      -0.335  0.942 -0.013  0.009 -0.002
       0.001  0.011  0.154 -0.668  0.728
       0.005 -0.006 -0.188  0.703  0.686
      -0.942 -0.335  0.016  0.003  0.005
       0.012  0.016  0.970  0.243  0.017
     occupation matrix ns (before diag.):
       0.478 -0.004  0.003 -0.003 -0.005
      -0.004  0.936  0.001  0.002 -0.000
       0.003  0.001  0.936  0.001  0.000
      -0.003  0.002  0.001  0.471  0.007
      -0.005 -0.000  0.000  0.007  0.934
     SPIN  2
     eigenvalues:
       0.041  0.043  0.045  0.339  0.346
     eigenvectors (columns):
      -0.012 -0.002  0.011  0.303 -0.953
      -0.040 -0.497 -0.867 -0.001 -0.008
       0.158 -0.860  0.486 -0.004  0.004
       0.016 -0.002 -0.004  0.953  0.303
       0.986  0.118 -0.113 -0.011 -0.018
     occupation matrix ns (before diag.):
       0.345  0.002 -0.002 -0.002  0.004
       0.002  0.044 -0.001 -0.001  0.000
      -0.002 -0.001  0.043 -0.001 -0.000
      -0.002 -0.001 -0.001  0.340 -0.005
       0.004  0.000 -0.000 -0.005  0.041

     Number of occupied Hubbard levels =   27.6874

     HUBBARD ENERGY =    0.7611  (Ry)

     total cpu time spent up to now is      269.8 secs

     total energy              =   -2022.06865349 Ry
     estimated scf accuracy    <       0.07046273 Ry

     total magnetization       =    -3.00 Bohr mag/cell
     absolute magnetization    =    24.39 Bohr mag/cell

     iteration #  9     ecut=   110.00 Ry     beta= 0.30
     Davidson diagonalization with overlap

---- Real-time Memory Report at c_bands before calling an iterative solver
           934 MiB given to the printing process from OS
           530 MiB allocation reported by mallinfo(arena+hblkhd)
        664896 MiB available memory on the node where the printing process lives
------------------
     ethr =  2.20E-05,  avg # of iterations = 14.9

     =================== HUBBARD OCCUPATIONS ===================
     ------------------------ ATOM    2 ------------------------
     Tr[ns(  2)] (up, down, total) =   0.34069  3.14668  3.48737
     Atomic magnetic moment for atom   2 =  -2.80599
     SPIN  1
     eigenvalues:
       0.018  0.024  0.028  0.110  0.160
     eigenvectors (columns):
       0.011 -0.047  0.005 -0.497 -0.866
       0.151 -0.986  0.045  0.033  0.037
       0.054  0.054  0.997  0.007 -0.000
       0.020  0.013 -0.008  0.867 -0.498
       0.987  0.148 -0.061 -0.017  0.014
     occupation matrix ns (before diag.):
       0.148 -0.006 -0.000  0.022 -0.001
      -0.006  0.024  0.000 -0.000 -0.001
      -0.000  0.000  0.028  0.000 -0.001
       0.022 -0.000  0.000  0.123 -0.002
      -0.001 -0.001 -0.001 -0.002  0.018
     SPIN  2
     eigenvalues:
       0.135  0.201  0.906  0.952  0.953
     eigenvectors (columns):
       0.495 -0.867  0.002  0.014  0.056
      -0.046  0.040  0.021  0.327  0.943
      -0.004 -0.001  0.999 -0.049 -0.005
      -0.867 -0.497 -0.005 -0.030 -0.011
       0.019  0.017 -0.045 -0.943  0.329
     occupation matrix ns (before diag.):
       0.187  0.045  0.001  0.027  0.003
       0.045  0.950 -0.001 -0.018  0.001
       0.001 -0.001  0.906 -0.003  0.002
       0.027 -0.018 -0.003  0.152  0.020
       0.003  0.001  0.002  0.020  0.951
     ------------------------ ATOM    3 ------------------------
     Tr[ns(  3)] (up, down, total) =   0.39178  3.10030  3.49208
     Atomic magnetic moment for atom   3 =  -2.70852
     SPIN  1
     eigenvalues:
       0.025  0.026  0.026  0.157  0.157
     eigenvectors (columns):
      -0.005  0.001  0.000 -0.941  0.337
       0.300 -0.751 -0.588 -0.004 -0.003
      -0.490 -0.650  0.580  0.001 -0.005
       0.001  0.006  0.000 -0.337 -0.941
       0.818 -0.114  0.564 -0.004  0.002
     occupation matrix ns (before diag.):
       0.157  0.000 -0.000 -0.000  0.001
       0.000  0.026 -0.000  0.001 -0.000
      -0.000 -0.000  0.026  0.001  0.000
      -0.000  0.001  0.001  0.157 -0.000
       0.001 -0.000  0.000 -0.000  0.026
     SPIN  2
     eigenvalues:
       0.197  0.197  0.898  0.904  0.904
     eigenvectors (columns):
      -0.407  0.913  0.000  0.003 -0.001
      -0.003 -0.000  0.529 -0.027  0.848
      -0.001 -0.002 -0.596  0.700  0.394
      -0.913 -0.407 -0.000 -0.001 -0.003
      -0.001  0.002 -0.604 -0.714  0.354
     occupation matrix ns (before diag.):
       0.197 -0.001  0.001 -0.000 -0.002
      -0.001  0.902  0.002 -0.002  0.002
       0.001  0.002  0.902 -0.001 -0.002
      -0.000 -0.002 -0.001  0.197 -0.000
      -0.002  0.002 -0.002 -0.000  0.902
     ------------------------ ATOM    4 ------------------------
     Tr[ns(  4)] (up, down, total) =   0.34003  3.14562  3.48565
     Atomic magnetic moment for atom   4 =  -2.80558
     SPIN  1
     eigenvalues:
       0.018  0.025  0.028  0.109  0.160
     eigenvectors (columns):
      -0.008  0.094 -0.008  0.995  0.011
       0.979 -0.191  0.067  0.027 -0.015
       0.193  0.976 -0.011 -0.090 -0.037
       0.022  0.032  0.001 -0.014  0.999
      -0.064  0.024  0.998  0.006  0.000
     occupation matrix ns (before diag.):
       0.109  0.002 -0.008  0.000  0.000
       0.002  0.019 -0.001 -0.002  0.001
      -0.008 -0.001  0.025 -0.005  0.000
       0.000 -0.002 -0.005  0.159  0.000
       0.000  0.001  0.000  0.000  0.028
     SPIN  2
     eigenvalues:
       0.134  0.200  0.907  0.951  0.953
     eigenvectors (columns):
      -0.995  0.012 -0.006 -0.049  0.082
      -0.027 -0.018  0.067  0.963  0.260
       0.092 -0.045 -0.021 -0.256  0.961
       0.015  0.999  0.001  0.007  0.047
      -0.003 -0.001  0.997 -0.071  0.004
     occupation matrix ns (before diag.):
       0.142 -0.022  0.075  0.004 -0.002
      -0.022  0.951  0.002  0.014 -0.003
       0.075  0.002  0.945  0.032  0.001
       0.004  0.014  0.032  0.202  0.000
      -0.002 -0.003  0.001  0.000  0.907
     ------------------------ ATOM    5 ------------------------
     Tr[ns(  5)] (up, down, total) =   0.34522  3.14374  3.48896
     Atomic magnetic moment for atom   5 =  -2.79853
     SPIN  1
     eigenvalues:
       0.018  0.025  0.027  0.116  0.158
     eigenvectors (columns):
      -0.023 -0.003 -0.004 -0.505 -0.863
      -0.056 -0.048  0.997 -0.006 -0.000
       0.985  0.156  0.062 -0.023 -0.014
      -0.000 -0.074 -0.008 -0.860  0.504
      -0.159  0.984  0.038 -0.063  0.037
     occupation matrix ns (before diag.):
       0.148  0.000  0.003 -0.018 -0.001
       0.000  0.027  0.001  0.000  0.000
       0.003  0.001  0.018  0.001  0.001
      -0.018  0.000  0.001  0.126  0.007
      -0.001  0.000  0.001  0.007  0.026
     SPIN  2
     eigenvalues:
       0.143  0.199  0.902  0.949  0.951
     eigenvectors (columns):
       0.509  0.861  0.004 -0.026  0.009
       0.003  0.001 -0.998 -0.058 -0.006
       0.024  0.018 -0.054  0.963 -0.264
       0.858 -0.507  0.005 -0.033 -0.076
       0.070 -0.043 -0.021  0.261  0.961
     occupation matrix ns (before diag.):
       0.185 -0.001 -0.021 -0.025 -0.001
      -0.001  0.903 -0.003 -0.002 -0.001
      -0.021 -0.003  0.948 -0.010 -0.001
      -0.025 -0.002 -0.010  0.163 -0.065
      -0.001 -0.001 -0.001 -0.065  0.945
     ------------------------ ATOM    6 ------------------------
     Tr[ns(  6)] (up, down, total) =   3.75038  0.80445  4.55482
     Atomic magnetic moment for atom   6 =   2.94593
     SPIN  1
     eigenvalues:
       0.470  0.477  0.933  0.934  0.936
     eigenvectors (columns):
      -0.936 -0.352 -0.007  0.006  0.004
       0.004  0.007  0.140  0.619  0.773
      -0.014  0.013  0.980 -0.196 -0.021
      -0.352  0.936 -0.019 -0.008  0.003
       0.002 -0.010 -0.138 -0.761  0.634
     occupation matrix ns (before diag.):
       0.471  0.003 -0.004 -0.002 -0.001
       0.003  0.935 -0.000 -0.002  0.001
      -0.004 -0.000  0.933 -0.008  0.000
      -0.002 -0.002 -0.008  0.477  0.005
      -0.001  0.001  0.000  0.005  0.935
     SPIN  2
     eigenvalues:
       0.040  0.042  0.043  0.337  0.343
     eigenvectors (columns):
      -0.007  0.002 -0.004 -0.921  0.388
      -0.107  0.580 -0.808  0.003 -0.005
       0.992  0.007 -0.126 -0.014 -0.015
      -0.018  0.005  0.010 -0.388 -0.921
       0.068  0.815  0.576  0.002  0.008
     occupation matrix ns (before diag.):
       0.338 -0.001  0.002 -0.002  0.000
      -0.001  0.043  0.000  0.001 -0.001
       0.002  0.000  0.040  0.006 -0.000
      -0.002  0.001  0.006  0.342 -0.002
       0.000 -0.001 -0.000 -0.002  0.042
     ------------------------ ATOM    7 ------------------------
     Tr[ns(  7)] (up, down, total) =   3.75013  0.80521  4.55535
     Atomic magnetic moment for atom   7 =   2.94492
     SPIN  1
     eigenvalues:
       0.469  0.478  0.933  0.935  0.936
     eigenvectors (columns):
       0.752 -0.659  0.021  0.004 -0.005
       0.014 -0.014 -0.987  0.156  0.024
       0.002 -0.010 -0.096 -0.715  0.692
      -0.659 -0.752  0.003  0.010  0.001
      -0.004 -0.007 -0.125 -0.681 -0.721
     occupation matrix ns (before diag.):
       0.473 -0.009 -0.004  0.005 -0.001
      -0.009  0.933 -0.000 -0.000 -0.000
      -0.004 -0.000  0.935 -0.003 -0.001
       0.005 -0.000 -0.003  0.474 -0.004
      -0.001 -0.000 -0.001 -0.004  0.935
     SPIN  2
     eigenvalues:
       0.039  0.042  0.043  0.337  0.344
     eigenvectors (columns):
      -0.020  0.003  0.008 -0.752  0.659
       0.992  0.056 -0.108 -0.013  0.016
      -0.046 -0.644 -0.763 -0.002  0.008
      -0.003 -0.002  0.008  0.659  0.752
      -0.112  0.763 -0.637  0.004  0.005
     occupation matrix ns (before diag.):
       0.340  0.006  0.002  0.004  0.000
       0.006  0.039  0.000  0.001  0.000
       0.002  0.000  0.043  0.001  0.001
       0.004  0.001  0.001  0.341  0.002
       0.000  0.000  0.001  0.002  0.042
     ------------------------ ATOM    8 ------------------------
     Tr[ns(  8)] (up, down, total) =   3.75023  0.80539  4.55562
     Atomic magnetic moment for atom   8 =   2.94484
     SPIN  1
     eigenvalues:
       0.469  0.478  0.933  0.934  0.936
     eigenvectors (columns):
      -0.313  0.950 -0.013  0.010 -0.002
       0.001  0.011  0.119 -0.661  0.741
       0.005 -0.006 -0.149  0.726  0.672
      -0.950 -0.313  0.016  0.002  0.005
       0.012  0.015  0.982  0.190  0.012
     occupation matrix ns (before diag.):
       0.477 -0.004  0.003 -0.003 -0.005
      -0.004  0.935  0.001  0.002 -0.000
       0.003  0.001  0.935  0.001  0.000
      -0.003  0.002  0.001  0.470  0.007
      -0.005 -0.000  0.000  0.007  0.933
     SPIN  2
     eigenvalues:
       0.040  0.042  0.043  0.337  0.344
     eigenvectors (columns):
      -0.012 -0.002  0.011  0.268 -0.963
      -0.043 -0.498 -0.866 -0.001 -0.008
       0.153 -0.860  0.487 -0.004  0.004
       0.016 -0.002 -0.004  0.963  0.268
       0.987  0.111 -0.113 -0.012 -0.017
     occupation matrix ns (before diag.):
       0.343  0.002 -0.002 -0.002  0.004
       0.002  0.043 -0.001 -0.001  0.000
      -0.002 -0.001  0.042 -0.001 -0.000
      -0.002 -0.001 -0.001  0.337 -0.005
       0.004  0.000 -0.000 -0.005  0.040

     Number of occupied Hubbard levels =   27.6199

     negative rho (up, down):  7.078E-04 6.451E-04

     HUBBARD ENERGY =    0.7655  (Ry)

     total cpu time spent up to now is      299.8 secs

     total energy              =   -2022.04475039 Ry
     estimated scf accuracy    <       0.08041894 Ry

     total magnetization       =    -3.00 Bohr mag/cell
     absolute magnetization    =    24.42 Bohr mag/cell

     iteration # 10     ecut=   110.00 Ry     beta= 0.30
     Davidson diagonalization with overlap

---- Real-time Memory Report at c_bands before calling an iterative solver
           944 MiB given to the printing process from OS
           540 MiB allocation reported by mallinfo(arena+hblkhd)
        665410 MiB available memory on the node where the printing process lives
------------------
     c_bands:  1 eigenvalues not converged
     ethr =  2.20E-05,  avg # of iterations = 10.0

     =================== HUBBARD OCCUPATIONS ===================
     ------------------------ ATOM    2 ------------------------
     Tr[ns(  2)] (up, down, total) =   0.34095  3.15039  3.49134
     Atomic magnetic moment for atom   2 =  -2.80944
     SPIN  1
     eigenvalues:
       0.018  0.024  0.028  0.110  0.161
     eigenvectors (columns):
       0.011 -0.047  0.005 -0.497 -0.866
       0.150 -0.986  0.045  0.033  0.037
       0.054  0.054  0.997  0.007 -0.000
       0.020  0.013 -0.008  0.867 -0.498
       0.987  0.147 -0.061 -0.017  0.014
     occupation matrix ns (before diag.):
       0.148 -0.006 -0.000  0.022 -0.001
      -0.006  0.024  0.000 -0.000 -0.001
      -0.000  0.000  0.028  0.000 -0.001
       0.022 -0.000  0.000  0.122 -0.002
      -0.001 -0.001 -0.001 -0.002  0.018
     SPIN  2
     eigenvalues:
       0.135  0.202  0.908  0.953  0.954
     eigenvectors (columns):
       0.496 -0.867  0.002 -0.018  0.055
      -0.046  0.040  0.021 -0.389  0.919
      -0.004 -0.001  0.999  0.049 -0.002
      -0.867 -0.497 -0.005  0.031 -0.009
       0.019  0.017 -0.044  0.919  0.391
     occupation matrix ns (before diag.):
       0.188  0.044  0.001  0.028  0.003
       0.044  0.951 -0.001 -0.018  0.001
       0.001 -0.001  0.908 -0.003  0.002
       0.028 -0.018 -0.003  0.152  0.020
       0.003  0.001  0.002  0.020  0.952
     ------------------------ ATOM    3 ------------------------
     Tr[ns(  3)] (up, down, total) =   0.39217  3.09542  3.48759
     Atomic magnetic moment for atom   3 =  -2.70326
     SPIN  1
     eigenvalues:
       0.025  0.025  0.026  0.158  0.158
     eigenvectors (columns):
      -0.006  0.001  0.000 -0.891  0.455
       0.288 -0.749 -0.597 -0.004 -0.003
      -0.503 -0.649  0.571 -0.000 -0.005
       0.001  0.006  0.000 -0.455 -0.891
       0.815 -0.136  0.564 -0.004  0.002
     occupation matrix ns (before diag.):
       0.158  0.000 -0.000 -0.000  0.001
       0.000  0.026 -0.000  0.001 -0.000
      -0.000 -0.000  0.026  0.001  0.000
      -0.000  0.001  0.001  0.158 -0.000
       0.001 -0.000  0.000 -0.000  0.026
     SPIN  2
     eigenvalues:
       0.197  0.198  0.896  0.902  0.903
     eigenvectors (columns):
      -0.474  0.881  0.000  0.003 -0.001
      -0.003 -0.000  0.509 -0.029  0.860
      -0.001 -0.002 -0.604  0.700  0.381
      -0.881 -0.474  0.000 -0.001 -0.003
      -0.001  0.002 -0.613 -0.713  0.339
     occupation matrix ns (before diag.):
       0.198 -0.001  0.001 -0.000 -0.002
      -0.001  0.901  0.002 -0.002  0.002
       0.001  0.002  0.900 -0.001 -0.002
      -0.000 -0.002 -0.001  0.197 -0.000
      -0.002  0.002 -0.002 -0.000  0.900
     ------------------------ ATOM    4 ------------------------
     Tr[ns(  4)] (up, down, total) =   0.34038  3.14906  3.48944
     Atomic magnetic moment for atom   4 =  -2.80868
     SPIN  1
     eigenvalues:
       0.018  0.025  0.028  0.109  0.160
     eigenvectors (columns):
      -0.008  0.094 -0.009  0.995  0.011
       0.978 -0.194  0.068  0.027 -0.015
       0.196  0.976 -0.012 -0.090 -0.037
       0.022  0.032  0.001 -0.014  0.999
      -0.065  0.026  0.998  0.006 -0.000
     occupation matrix ns (before diag.):
       0.108  0.002 -0.008  0.000  0.000
       0.002  0.019 -0.001 -0.002  0.001
      -0.008 -0.001  0.025 -0.005 -0.000
       0.000 -0.002 -0.005  0.160  0.000
       0.000  0.001 -0.000  0.000  0.028
     SPIN  2
     eigenvalues:
       0.134  0.201  0.908  0.952  0.954
     eigenvectors (columns):
      -0.995  0.012 -0.007 -0.048  0.084
      -0.027 -0.018  0.068  0.967  0.245
       0.093 -0.044 -0.021 -0.241  0.965
       0.016  0.999  0.001  0.007  0.046
      -0.003 -0.001  0.997 -0.072  0.004
     occupation matrix ns (before diag.):
       0.142 -0.022  0.076  0.004 -0.002
      -0.022  0.951  0.002  0.014 -0.003
       0.076  0.002  0.945  0.032  0.001
       0.004  0.014  0.032  0.203  0.000
      -0.002 -0.003  0.001  0.000  0.908
     ------------------------ ATOM    5 ------------------------
     Tr[ns(  5)] (up, down, total) =   0.34530  3.14542  3.49072
     Atomic magnetic moment for atom   5 =  -2.80012
     SPIN  1
     eigenvalues:
       0.018  0.025  0.027  0.116  0.159
     eigenvectors (columns):
      -0.023 -0.004 -0.004 -0.506 -0.862
      -0.055 -0.044  0.998 -0.006 -0.000
       0.985  0.157  0.061 -0.023 -0.014
      -0.000 -0.074 -0.008 -0.860  0.505
      -0.160  0.984  0.034 -0.063  0.037
     occupation matrix ns (before diag.):
       0.148  0.000  0.003 -0.019 -0.001
       0.000  0.027  0.001  0.000  0.000
       0.003  0.001  0.018  0.001  0.001
      -0.019  0.000  0.001  0.126  0.007
      -0.001  0.000  0.001  0.007  0.026
     SPIN  2
     eigenvalues:
       0.142  0.200  0.903  0.949  0.951
     eigenvectors (columns):
       0.508  0.861  0.003 -0.026  0.009
       0.003  0.001 -0.998 -0.059 -0.005
       0.024  0.017 -0.055  0.955 -0.290
       0.858 -0.507  0.005 -0.035 -0.075
       0.070 -0.043 -0.021  0.288  0.954
     occupation matrix ns (before diag.):
       0.185 -0.001 -0.021 -0.025 -0.001
      -0.001  0.903 -0.003 -0.002 -0.001
      -0.021 -0.003  0.949 -0.010 -0.001
      -0.025 -0.002 -0.010  0.163 -0.065
      -0.001 -0.001 -0.001 -0.065  0.945
     ------------------------ ATOM    6 ------------------------
     Tr[ns(  6)] (up, down, total) =   3.82521  0.85552  4.68074
     Atomic magnetic moment for atom   6 =   2.96969
     SPIN  1
     eigenvalues:
       0.494  0.503  0.941  0.943  0.944
     eigenvectors (columns):
      -0.909 -0.416 -0.008  0.006  0.004
       0.003  0.007  0.086  0.620  0.780
      -0.015  0.012  0.994 -0.108 -0.023
      -0.416  0.909 -0.018 -0.009  0.003
       0.003 -0.009 -0.070 -0.777  0.626
     occupation matrix ns (before diag.):
       0.495  0.002 -0.004 -0.003 -0.001
       0.002  0.944 -0.000 -0.002  0.001
      -0.004 -0.000  0.941 -0.008  0.000
      -0.003 -0.002 -0.008  0.501  0.004
      -0.001  0.001  0.000  0.004  0.944
     SPIN  2
     eigenvalues:
       0.044  0.047  0.049  0.354  0.362
     eigenvectors (columns):
       0.007  0.002 -0.004 -0.890 -0.456
       0.079  0.548 -0.833  0.003  0.005
      -0.995 -0.003 -0.096 -0.015  0.014
       0.019  0.005  0.009 -0.456  0.890
      -0.055  0.836  0.545  0.003 -0.008
     occupation matrix ns (before diag.):
       0.356 -0.001  0.002 -0.003  0.000
      -0.001  0.048  0.000  0.001 -0.001
       0.002  0.000  0.044  0.006 -0.000
      -0.003  0.001  0.006  0.360 -0.003
       0.000 -0.001 -0.000 -0.003  0.048
     ------------------------ ATOM    7 ------------------------
     Tr[ns(  7)] (up, down, total) =   3.82414  0.85421  4.67834
     Atomic magnetic moment for atom   7 =   2.96993
     SPIN  1
     eigenvalues:
       0.493  0.503  0.941  0.943  0.944
     eigenvectors (columns):
       0.776 -0.630  0.021  0.005 -0.005
       0.015 -0.014 -0.995  0.091  0.019
       0.002 -0.010 -0.050 -0.705  0.707
      -0.630 -0.776  0.002  0.009  0.001
      -0.003 -0.006 -0.078 -0.703 -0.707
     occupation matrix ns (before diag.):
       0.497 -0.009 -0.003  0.005 -0.001
      -0.009  0.941 -0.000 -0.000 -0.000
      -0.003 -0.000  0.944 -0.003 -0.001
       0.005 -0.000 -0.003  0.499 -0.003
      -0.001 -0.000 -0.001 -0.003  0.944
     SPIN  2
     eigenvalues:
       0.043  0.047  0.049  0.353  0.362
     eigenvectors (columns):
      -0.021  0.003  0.007 -0.788  0.615
       0.996  0.039 -0.083 -0.015  0.016
      -0.039 -0.639 -0.768 -0.002  0.008
      -0.003 -0.002  0.008  0.615  0.788
      -0.083  0.768 -0.635  0.003  0.005
     occupation matrix ns (before diag.):
       0.356  0.007  0.002  0.004  0.000
       0.007  0.043  0.000  0.001  0.000
       0.002  0.000  0.048  0.002  0.001
       0.004  0.001  0.002  0.359  0.002
       0.000  0.000  0.001  0.002  0.048
     ------------------------ ATOM    8 ------------------------
     Tr[ns(  8)] (up, down, total) =   3.82474  0.85642  4.68116
     Atomic magnetic moment for atom   8 =   2.96832
     SPIN  1
     eigenvalues:
       0.493  0.503  0.941  0.943  0.944
     eigenvectors (columns):
      -0.256  0.966 -0.012  0.010 -0.003
       0.001  0.010  0.059 -0.630  0.774
       0.004 -0.006 -0.084  0.769  0.633
      -0.966 -0.256  0.016  0.001  0.004
       0.013  0.015  0.995  0.102  0.007
     occupation matrix ns (before diag.):
       0.503 -0.004  0.003 -0.003 -0.005
      -0.004  0.944  0.001  0.002 -0.000
       0.003  0.001  0.944  0.001  0.000
      -0.003  0.002  0.001  0.494  0.007
      -0.005 -0.000  0.000  0.007  0.941
     SPIN  2
     eigenvalues:
       0.044  0.047  0.049  0.354  0.363
     eigenvectors (columns):
      -0.013 -0.002  0.010  0.225 -0.974
      -0.039 -0.460 -0.887 -0.002 -0.008
       0.106 -0.885  0.454 -0.004  0.005
       0.016 -0.003 -0.003  0.974  0.225
       0.993  0.076 -0.083 -0.013 -0.017
     occupation matrix ns (before diag.):
       0.362  0.002 -0.002 -0.002  0.004
       0.002  0.049 -0.001 -0.001  0.000
      -0.002 -0.001  0.047 -0.001 -0.000
      -0.002 -0.001 -0.001  0.354 -0.005
       0.004  0.000 -0.000 -0.005  0.044

     Number of occupied Hubbard levels =   27.9993

     negative rho (up, down):  2.126E-03 2.022E-03

     HUBBARD ENERGY =    0.7717  (Ry)

     total cpu time spent up to now is      330.8 secs

     total energy              =   -2022.05051578 Ry
     estimated scf accuracy    <       0.01849923 Ry

     total magnetization       =    -3.00 Bohr mag/cell
     absolute magnetization    =    24.60 Bohr mag/cell

     iteration # 11     ecut=   110.00 Ry     beta= 0.30
     Davidson diagonalization with overlap

---- Real-time Memory Report at c_bands before calling an iterative solver
           954 MiB given to the printing process from OS
           540 MiB allocation reported by mallinfo(arena+hblkhd)
        665175 MiB available memory on the node where the printing process lives
------------------
     ethr =  5.76E-06,  avg # of iterations = 17.6

     =================== HUBBARD OCCUPATIONS ===================
     ------------------------ ATOM    2 ------------------------
     Tr[ns(  2)] (up, down, total) =   0.34243  3.16117  3.50360
     Atomic magnetic moment for atom   2 =  -2.81874
     SPIN  1
     eigenvalues:
       0.018  0.024  0.028  0.110  0.162
     eigenvectors (columns):
       0.012 -0.047  0.005 -0.497 -0.866
       0.152 -0.986  0.046  0.033  0.037
       0.054  0.055  0.997  0.007 -0.000
       0.019  0.013 -0.008  0.867 -0.498
       0.987  0.149 -0.061 -0.017  0.014
     occupation matrix ns (before diag.):
       0.149 -0.006 -0.000  0.023 -0.001
      -0.006  0.024  0.000 -0.000 -0.001
      -0.000  0.000  0.028  0.001 -0.001
       0.023 -0.000  0.001  0.123 -0.002
      -0.001 -0.001 -0.001 -0.002  0.018
     SPIN  2
     eigenvalues:
       0.135  0.204  0.912  0.955  0.956
     eigenvectors (columns):
       0.496 -0.866  0.002 -0.017  0.055
      -0.046  0.040  0.021 -0.386  0.920
      -0.004 -0.001  0.999  0.049 -0.003
      -0.867 -0.497 -0.005  0.031 -0.009
       0.019  0.017 -0.044  0.920  0.388
     occupation matrix ns (before diag.):
       0.189  0.045  0.001  0.029  0.003
       0.045  0.953 -0.001 -0.018  0.001
       0.001 -0.001  0.912 -0.002  0.002
       0.029 -0.018 -0.002  0.153  0.020
       0.003  0.001  0.002  0.020  0.954
     ------------------------ ATOM    3 ------------------------
     Tr[ns(  3)] (up, down, total) =   0.39481  3.10719  3.50201
     Atomic magnetic moment for atom   3 =  -2.71238
     SPIN  1
     eigenvalues:
       0.025  0.025  0.026  0.159  0.159
     eigenvectors (columns):
      -0.005  0.002  0.000 -0.789  0.614
       0.125 -0.785 -0.607 -0.005 -0.002
      -0.629 -0.535  0.563 -0.001 -0.005
       0.003  0.006  0.000 -0.614 -0.789
       0.767 -0.311  0.561 -0.003  0.003
     occupation matrix ns (before diag.):
       0.159  0.000 -0.000 -0.000  0.001
       0.000  0.026 -0.000  0.001 -0.000
      -0.000 -0.000  0.025  0.001  0.000
      -0.000  0.001  0.001  0.159 -0.000
       0.001 -0.000  0.000 -0.000  0.025
     SPIN  2
     eigenvalues:
       0.199  0.200  0.898  0.904  0.905
     eigenvectors (columns):
      -0.379  0.926  0.000  0.003 -0.001
      -0.002 -0.000  0.497 -0.017  0.868
      -0.001 -0.002 -0.607  0.707  0.362
      -0.926 -0.379  0.000 -0.001 -0.003
      -0.001  0.002 -0.620 -0.707  0.341
     occupation matrix ns (before diag.):
       0.200 -0.001  0.001 -0.000 -0.002
      -0.001  0.904  0.002 -0.002  0.002
       0.001  0.002  0.902 -0.001 -0.002
      -0.000 -0.002 -0.001  0.199 -0.000
      -0.002  0.002 -0.002 -0.000  0.902
     ------------------------ ATOM    4 ------------------------
     Tr[ns(  4)] (up, down, total) =   0.34187  3.15952  3.50139
     Atomic magnetic moment for atom   4 =  -2.81764
     SPIN  1
     eigenvalues:
       0.018  0.025  0.028  0.109  0.162
     eigenvectors (columns):
      -0.008 -0.094 -0.009  0.995 -0.012
       0.977  0.198  0.068  0.027  0.015
       0.200 -0.975 -0.011 -0.090  0.037
       0.022 -0.032  0.001 -0.015 -0.999
      -0.064 -0.026  0.998  0.006  0.000
     occupation matrix ns (before diag.):
       0.108  0.002 -0.008  0.000  0.000
       0.002  0.019 -0.001 -0.002  0.001
      -0.008 -0.001  0.025 -0.005 -0.000
       0.000 -0.002 -0.005  0.161 -0.000
       0.000  0.001 -0.000 -0.000  0.028
     SPIN  2
     eigenvalues:
       0.134  0.203  0.912  0.954  0.956
     eigenvectors (columns):
       0.995 -0.012 -0.006 -0.046  0.087
       0.027  0.018  0.070  0.975  0.210
      -0.094  0.045 -0.021 -0.207  0.973
      -0.016 -0.999  0.001  0.009  0.046
       0.003  0.001  0.997 -0.073  0.006
     occupation matrix ns (before diag.):
       0.142 -0.022  0.077  0.004 -0.002
      -0.022  0.953  0.002  0.014 -0.003
       0.077  0.002  0.947  0.032  0.001
       0.004  0.014  0.032  0.205  0.000
      -0.002 -0.003  0.001  0.000  0.913
     ------------------------ ATOM    5 ------------------------
     Tr[ns(  5)] (up, down, total) =   0.34678  3.15623  3.50301
     Atomic magnetic moment for atom   5 =  -2.80946
     SPIN  1
     eigenvalues:
       0.018  0.025  0.027  0.116  0.160
     eigenvectors (columns):
       0.024 -0.004  0.004 -0.507 -0.862
       0.055 -0.043 -0.998 -0.006 -0.000
      -0.985  0.159 -0.061 -0.023 -0.015
      -0.000 -0.074  0.008 -0.860  0.506
       0.162  0.983 -0.033 -0.063  0.037
     occupation matrix ns (before diag.):
       0.149  0.000  0.003 -0.019 -0.001
       0.000  0.027  0.001  0.000  0.000
       0.003  0.001  0.018  0.001  0.001
      -0.019  0.000  0.001  0.127  0.007
      -0.001  0.000  0.001  0.007  0.026
     SPIN  2
     eigenvalues:
       0.142  0.201  0.908  0.952  0.953
     eigenvectors (columns):
       0.508  0.861  0.003 -0.026  0.008
       0.003  0.001 -0.998 -0.059 -0.008
       0.024  0.018 -0.055  0.966 -0.249
       0.858 -0.507  0.005 -0.032 -0.077
       0.071 -0.043 -0.022  0.246  0.965
     occupation matrix ns (before diag.):
       0.187 -0.001 -0.021 -0.026 -0.001
      -0.001  0.908 -0.002 -0.001 -0.001
      -0.021 -0.002  0.951 -0.010 -0.001
      -0.026 -0.001 -0.010  0.163 -0.066
      -0.001 -0.001 -0.001 -0.066  0.948
     ------------------------ ATOM    6 ------------------------
     Tr[ns(  6)] (up, down, total) =   3.80825  0.85364  4.66189
     Atomic magnetic moment for atom   6 =   2.95461
     SPIN  1
     eigenvalues:
       0.487  0.497  0.939  0.942  0.943
     eigenvectors (columns):
      -0.902 -0.431 -0.008  0.005  0.003
       0.003  0.007  0.072  0.614  0.786
      -0.015  0.012  0.996 -0.090 -0.020
      -0.431  0.902 -0.018 -0.009  0.003
       0.003 -0.009 -0.059 -0.784  0.618
     occupation matrix ns (before diag.):
       0.489  0.002 -0.004 -0.004 -0.001
       0.002  0.943 -0.000 -0.002  0.001
      -0.004 -0.000  0.939 -0.008  0.000
      -0.004 -0.002 -0.008  0.496  0.004
      -0.001  0.001  0.000  0.004  0.942
     SPIN  2
     eigenvalues:
       0.042  0.046  0.048  0.355  0.364
     eigenvectors (columns):
       0.007  0.002 -0.004 -0.896 -0.443
       0.072  0.555 -0.829  0.003  0.005
      -0.996 -0.002 -0.088 -0.015  0.014
       0.019  0.005  0.009 -0.443  0.896
      -0.050  0.832  0.553  0.003 -0.008
     occupation matrix ns (before diag.):
       0.357 -0.002  0.002 -0.004  0.000
      -0.002  0.047  0.000  0.001 -0.001
       0.002  0.000  0.042  0.006 -0.000
      -0.004  0.001  0.006  0.362 -0.003
       0.000 -0.001 -0.000 -0.003  0.047
     ------------------------ ATOM    7 ------------------------
     Tr[ns(  7)] (up, down, total) =   3.80778  0.85328  4.66106
     Atomic magnetic moment for atom   7 =   2.95450
     SPIN  1
     eigenvalues:
       0.486  0.498  0.939  0.942  0.943
     eigenvectors (columns):
       0.788 -0.615  0.021  0.005 -0.005
       0.015 -0.013 -0.996  0.082  0.017
       0.002 -0.010 -0.046 -0.710  0.702
      -0.615 -0.788  0.002  0.009  0.001
      -0.003 -0.006 -0.070 -0.699 -0.712
     occupation matrix ns (before diag.):
       0.491 -0.009 -0.003  0.006 -0.001
      -0.009  0.939 -0.000 -0.000 -0.000
      -0.003 -0.000  0.942 -0.003 -0.001
       0.006 -0.000 -0.003  0.493 -0.003
      -0.001 -0.000 -0.001 -0.003  0.942
     SPIN  2
     eigenvalues:
       0.041  0.046  0.048  0.354  0.364
     eigenvectors (columns):
      -0.021  0.003  0.007 -0.788  0.616
       0.996  0.033 -0.075 -0.014  0.016
      -0.037 -0.639 -0.768 -0.002  0.008
      -0.003 -0.001  0.008  0.616  0.788
      -0.073  0.769 -0.636  0.003  0.005
     occupation matrix ns (before diag.):
       0.358  0.007  0.002  0.005  0.000
       0.007  0.041  0.000  0.001  0.000
       0.002  0.000  0.047  0.002  0.001
       0.005  0.001  0.002  0.360  0.002
       0.000  0.000  0.001  0.002  0.047
     ------------------------ ATOM    8 ------------------------
     Tr[ns(  8)] (up, down, total) =   3.80757  0.85376  4.66134
     Atomic magnetic moment for atom   8 =   2.95381
     SPIN  1
     eigenvalues:
       0.486  0.498  0.939  0.942  0.943
     eigenvectors (columns):
       0.232 -0.973 -0.012  0.010 -0.003
      -0.001 -0.010  0.051 -0.622  0.781
      -0.004  0.006 -0.073  0.778  0.624
       0.973  0.232  0.016  0.001  0.004
      -0.013 -0.014  0.996  0.089  0.005
     occupation matrix ns (before diag.):
       0.497 -0.004  0.003 -0.003 -0.005
      -0.004  0.942  0.001  0.002 -0.000
       0.003  0.001  0.942  0.001  0.000
      -0.003  0.002  0.001  0.487  0.007
      -0.005 -0.000  0.000  0.007  0.939
     SPIN  2
     eigenvalues:
       0.042  0.046  0.048  0.355  0.364
     eigenvectors (columns):
      -0.013 -0.002  0.010  0.218 -0.976
      -0.038 -0.458 -0.888 -0.002 -0.008
       0.090 -0.887  0.453 -0.004  0.005
       0.016 -0.003 -0.003  0.976  0.218
       0.995  0.063 -0.075 -0.013 -0.017
     occupation matrix ns (before diag.):
       0.363  0.002 -0.002 -0.002  0.004
       0.002  0.047 -0.001 -0.001  0.000
      -0.002 -0.001  0.046 -0.001 -0.000
      -0.002 -0.001 -0.001  0.355 -0.005
       0.004  0.000 -0.000 -0.005  0.042

     Number of occupied Hubbard levels =   27.9943

     negative rho (up, down):  2.725E-03 2.615E-03

     HUBBARD ENERGY =    0.7694  (Ry)

     total cpu time spent up to now is      365.8 secs

     total energy              =   -2022.04933873 Ry
     estimated scf accuracy    <       0.00716716 Ry

     total magnetization       =    -3.00 Bohr mag/cell
     absolute magnetization    =    24.48 Bohr mag/cell

     iteration # 12     ecut=   110.00 Ry     beta= 0.30
     Davidson diagonalization with overlap

---- Real-time Memory Report at c_bands before calling an iterative solver
           954 MiB given to the printing process from OS
           540 MiB allocation reported by mallinfo(arena+hblkhd)
        664880 MiB available memory on the node where the printing process lives
------------------
     ethr =  2.23E-06,  avg # of iterations =  9.1

     =================== HUBBARD OCCUPATIONS ===================
     ------------------------ ATOM    2 ------------------------
     Tr[ns(  2)] (up, down, total) =   0.34406  3.16694  3.51100
     Atomic magnetic moment for atom   2 =  -2.82288
     SPIN  1
     eigenvalues:
       0.018  0.024  0.028  0.110  0.164
     eigenvectors (columns):
       0.012 -0.047  0.006 -0.497 -0.866
       0.152 -0.986  0.044  0.033  0.037
       0.054  0.053  0.997  0.007  0.000
       0.020  0.013 -0.008  0.867 -0.498
       0.987  0.150 -0.061 -0.017  0.015
     occupation matrix ns (before diag.):
       0.150 -0.006 -0.000  0.024 -0.001
      -0.006  0.024  0.000 -0.000 -0.001
      -0.000  0.000  0.028  0.001 -0.001
       0.024 -0.000  0.001  0.123 -0.002
      -0.001 -0.001 -0.001 -0.002  0.018
     SPIN  2
     eigenvalues:
       0.134  0.205  0.915  0.956  0.957
     eigenvectors (columns):
       0.496 -0.866  0.002  0.018  0.054
      -0.046  0.040  0.022  0.399  0.915
      -0.003 -0.001  0.999 -0.050 -0.002
      -0.867 -0.498 -0.005 -0.031 -0.008
       0.019  0.017 -0.045 -0.915  0.400
     occupation matrix ns (before diag.):
       0.190  0.044  0.001  0.030  0.003
       0.044  0.954 -0.001 -0.018  0.001
       0.001 -0.001  0.915 -0.002  0.002
       0.030 -0.018 -0.002  0.153  0.020
       0.003  0.001  0.002  0.020  0.956
     ------------------------ ATOM    3 ------------------------
     Tr[ns(  3)] (up, down, total) =   0.39718  3.10835  3.50553
     Atomic magnetic moment for atom   3 =  -2.71117
     SPIN  1
     eigenvalues:
       0.025  0.025  0.026  0.160  0.161
     eigenvectors (columns):
      -0.005  0.003  0.000 -0.766  0.643
       0.014 -0.792 -0.610 -0.005 -0.001
      -0.707 -0.440  0.554 -0.001 -0.005
       0.003  0.005  0.000 -0.643 -0.766
       0.707 -0.424  0.567 -0.003  0.004
     occupation matrix ns (before diag.):
       0.161  0.000 -0.000 -0.000  0.001
       0.000  0.025 -0.000  0.001 -0.000
      -0.000 -0.000  0.025  0.001  0.000
      -0.000  0.001  0.001  0.161 -0.000
       0.001 -0.000  0.000 -0.000  0.025
     SPIN  2
     eigenvalues:
       0.200  0.200  0.898  0.904  0.906
     eigenvectors (columns):
      -0.588  0.809  0.000  0.003 -0.001
      -0.002 -0.001  0.485 -0.015  0.874
      -0.001 -0.002 -0.612  0.709  0.351
      -0.809 -0.588  0.000 -0.001 -0.003
      -0.001  0.002 -0.625 -0.705  0.335
     occupation matrix ns (before diag.):
       0.200 -0.001  0.001 -0.000 -0.002
      -0.001  0.904  0.002 -0.002  0.002
       0.001  0.002  0.902 -0.001 -0.002
      -0.000 -0.002 -0.001  0.200 -0.000
      -0.002  0.002 -0.002 -0.000  0.902
     ------------------------ ATOM    4 ------------------------
     Tr[ns(  4)] (up, down, total) =   0.34329  3.16524  3.50853
     Atomic magnetic moment for atom   4 =  -2.82196
     SPIN  1
     eigenvalues:
       0.018  0.025  0.028  0.109  0.163
     eigenvectors (columns):
      -0.008 -0.095 -0.009  0.995 -0.012
       0.977  0.200  0.068  0.027  0.015
       0.202 -0.974 -0.012 -0.091  0.037
       0.022 -0.032  0.001 -0.015 -0.999
      -0.064 -0.026  0.998  0.006  0.000
     occupation matrix ns (before diag.):
       0.108  0.002 -0.008  0.000  0.000
       0.002  0.019 -0.001 -0.002  0.001
      -0.008 -0.001  0.025 -0.005 -0.000
       0.000 -0.002 -0.005  0.163 -0.000
       0.000  0.001 -0.000 -0.000  0.028
     SPIN  2
     eigenvalues:
       0.133  0.205  0.915  0.955  0.957
     eigenvectors (columns):
       0.995 -0.012 -0.006 -0.044  0.089
       0.027  0.018  0.071  0.979  0.189
      -0.095  0.045 -0.021 -0.185  0.977
      -0.016 -0.999  0.001  0.010  0.046
       0.002  0.001  0.997 -0.074  0.008
     occupation matrix ns (before diag.):
       0.141 -0.022  0.078  0.004 -0.002
      -0.022  0.954  0.002  0.014 -0.003
       0.078  0.002  0.948  0.032  0.001
       0.004  0.014  0.032  0.206  0.000
      -0.002 -0.003  0.001  0.000  0.915
     ------------------------ ATOM    5 ------------------------
     Tr[ns(  5)] (up, down, total) =   0.34816  3.16202  3.51019
     Atomic magnetic moment for atom   5 =  -2.81386
     SPIN  1
     eigenvalues:
       0.018  0.025  0.028  0.116  0.162
     eigenvectors (columns):
       0.024 -0.004  0.004 -0.507 -0.861
       0.056 -0.041 -0.998 -0.006 -0.000
      -0.985  0.161 -0.061 -0.023 -0.014
       0.000 -0.074  0.008 -0.859  0.506
       0.164  0.983 -0.031 -0.063  0.037
     occupation matrix ns (before diag.):
       0.150  0.000  0.003 -0.020 -0.002
       0.000  0.027  0.001  0.000  0.000
       0.003  0.001  0.018  0.001  0.001
      -0.020  0.000  0.001  0.127  0.008
      -0.002  0.000  0.001  0.008  0.025
     SPIN  2
     eigenvalues:
       0.142  0.202  0.911  0.953  0.954
     eigenvectors (columns):
       0.508  0.861  0.003 -0.026  0.007
       0.003  0.001 -0.998 -0.059 -0.008
       0.025  0.018 -0.056  0.970 -0.233
       0.858 -0.506  0.004 -0.031 -0.078
       0.071 -0.043 -0.022  0.231  0.969
     occupation matrix ns (before diag.):
       0.187 -0.001 -0.021 -0.026 -0.002
      -0.001  0.911 -0.002 -0.001 -0.001
      -0.021 -0.002  0.952 -0.010 -0.001
      -0.026 -0.001 -0.010  0.163 -0.066
      -0.002 -0.001 -0.001 -0.066  0.949
     ------------------------ ATOM    6 ------------------------
     Tr[ns(  6)] (up, down, total) =   3.80460  0.85781  4.66241
     Atomic magnetic moment for atom   6 =   2.94679
     SPIN  1
     eigenvalues:
       0.484  0.496  0.939  0.942  0.943
     eigenvectors (columns):
      -0.895 -0.446 -0.008  0.005  0.003
       0.003  0.007  0.063  0.596  0.800
      -0.015  0.012  0.997 -0.079 -0.020
      -0.446  0.895 -0.018 -0.009  0.002
       0.003 -0.009 -0.051 -0.799  0.599
     occupation matrix ns (before diag.):
       0.487  0.002 -0.004 -0.005 -0.001
       0.002  0.943 -0.000 -0.002  0.001
      -0.004 -0.000  0.939 -0.008  0.000
      -0.005 -0.002 -0.008  0.494  0.004
      -0.001  0.001  0.000  0.004  0.942
     SPIN  2
     eigenvalues:
       0.041  0.046  0.048  0.356  0.366
     eigenvectors (columns):
       0.007  0.002 -0.004 -0.886 -0.464
       0.064  0.552 -0.831  0.003  0.005
      -0.997 -0.002 -0.078 -0.015  0.014
       0.019  0.005  0.009 -0.464  0.886
      -0.045  0.834  0.550  0.003 -0.008
     occupation matrix ns (before diag.):
       0.359 -0.002  0.002 -0.004  0.000
      -0.002  0.047  0.000  0.001 -0.001
       0.002  0.000  0.041  0.006 -0.000
      -0.004  0.001  0.006  0.364 -0.003
       0.000 -0.001 -0.000 -0.003  0.047
     ------------------------ ATOM    7 ------------------------
     Tr[ns(  7)] (up, down, total) =   3.80443  0.85802  4.66245
     Atomic magnetic moment for atom   7 =   2.94641
     SPIN  1
     eigenvalues:
       0.483  0.497  0.939  0.942  0.943
     eigenvectors (columns):
       0.798 -0.602  0.020  0.005 -0.004
       0.016 -0.013 -0.997  0.075  0.016
       0.002 -0.009 -0.041 -0.709  0.704
      -0.602 -0.798  0.002  0.009  0.000
      -0.003 -0.006 -0.064 -0.701 -0.710
     occupation matrix ns (before diag.):
       0.488 -0.009 -0.003  0.007 -0.001
      -0.009  0.939 -0.000 -0.000 -0.000
      -0.003 -0.000  0.943 -0.003 -0.001
       0.007 -0.000 -0.003  0.492 -0.003
      -0.001 -0.000 -0.001 -0.003  0.943
     SPIN  2
     eigenvalues:
       0.040  0.047  0.048  0.356  0.367
     eigenvectors (columns):
      -0.021  0.003  0.007 -0.799  0.600
       0.997  0.028 -0.067 -0.015  0.015
      -0.034 -0.640 -0.768 -0.002  0.008
      -0.003 -0.001  0.008  0.601  0.800
      -0.064  0.768 -0.637  0.003  0.005
     occupation matrix ns (before diag.):
       0.360  0.007  0.002  0.005  0.000
       0.007  0.041  0.000  0.001  0.000
       0.002  0.000  0.047  0.002  0.001
       0.005  0.001  0.002  0.363  0.002
       0.000  0.000  0.001  0.002  0.047
     ------------------------ ATOM    8 ------------------------
     Tr[ns(  8)] (up, down, total) =   3.80419  0.85812  4.66232
     Atomic magnetic moment for atom   8 =   2.94607
     SPIN  1
     eigenvalues:
       0.483  0.497  0.939  0.942  0.943
     eigenvectors (columns):
       0.213  0.977 -0.012  0.010  0.003
      -0.001  0.010  0.043 -0.610 -0.791
      -0.004 -0.006 -0.063  0.789 -0.611
       0.977 -0.213  0.016  0.001 -0.004
      -0.014  0.014  0.997  0.076 -0.004
     occupation matrix ns (before diag.):
       0.496 -0.004  0.003 -0.003 -0.005
      -0.004  0.943  0.001  0.001 -0.000
       0.003  0.001  0.942  0.001  0.000
      -0.003  0.001  0.001  0.484  0.007
      -0.005 -0.000  0.000  0.007  0.939
     SPIN  2
     eigenvalues:
       0.041  0.046  0.048  0.356  0.367
     eigenvectors (columns):
      -0.013 -0.002  0.010  0.199 -0.980
      -0.035 -0.452 -0.891 -0.002 -0.008
       0.077 -0.891  0.448 -0.003  0.005
       0.016 -0.003 -0.003  0.980  0.199
       0.996  0.053 -0.066 -0.013 -0.016
     occupation matrix ns (before diag.):
       0.366  0.002 -0.002 -0.002  0.004
       0.002  0.048 -0.001 -0.001  0.000
      -0.002 -0.001  0.046 -0.001 -0.000
      -0.002 -0.001 -0.001  0.357 -0.005
       0.004  0.000 -0.000 -0.005  0.041

     Number of occupied Hubbard levels =   28.0224

     negative rho (up, down):  1.837E-04 1.651E-04

     HUBBARD ENERGY =    0.7644  (Ry)

     total cpu time spent up to now is      397.6 secs

     total energy              =   -2022.04908536 Ry
     estimated scf accuracy    <       0.00352037 Ry

     total magnetization       =    -3.00 Bohr mag/cell
     absolute magnetization    =    24.42 Bohr mag/cell

     iteration # 13     ecut=   110.00 Ry     beta= 0.30
     Davidson diagonalization with overlap

---- Real-time Memory Report at c_bands before calling an iterative solver
           954 MiB given to the printing process from OS
           540 MiB allocation reported by mallinfo(arena+hblkhd)
        665289 MiB available memory on the node where the printing process lives
------------------
     ethr =  1.10E-06,  avg # of iterations = 11.5

     =================== HUBBARD OCCUPATIONS ===================
     ------------------------ ATOM    2 ------------------------
     Tr[ns(  2)] (up, down, total) =   0.34476  3.17179  3.51655
     Atomic magnetic moment for atom   2 =  -2.82703
     SPIN  1
     eigenvalues:
       0.018  0.024  0.029  0.109  0.165
     eigenvectors (columns):
       0.012 -0.047  0.005 -0.497 -0.866
       0.154 -0.986  0.042  0.033  0.037
       0.053  0.051  0.997  0.008 -0.000
       0.019  0.013 -0.008  0.867 -0.498
       0.986  0.151 -0.060 -0.017  0.014
     occupation matrix ns (before diag.):
       0.151 -0.006 -0.000  0.024 -0.001
      -0.006  0.024  0.000 -0.000 -0.001
      -0.000  0.000  0.029  0.001 -0.001
       0.024 -0.000  0.001  0.123 -0.002
      -0.001 -0.001 -0.001 -0.002  0.019
     SPIN  2
     eigenvalues:
       0.134  0.206  0.917  0.957  0.958
     eigenvectors (columns):
       0.496 -0.866  0.002  0.019  0.054
      -0.046  0.039  0.021  0.413  0.909
      -0.003 -0.001  0.999 -0.050 -0.001
      -0.867 -0.498 -0.005 -0.031 -0.008
       0.019  0.017 -0.045 -0.909  0.414
     occupation matrix ns (before diag.):
       0.191  0.044  0.001  0.030  0.003
       0.044  0.955 -0.001 -0.018  0.001
       0.001 -0.001  0.917 -0.002  0.002
       0.030 -0.018 -0.002  0.153  0.020
       0.003  0.001  0.002  0.020  0.956
     ------------------------ ATOM    3 ------------------------
     Tr[ns(  3)] (up, down, total) =   0.39770  3.10615  3.50385
     Atomic magnetic moment for atom   3 =  -2.70845
     SPIN  1
     eigenvalues:
       0.025  0.025  0.026  0.161  0.161
     eigenvectors (columns):
      -0.005  0.003  0.000 -0.717  0.697
       0.025 -0.787 -0.617 -0.005 -0.001
      -0.697 -0.456  0.554 -0.002 -0.005
       0.003  0.005  0.000 -0.697 -0.717
       0.717 -0.416  0.559 -0.003  0.004
     occupation matrix ns (before diag.):
       0.161  0.000 -0.000 -0.000  0.001
       0.000  0.025 -0.000  0.001 -0.000
      -0.000 -0.000  0.025  0.001  0.000
      -0.000  0.001  0.001  0.161 -0.000
       0.001 -0.000  0.000 -0.000  0.025
     SPIN  2
     eigenvalues:
       0.200  0.200  0.897  0.903  0.905
     eigenvectors (columns):
      -0.523  0.852  0.000  0.003 -0.001
      -0.002 -0.000  0.475 -0.020  0.880
      -0.001 -0.002 -0.615  0.708  0.348
      -0.852 -0.523  0.000 -0.001 -0.002
      -0.001  0.002 -0.630 -0.706  0.324
     occupation matrix ns (before diag.):
       0.200 -0.001  0.001 -0.000 -0.002
      -0.001  0.903  0.002 -0.001  0.002
       0.001  0.002  0.901 -0.001 -0.002
      -0.000 -0.001 -0.001  0.200 -0.000
      -0.002  0.002 -0.002 -0.000  0.901
     ------------------------ ATOM    4 ------------------------
     Tr[ns(  4)] (up, down, total) =   0.34411  3.17021  3.51433
     Atomic magnetic moment for atom   4 =  -2.82610
     SPIN  1
     eigenvalues:
       0.019  0.025  0.028  0.109  0.164
     eigenvectors (columns):
      -0.008 -0.095 -0.009  0.995 -0.012
       0.977  0.200  0.068  0.027  0.015
       0.202 -0.974 -0.012 -0.091  0.037
       0.022 -0.032  0.001 -0.015 -0.999
      -0.064 -0.026  0.998  0.006  0.000
     occupation matrix ns (before diag.):
       0.108  0.002 -0.008  0.000  0.000
       0.002  0.019 -0.001 -0.002  0.001
      -0.008 -0.001  0.025 -0.005 -0.000
       0.000 -0.002 -0.005  0.164 -0.000
       0.000  0.001 -0.000 -0.000  0.028
     SPIN  2
     eigenvalues:
       0.133  0.206  0.917  0.956  0.958
     eigenvectors (columns):
       0.995 -0.012 -0.006 -0.043  0.090
       0.027  0.018  0.072  0.981  0.178
      -0.095  0.045 -0.022 -0.174  0.979
      -0.016 -0.999  0.001  0.010  0.046
       0.002  0.001  0.997 -0.075  0.009
     occupation matrix ns (before diag.):
       0.141 -0.022  0.079  0.004 -0.002
      -0.022  0.955  0.002  0.014 -0.003
       0.079  0.002  0.949  0.032  0.001
       0.004  0.014  0.032  0.207  0.000
      -0.002 -0.003  0.001  0.000  0.918
     ------------------------ ATOM    5 ------------------------
     Tr[ns(  5)] (up, down, total) =   0.34883  3.16666  3.51549
     Atomic magnetic moment for atom   5 =  -2.81782
     SPIN  1
     eigenvalues:
       0.018  0.025  0.028  0.115  0.162
     eigenvectors (columns):
       0.024 -0.004  0.005 -0.507 -0.862
       0.055 -0.040 -0.998 -0.006 -0.000
      -0.985  0.162 -0.061 -0.023 -0.014
      -0.000 -0.074  0.008 -0.859  0.506
       0.165  0.983 -0.030 -0.063  0.037
     occupation matrix ns (before diag.):
       0.150  0.000  0.003 -0.021 -0.002
       0.000  0.028  0.001  0.000  0.000
       0.003  0.001  0.018  0.001  0.001
      -0.021  0.000  0.001  0.127  0.008
      -0.002  0.000  0.001  0.008  0.025
     SPIN  2
     eigenvalues:
       0.141  0.203  0.913  0.954  0.955
     eigenvectors (columns):
      -0.508 -0.861  0.003 -0.027  0.006
      -0.003 -0.001 -0.998 -0.060 -0.010
      -0.025 -0.017 -0.056  0.975 -0.213
      -0.858  0.506  0.004 -0.029 -0.079
      -0.071  0.042 -0.022  0.210  0.974
     occupation matrix ns (before diag.):
       0.188 -0.001 -0.021 -0.027 -0.002
      -0.001  0.913 -0.002 -0.001 -0.001
      -0.021 -0.002  0.953 -0.010 -0.001
      -0.027 -0.001 -0.010  0.163 -0.066
      -0.002 -0.001 -0.001 -0.066  0.950
     ------------------------ ATOM    6 ------------------------
     Tr[ns(  6)] (up, down, total) =   3.80717  0.85953  4.66670
     Atomic magnetic moment for atom   6 =   2.94764
     SPIN  1
     eigenvalues:
       0.484  0.498  0.939  0.942  0.944
     eigenvectors (columns):
      -0.880 -0.474 -0.008  0.005  0.003
       0.002  0.006  0.055  0.590  0.805
      -0.015  0.011  0.997 -0.068 -0.019
      -0.474  0.880 -0.018 -0.009  0.002
       0.003 -0.009 -0.043 -0.804  0.593
     occupation matrix ns (before diag.):
       0.487  0.002 -0.004 -0.005 -0.001
       0.002  0.943 -0.000 -0.002  0.001
      -0.004 -0.000  0.939 -0.008  0.000
      -0.005 -0.002 -0.008  0.495  0.004
      -0.001  0.001  0.000  0.004  0.943
     SPIN  2
     eigenvalues:
       0.040  0.046  0.048  0.357  0.368
     eigenvectors (columns):
       0.007  0.002 -0.004 -0.892 -0.452
       0.059  0.553 -0.831  0.003  0.005
      -0.997 -0.001 -0.072 -0.015  0.014
       0.019  0.005  0.009 -0.452  0.892
      -0.041  0.833  0.552  0.003 -0.008
     occupation matrix ns (before diag.):
       0.360 -0.002  0.002 -0.004  0.000
      -0.002  0.047  0.000  0.001 -0.001
       0.002  0.000  0.040  0.006 -0.000
      -0.004  0.001  0.006  0.366 -0.003
       0.000 -0.001 -0.000 -0.003  0.047
     ------------------------ ATOM    7 ------------------------
     Tr[ns(  7)] (up, down, total) =   3.80604  0.85909  4.66513
     Atomic magnetic moment for atom   7 =   2.94695
     SPIN  1
     eigenvalues:
       0.483  0.498  0.939  0.942  0.944
     eigenvectors (columns):
       0.810 -0.586  0.020  0.005 -0.004
       0.016 -0.013 -0.998  0.066  0.015
       0.002 -0.009 -0.035 -0.706  0.707
      -0.586 -0.810  0.002  0.009  0.000
      -0.003 -0.006 -0.057 -0.705 -0.707
     occupation matrix ns (before diag.):
       0.489 -0.009 -0.003  0.007 -0.001
      -0.009  0.939 -0.000 -0.000 -0.000
      -0.003 -0.000  0.943 -0.003 -0.001
       0.007 -0.000 -0.003  0.493 -0.003
      -0.001 -0.000 -0.001 -0.003  0.943
     SPIN  2
     eigenvalues:
       0.040  0.046  0.048  0.356  0.369
     eigenvectors (columns):
      -0.021  0.003  0.007 -0.801  0.598
       0.998  0.025 -0.062 -0.015  0.015
      -0.032 -0.642 -0.766 -0.002  0.008
      -0.003 -0.001  0.008  0.598  0.801
      -0.059  0.766 -0.640  0.003  0.005
     occupation matrix ns (before diag.):
       0.361  0.007  0.002  0.006  0.000
       0.007  0.040  0.000  0.001  0.000
       0.002  0.000  0.047  0.002  0.001
       0.006  0.001  0.002  0.364  0.002
       0.000  0.000  0.001  0.002  0.047
     ------------------------ ATOM    8 ------------------------
     Tr[ns(  8)] (up, down, total) =   3.80690  0.85951  4.66641
     Atomic magnetic moment for atom   8 =   2.94739
     SPIN  1
     eigenvalues:
       0.484  0.498  0.939  0.942  0.944
     eigenvectors (columns):
       0.185  0.983 -0.011  0.010  0.003
      -0.001  0.009  0.037 -0.589 -0.807
      -0.003 -0.006 -0.056  0.805 -0.590
       0.983 -0.185  0.016  0.001 -0.004
      -0.014  0.014  0.998  0.068 -0.003
     occupation matrix ns (before diag.):
       0.497 -0.004  0.003 -0.003 -0.005
      -0.004  0.943  0.001  0.001 -0.000
       0.003  0.001  0.943  0.001  0.000
      -0.003  0.001  0.001  0.484  0.007
      -0.005 -0.000  0.000  0.007  0.939
     SPIN  2
     eigenvalues:
       0.040  0.046  0.048  0.357  0.369
     eigenvectors (columns):
      -0.013 -0.002  0.010  0.196 -0.980
      -0.033 -0.453 -0.891 -0.002 -0.008
       0.070 -0.890  0.450 -0.004  0.005
       0.016 -0.003 -0.003  0.980  0.196
       0.997  0.047 -0.061 -0.013 -0.016
     occupation matrix ns (before diag.):
       0.368  0.002 -0.002 -0.002  0.004
       0.002  0.047 -0.001 -0.001  0.000
      -0.002 -0.001  0.046 -0.001 -0.000
      -0.002 -0.001 -0.001  0.357 -0.005
       0.004  0.000 -0.000 -0.005  0.041

     Number of occupied Hubbard levels =   28.0485

     HUBBARD ENERGY =    0.7636  (Ry)

     total cpu time spent up to now is      427.9 secs

     total energy              =   -2022.04904122 Ry
     estimated scf accuracy    <       0.00125924 Ry

     total magnetization       =    -3.00 Bohr mag/cell
     absolute magnetization    =    24.42 Bohr mag/cell

     iteration # 14     ecut=   110.00 Ry     beta= 0.30
     Davidson diagonalization with overlap

---- Real-time Memory Report at c_bands before calling an iterative solver
           954 MiB given to the printing process from OS
           540 MiB allocation reported by mallinfo(arena+hblkhd)
        665308 MiB available memory on the node where the printing process lives
------------------
     ethr =  3.92E-07,  avg # of iterations =  4.0

     =================== HUBBARD OCCUPATIONS ===================
     ------------------------ ATOM    2 ------------------------
     Tr[ns(  2)] (up, down, total) =   0.34420  3.16981  3.51401
     Atomic magnetic moment for atom   2 =  -2.82561
     SPIN  1
     eigenvalues:
       0.018  0.024  0.029  0.109  0.165
     eigenvectors (columns):
       0.012 -0.047  0.005 -0.497 -0.866
       0.154 -0.986  0.042  0.034  0.037
       0.053  0.051  0.997  0.008 -0.000
       0.019  0.014 -0.008  0.867 -0.498
       0.986  0.152 -0.060 -0.017  0.014
     occupation matrix ns (before diag.):
       0.151 -0.006 -0.000  0.024 -0.001
      -0.006  0.024  0.000 -0.000 -0.001
      -0.000  0.000  0.029  0.001 -0.001
       0.024 -0.000  0.001  0.123 -0.002
      -0.001 -0.001 -0.001 -0.002  0.019
     SPIN  2
     eigenvalues:
       0.133  0.206  0.917  0.957  0.957
     eigenvectors (columns):
       0.497 -0.866  0.002  0.020  0.053
      -0.046  0.039  0.022  0.433  0.899
      -0.003 -0.001  0.999 -0.050 -0.000
      -0.867 -0.498 -0.005 -0.031 -0.007
       0.019  0.017 -0.045 -0.899  0.434
     occupation matrix ns (before diag.):
       0.190  0.044  0.001  0.031  0.003
       0.044  0.954 -0.001 -0.018  0.001
       0.001 -0.001  0.917 -0.002  0.002
       0.031 -0.018 -0.002  0.152  0.020
       0.003  0.001  0.002  0.020  0.956
     ------------------------ ATOM    3 ------------------------
     Tr[ns(  3)] (up, down, total) =   0.39676  3.09705  3.49382
     Atomic magnetic moment for atom   3 =  -2.70029
     SPIN  1
     eigenvalues:
       0.025  0.025  0.026  0.160  0.161
     eigenvectors (columns):
      -0.005  0.003  0.000 -0.637  0.771
       0.026 -0.783 -0.621 -0.005 -0.000
      -0.697 -0.460  0.550 -0.002 -0.004
       0.003  0.005  0.000 -0.771 -0.637
       0.716 -0.419  0.558 -0.003  0.004
     occupation matrix ns (before diag.):
       0.161  0.000 -0.000 -0.000  0.001
       0.000  0.025 -0.000  0.001 -0.000
      -0.000 -0.000  0.025  0.001  0.000
      -0.000  0.001  0.001  0.160 -0.000
       0.001 -0.000  0.000 -0.000  0.025
     SPIN  2
     eigenvalues:
       0.199  0.200  0.894  0.901  0.902
     eigenvectors (columns):
      -0.512  0.859  0.000  0.003 -0.001
      -0.002 -0.000  0.468 -0.016  0.884
      -0.001 -0.002 -0.618  0.709  0.340
      -0.859 -0.512  0.000 -0.001 -0.002
      -0.001  0.002 -0.632 -0.705  0.322
     occupation matrix ns (before diag.):
       0.200 -0.001  0.001 -0.000 -0.002
      -0.001  0.901  0.002 -0.001  0.002
       0.001  0.002  0.899 -0.001 -0.002
      -0.000 -0.001 -0.001  0.200 -0.000
      -0.002  0.002 -0.002 -0.000  0.899
     ------------------------ ATOM    4 ------------------------
     Tr[ns(  4)] (up, down, total) =   0.34360  3.16832  3.51192
     Atomic magnetic moment for atom   4 =  -2.82471
     SPIN  1
     eigenvalues:
       0.019  0.025  0.028  0.108  0.164
     eigenvectors (columns):
      -0.008 -0.095 -0.009  0.995 -0.012
       0.977  0.200  0.067  0.027  0.015
       0.202 -0.974 -0.012 -0.091  0.037
       0.022 -0.032  0.001 -0.015 -0.999
      -0.064 -0.026  0.998  0.006  0.000
     occupation matrix ns (before diag.):
       0.107  0.002 -0.008  0.000  0.000
       0.002  0.019 -0.001 -0.002  0.001
      -0.008 -0.001  0.025 -0.005 -0.000
       0.000 -0.002 -0.005  0.164 -0.000
       0.000  0.001 -0.000 -0.000  0.028
     SPIN  2
     eigenvalues:
       0.132  0.205  0.917  0.956  0.958
     eigenvectors (columns):
       0.995 -0.012 -0.006 -0.042  0.090
       0.027  0.018  0.073  0.982  0.172
      -0.095  0.045 -0.022 -0.168  0.980
      -0.016 -0.999  0.001  0.011  0.046
       0.002  0.001  0.997 -0.076  0.010
     occupation matrix ns (before diag.):
       0.140 -0.022  0.079  0.004 -0.002
      -0.022  0.955  0.002  0.014 -0.003
       0.079  0.002  0.949  0.032  0.001
       0.004  0.014  0.032  0.207  0.000
      -0.002 -0.003  0.001  0.000  0.917
     ------------------------ ATOM    5 ------------------------
     Tr[ns(  5)] (up, down, total) =   0.34825  3.16465  3.51290
     Atomic magnetic moment for atom   5 =  -2.81641
     SPIN  1
     eigenvalues:
       0.018  0.025  0.028  0.115  0.163
     eigenvectors (columns):
      -0.024 -0.004  0.005 -0.507 -0.862
      -0.055 -0.039 -0.998 -0.006 -0.000
       0.984  0.162 -0.061 -0.023 -0.015
       0.000 -0.074  0.008 -0.859  0.506
      -0.165  0.983 -0.029 -0.063  0.037
     occupation matrix ns (before diag.):
       0.150  0.000  0.003 -0.021 -0.002
       0.000  0.028  0.001  0.000  0.000
       0.003  0.001  0.018  0.001  0.001
      -0.021  0.000  0.001  0.127  0.007
      -0.002  0.000  0.001  0.007  0.025
     SPIN  2
     eigenvalues:
       0.141  0.203  0.913  0.953  0.955
     eigenvectors (columns):
       0.508  0.861  0.003 -0.027  0.006
       0.003  0.001 -0.998 -0.060 -0.010
       0.024  0.017 -0.057  0.974 -0.216
       0.858 -0.506  0.004 -0.030 -0.079
       0.071 -0.043 -0.022  0.213  0.973
     occupation matrix ns (before diag.):
       0.188 -0.001 -0.021 -0.027 -0.002
      -0.001  0.913 -0.002 -0.001 -0.001
      -0.021 -0.002  0.953 -0.010 -0.001
      -0.027 -0.001 -0.010  0.162 -0.066
      -0.002 -0.001 -0.001 -0.066  0.949
     ------------------------ ATOM    6 ------------------------
     Tr[ns(  6)] (up, down, total) =   3.79917  0.85530  4.65446
     Atomic magnetic moment for atom   6 =   2.94387
     SPIN  1
     eigenvalues:
       0.481  0.495  0.938  0.941  0.943
     eigenvectors (columns):
      -0.877 -0.481 -0.008  0.005  0.003
       0.002  0.006  0.054  0.583  0.811
      -0.015  0.011  0.997 -0.066 -0.019
      -0.481  0.877 -0.018 -0.009  0.002
       0.003 -0.009 -0.043 -0.810  0.585
     occupation matrix ns (before diag.):
       0.485  0.002 -0.004 -0.006 -0.001
       0.002  0.942 -0.000 -0.002  0.001
      -0.004 -0.000  0.938 -0.008  0.000
      -0.006 -0.002 -0.008  0.492  0.004
      -0.001  0.001  0.000  0.004  0.942
     SPIN  2
     eigenvalues:
       0.040  0.046  0.048  0.355  0.366
     eigenvectors (columns):
       0.007  0.002 -0.004 -0.896 -0.445
       0.057  0.545 -0.836  0.003  0.005
      -0.997 -0.002 -0.070 -0.015  0.014
       0.019  0.005  0.009 -0.445  0.895
      -0.040  0.838  0.544  0.003 -0.008
     occupation matrix ns (before diag.):
       0.357 -0.002  0.002 -0.004  0.000
      -0.002  0.047  0.000  0.001 -0.001
       0.002  0.000  0.040  0.006 -0.000
      -0.004  0.001  0.006  0.364 -0.003
       0.000 -0.001 -0.000 -0.003  0.047
     ------------------------ ATOM    7 ------------------------
     Tr[ns(  7)] (up, down, total) =   3.79804  0.85498  4.65303
     Atomic magnetic moment for atom   7 =   2.94306
     SPIN  1
     eigenvalues:
       0.480  0.496  0.938  0.942  0.943
     eigenvectors (columns):
       0.814 -0.581  0.020  0.005 -0.004
       0.016 -0.013 -0.998  0.065  0.015
       0.002 -0.009 -0.035 -0.708  0.705
      -0.581 -0.814  0.002  0.009  0.000
      -0.003 -0.006 -0.056 -0.703 -0.709
     occupation matrix ns (before diag.):
       0.486 -0.009 -0.003  0.007 -0.001
      -0.009  0.938 -0.000 -0.000 -0.000
      -0.003 -0.000  0.942 -0.003 -0.001
       0.007 -0.000 -0.003  0.490 -0.003
      -0.001 -0.000 -0.001 -0.003  0.942
     SPIN  2
     eigenvalues:
       0.039  0.046  0.048  0.354  0.367
     eigenvectors (columns):
      -0.021  0.003  0.007 -0.800  0.600
       0.998  0.024 -0.061 -0.015  0.015
      -0.031 -0.645 -0.763 -0.002  0.008
      -0.003 -0.001  0.008  0.600  0.800
      -0.057  0.764 -0.643  0.003  0.005
     occupation matrix ns (before diag.):
       0.359  0.007  0.002  0.006  0.000
       0.007  0.040  0.000  0.001  0.000
       0.002  0.000  0.047  0.002  0.001
       0.006  0.001  0.002  0.362  0.002
       0.000  0.000  0.001  0.002  0.047
     ------------------------ ATOM    8 ------------------------
     Tr[ns(  8)] (up, down, total) =   3.79914  0.85528  4.65442
     Atomic magnetic moment for atom   8 =   2.94386
     SPIN  1
     eigenvalues:
       0.481  0.495  0.938  0.941  0.943
     eigenvectors (columns):
       0.179  0.984 -0.012  0.010  0.003
      -0.001  0.009  0.037 -0.585 -0.810
      -0.003 -0.006 -0.055  0.809 -0.586
       0.984 -0.179  0.016  0.001 -0.004
      -0.014  0.014  0.998  0.066 -0.002
     occupation matrix ns (before diag.):
       0.495 -0.004  0.003 -0.003 -0.005
      -0.004  0.942  0.001  0.001 -0.000
       0.003  0.001  0.942  0.001  0.000
      -0.003  0.001  0.001  0.482  0.007
      -0.005 -0.000  0.000  0.007  0.938
     SPIN  2
     eigenvalues:
       0.040  0.046  0.048  0.355  0.367
     eigenvectors (columns):
      -0.013 -0.002  0.010  0.199 -0.980
      -0.033 -0.450 -0.892 -0.002 -0.008
       0.068 -0.892  0.447 -0.004  0.005
       0.016 -0.003 -0.003  0.980  0.199
       0.997  0.046 -0.060 -0.013 -0.016
     occupation matrix ns (before diag.):
       0.366  0.002 -0.002 -0.002  0.004
       0.002  0.047 -0.001 -0.001  0.000
      -0.002 -0.001  0.046 -0.001 -0.000
      -0.002 -0.001 -0.001  0.355 -0.005
       0.004  0.000 -0.000 -0.005  0.040

     Number of occupied Hubbard levels =   27.9946

     HUBBARD ENERGY =    0.7643  (Ry)

     total cpu time spent up to now is      457.7 secs

     total energy              =   -2022.04913067 Ry
     estimated scf accuracy    <       0.00062165 Ry

     total magnetization       =    -3.00 Bohr mag/cell
     absolute magnetization    =    24.38 Bohr mag/cell

     iteration # 15     ecut=   110.00 Ry     beta= 0.30
     Davidson diagonalization with overlap

---- Real-time Memory Report at c_bands before calling an iterative solver
           954 MiB given to the printing process from OS
           540 MiB allocation reported by mallinfo(arena+hblkhd)
        664795 MiB available memory on the node where the printing process lives
------------------
     ethr =  1.94E-07,  avg # of iterations =  2.6

     =================== HUBBARD OCCUPATIONS ===================
     ------------------------ ATOM    2 ------------------------
     Tr[ns(  2)] (up, down, total) =   0.34429  3.17065  3.51494
     Atomic magnetic moment for atom   2 =  -2.82636
     SPIN  1
     eigenvalues:
       0.018  0.024  0.028  0.109  0.165
     eigenvectors (columns):
       0.012 -0.047  0.005 -0.498 -0.866
       0.154 -0.986  0.042  0.034  0.037
       0.053  0.051  0.997  0.008 -0.000
       0.019  0.014 -0.008  0.867 -0.498
       0.986  0.151 -0.060 -0.017  0.014
     occupation matrix ns (before diag.):
       0.151 -0.006 -0.000  0.024 -0.001
      -0.006  0.024  0.000 -0.000 -0.001
      -0.000  0.000  0.028  0.001 -0.001
       0.024 -0.000  0.001  0.123 -0.002
      -0.001 -0.001 -0.001 -0.002  0.019
     SPIN  2
     eigenvalues:
       0.133  0.206  0.917  0.957  0.957
     eigenvectors (columns):
       0.497 -0.866  0.002  0.021  0.053
      -0.046  0.039  0.022  0.450  0.891
      -0.003 -0.001  0.999 -0.050  0.001
      -0.867 -0.498 -0.005 -0.031 -0.006
       0.019  0.017 -0.045 -0.891  0.452
     occupation matrix ns (before diag.):
       0.191  0.044  0.001  0.030  0.003
       0.044  0.954 -0.001 -0.018  0.001
       0.001 -0.001  0.917 -0.002  0.002
       0.030 -0.018 -0.002  0.152  0.020
       0.003  0.001  0.002  0.020  0.956
     ------------------------ ATOM    3 ------------------------
     Tr[ns(  3)] (up, down, total) =   0.39699  3.09745  3.49444
     Atomic magnetic moment for atom   3 =  -2.70046
     SPIN  1
     eigenvalues:
       0.025  0.025  0.026  0.161  0.161
     eigenvectors (columns):
      -0.005  0.003  0.000 -0.599  0.801
      -0.001 -0.782 -0.623 -0.005 -0.000
      -0.712 -0.437  0.550 -0.002 -0.004
       0.003  0.005  0.000 -0.801 -0.599
       0.702 -0.444  0.556 -0.002  0.004
     occupation matrix ns (before diag.):
       0.161  0.000 -0.000 -0.000  0.001
       0.000  0.025 -0.000  0.001 -0.000
      -0.000 -0.000  0.025  0.001  0.000
      -0.000  0.001  0.001  0.161 -0.000
       0.001 -0.000  0.000 -0.000  0.025
     SPIN  2
     eigenvalues:
       0.199  0.200  0.895  0.901  0.903
     eigenvectors (columns):
      -0.511  0.860  0.000  0.003 -0.001
      -0.002 -0.000  0.464 -0.015  0.886
      -0.001 -0.002 -0.620  0.709  0.337
      -0.860 -0.511  0.000 -0.001 -0.002
      -0.001  0.002 -0.633 -0.705  0.320
     occupation matrix ns (before diag.):
       0.200 -0.001  0.001 -0.000 -0.002
      -0.001  0.901  0.002 -0.001  0.002
       0.001  0.002  0.899 -0.001 -0.002
      -0.000 -0.001 -0.001  0.200 -0.000
      -0.002  0.002 -0.002 -0.000  0.899
     ------------------------ ATOM    4 ------------------------
     Tr[ns(  4)] (up, down, total) =   0.34372  3.16909  3.51281
     Atomic magnetic moment for atom   4 =  -2.82537
     SPIN  1
     eigenvalues:
       0.018  0.025  0.028  0.108  0.164
     eigenvectors (columns):
      -0.008 -0.095 -0.009  0.995 -0.012
       0.977  0.200  0.067  0.027  0.015
       0.202 -0.974 -0.011 -0.091  0.037
       0.022 -0.032  0.001 -0.015 -0.999
      -0.064 -0.026  0.998  0.006  0.000
     occupation matrix ns (before diag.):
       0.107  0.002 -0.008  0.000  0.000
       0.002  0.019 -0.001 -0.002  0.001
      -0.008 -0.001  0.025 -0.005 -0.000
       0.000 -0.002 -0.005  0.164 -0.000
       0.000  0.001 -0.000 -0.000  0.028
     SPIN  2
     eigenvalues:
       0.132  0.205  0.917  0.956  0.958
     eigenvectors (columns):
       0.995 -0.012 -0.006 -0.042  0.090
       0.027  0.018  0.073  0.983  0.168
      -0.095  0.045 -0.022 -0.164  0.980
      -0.016 -0.999  0.001  0.011  0.046
       0.002  0.001  0.997 -0.076  0.010
     occupation matrix ns (before diag.):
       0.141 -0.022  0.079  0.004 -0.002
      -0.022  0.955  0.002  0.014 -0.003
       0.079  0.002  0.949  0.032  0.001
       0.004  0.014  0.032  0.207  0.000
      -0.002 -0.003  0.001  0.000  0.918
     ------------------------ ATOM    5 ------------------------
     Tr[ns(  5)] (up, down, total) =   0.34833  3.16540  3.51373
     Atomic magnetic moment for atom   5 =  -2.81707
     SPIN  1
     eigenvalues:
       0.018  0.025  0.028  0.115  0.163
     eigenvectors (columns):
      -0.024 -0.004  0.005 -0.507 -0.862
      -0.056 -0.040 -0.998 -0.006 -0.000
       0.984  0.162 -0.061 -0.023 -0.015
       0.000 -0.074  0.008 -0.859  0.506
      -0.165  0.983 -0.029 -0.063  0.037
     occupation matrix ns (before diag.):
       0.150  0.000  0.003 -0.021 -0.002
       0.000  0.028  0.001  0.000  0.000
       0.003  0.001  0.018  0.001  0.001
      -0.021  0.000  0.001  0.127  0.007
      -0.002  0.000  0.001  0.007  0.025
     SPIN  2
     eigenvalues:
       0.141  0.203  0.913  0.953  0.955
     eigenvectors (columns):
       0.508  0.861  0.003 -0.027  0.006
       0.003  0.001 -0.998 -0.060 -0.009
       0.024  0.017 -0.057  0.974 -0.217
       0.858 -0.506  0.004 -0.030 -0.078
       0.071 -0.043 -0.022  0.215  0.973
     occupation matrix ns (before diag.):
       0.188 -0.001 -0.021 -0.027 -0.002
      -0.001  0.913 -0.002 -0.001 -0.001
      -0.021 -0.002  0.953 -0.010 -0.001
      -0.027 -0.001 -0.010  0.163 -0.066
      -0.002 -0.001 -0.001 -0.066  0.949
     ------------------------ ATOM    6 ------------------------
     Tr[ns(  6)] (up, down, total) =   3.80255  0.85818  4.66073
     Atomic magnetic moment for atom   6 =   2.94436
     SPIN  1
     eigenvalues:
       0.482  0.496  0.939  0.942  0.943
     eigenvectors (columns):
      -0.878 -0.478 -0.008  0.005  0.003
       0.002  0.006  0.052  0.579  0.814
      -0.015  0.011  0.998 -0.064 -0.019
      -0.478  0.878 -0.018 -0.009  0.002
       0.003 -0.009 -0.041 -0.813  0.581
     occupation matrix ns (before diag.):
       0.486  0.002 -0.004 -0.006 -0.001
       0.002  0.943 -0.000 -0.002  0.001
      -0.004 -0.000  0.938 -0.008  0.000
      -0.006 -0.002 -0.008  0.493  0.004
      -0.001  0.001  0.000  0.004  0.942
     SPIN  2
     eigenvalues:
       0.040  0.046  0.048  0.356  0.367
     eigenvectors (columns):
       0.007  0.002 -0.004 -0.892 -0.451
       0.056  0.543 -0.838  0.003  0.005
      -0.997 -0.002 -0.068 -0.015  0.014
       0.019  0.005  0.009 -0.451  0.892
      -0.039  0.839  0.542  0.003 -0.008
     occupation matrix ns (before diag.):
       0.358 -0.002  0.002 -0.005  0.000
      -0.002  0.048  0.000  0.001 -0.001
       0.002  0.000  0.040  0.006 -0.000
      -0.005  0.001  0.006  0.365 -0.003
       0.000 -0.001 -0.000 -0.003  0.047
     ------------------------ ATOM    7 ------------------------
     Tr[ns(  7)] (up, down, total) =   3.80206  0.85842  4.66048
     Atomic magnetic moment for atom   7 =   2.94365
     SPIN  1
     eigenvalues:
       0.481  0.497  0.938  0.942  0.943
     eigenvectors (columns):
       0.813 -0.581  0.020  0.005 -0.004
       0.016 -0.013 -0.998  0.064  0.015
       0.002 -0.009 -0.035 -0.710  0.704
      -0.582 -0.813  0.002  0.009  0.000
      -0.003 -0.006 -0.055 -0.702 -0.710
     occupation matrix ns (before diag.):
       0.487 -0.009 -0.003  0.007 -0.001
      -0.009  0.938 -0.000 -0.000 -0.000
      -0.003 -0.000  0.943 -0.003 -0.001
       0.007 -0.000 -0.003  0.492 -0.003
      -0.001 -0.000 -0.001 -0.003  0.943
     SPIN  2
     eigenvalues:
       0.040  0.047  0.048  0.355  0.368
     eigenvectors (columns):
      -0.021  0.003  0.007 -0.801  0.598
       0.998  0.023 -0.059 -0.015  0.015
      -0.030 -0.644 -0.765 -0.002  0.008
      -0.003 -0.001  0.008  0.598  0.802
      -0.056  0.765 -0.642  0.003  0.005
     occupation matrix ns (before diag.):
       0.360  0.007  0.002  0.006  0.000
       0.007  0.040  0.000  0.001  0.000
       0.002  0.000  0.048  0.002  0.001
       0.006  0.001  0.002  0.363  0.002
       0.000  0.000  0.001  0.002  0.047
     ------------------------ ATOM    8 ------------------------
     Tr[ns(  8)] (up, down, total) =   3.80252  0.85825  4.66077
     Atomic magnetic moment for atom   8 =   2.94427
     SPIN  1
     eigenvalues:
       0.482  0.497  0.939  0.942  0.943
     eigenvectors (columns):
       0.182  0.983 -0.011  0.010  0.003
      -0.001  0.009  0.036 -0.587 -0.809
      -0.003 -0.006 -0.054  0.807 -0.588
       0.983 -0.182  0.016  0.001 -0.004
      -0.014  0.014  0.998  0.065 -0.002
     occupation matrix ns (before diag.):
       0.496 -0.004  0.003 -0.003 -0.005
      -0.004  0.943  0.001  0.001 -0.000
       0.003  0.001  0.942  0.001  0.000
      -0.003  0.001  0.001  0.483  0.007
      -0.005 -0.000  0.000  0.007  0.938
     SPIN  2
     eigenvalues:
       0.040  0.046  0.048  0.356  0.368
     eigenvectors (columns):
      -0.013 -0.002  0.010  0.197 -0.980
      -0.032 -0.448 -0.893 -0.002 -0.008
       0.066 -0.893  0.445 -0.004  0.005
       0.016 -0.003 -0.003  0.980  0.196
       0.997  0.045 -0.058 -0.013 -0.016
     occupation matrix ns (before diag.):
       0.367  0.002 -0.002 -0.002  0.004
       0.002  0.048 -0.001 -0.001  0.000
      -0.002 -0.001  0.047 -0.001 -0.000
      -0.002 -0.001 -0.001  0.356 -0.005
       0.004  0.000 -0.000 -0.005  0.041

     Number of occupied Hubbard levels =   28.0179

     HUBBARD ENERGY =    0.7650  (Ry)

     total cpu time spent up to now is      486.2 secs

     total energy              =   -2022.04912565 Ry
     estimated scf accuracy    <       0.00037745 Ry

     total magnetization       =    -3.00 Bohr mag/cell
     absolute magnetization    =    24.38 Bohr mag/cell

     iteration # 16     ecut=   110.00 Ry     beta= 0.30
     Davidson diagonalization with overlap

---- Real-time Memory Report at c_bands before calling an iterative solver
           954 MiB given to the printing process from OS
           540 MiB allocation reported by mallinfo(arena+hblkhd)
        664781 MiB available memory on the node where the printing process lives
------------------
     ethr =  1.18E-07,  avg # of iterations =  2.0

     =================== HUBBARD OCCUPATIONS ===================
     ------------------------ ATOM    2 ------------------------
     Tr[ns(  2)] (up, down, total) =   0.34439  3.16993  3.51432
     Atomic magnetic moment for atom   2 =  -2.82555
     SPIN  1
     eigenvalues:
       0.018  0.024  0.029  0.109  0.165
     eigenvectors (columns):
       0.012 -0.047  0.005 -0.498 -0.866
       0.153 -0.986  0.042  0.034  0.037
       0.053  0.051  0.997  0.008 -0.000
       0.019  0.014 -0.008  0.867 -0.499
       0.986  0.151 -0.060 -0.017  0.014
     occupation matrix ns (before diag.):
       0.151 -0.006 -0.000  0.024 -0.001
      -0.006  0.024  0.000 -0.000 -0.001
      -0.000  0.000  0.028  0.001 -0.001
       0.024 -0.000  0.001  0.123 -0.002
      -0.001 -0.001 -0.001 -0.002  0.019
     SPIN  2
     eigenvalues:
       0.133  0.206  0.917  0.957  0.957
     eigenvectors (columns):
       0.497 -0.866  0.002  0.022  0.052
      -0.046  0.039  0.022  0.472  0.879
      -0.003 -0.001  0.999 -0.050  0.002
      -0.866 -0.498 -0.005 -0.031 -0.006
       0.019  0.017 -0.045 -0.879  0.474
     occupation matrix ns (before diag.):
       0.190  0.044  0.001  0.030  0.003
       0.044  0.954 -0.001 -0.018  0.001
       0.001 -0.001  0.917 -0.002  0.002
       0.030 -0.018 -0.002  0.152  0.020
       0.003  0.001  0.002  0.020  0.956
     ------------------------ ATOM    3 ------------------------
     Tr[ns(  3)] (up, down, total) =   0.39727  3.09574  3.49301
     Atomic magnetic moment for atom   3 =  -2.69847
     SPIN  1
     eigenvalues:
       0.025  0.025  0.026  0.161  0.161
     eigenvectors (columns):
      -0.005  0.003  0.000 -0.580  0.815
      -0.009 -0.780 -0.625 -0.005 -0.000
      -0.717 -0.431  0.548 -0.002 -0.004
       0.003  0.005  0.000 -0.815 -0.580
       0.697 -0.453  0.555 -0.002  0.004
     occupation matrix ns (before diag.):
       0.161  0.000 -0.000 -0.000  0.001
       0.000  0.025 -0.000  0.001 -0.000
      -0.000 -0.000  0.025  0.001  0.000
      -0.000  0.001  0.001  0.161 -0.000
       0.001 -0.000  0.000 -0.000  0.025
     SPIN  2
     eigenvalues:
       0.199  0.200  0.894  0.900  0.902
     eigenvectors (columns):
      -0.504  0.864  0.000  0.003 -0.001
      -0.002 -0.000  0.459 -0.015  0.888
      -0.001 -0.002 -0.622  0.709  0.333
      -0.864 -0.504  0.000 -0.001 -0.002
      -0.001  0.002 -0.634 -0.705  0.316
     occupation matrix ns (before diag.):
       0.200 -0.001  0.001 -0.000 -0.002
      -0.001  0.900  0.002 -0.001  0.002
       0.001  0.002  0.898 -0.001 -0.002
      -0.000 -0.001 -0.001  0.200 -0.000
      -0.002  0.002 -0.002 -0.000  0.898
     ------------------------ ATOM    4 ------------------------
     Tr[ns(  4)] (up, down, total) =   0.34381  3.16833  3.51215
     Atomic magnetic moment for atom   4 =  -2.82452
     SPIN  1
     eigenvalues:
       0.019  0.025  0.028  0.108  0.164
     eigenvectors (columns):
      -0.008 -0.095 -0.009  0.995 -0.012
       0.977  0.200  0.067  0.027  0.015
       0.202 -0.974 -0.011 -0.091  0.037
       0.022 -0.032  0.001 -0.015 -0.999
      -0.063 -0.025  0.998  0.006  0.000
     occupation matrix ns (before diag.):
       0.107  0.002 -0.008  0.000  0.000
       0.002  0.019 -0.001 -0.002  0.001
      -0.008 -0.001  0.025 -0.005 -0.000
       0.000 -0.002 -0.005  0.164 -0.000
       0.000  0.001 -0.000 -0.000  0.028
     SPIN  2
     eigenvalues:
       0.132  0.205  0.917  0.956  0.958
     eigenvectors (columns):
       0.995 -0.013 -0.006 -0.042  0.090
       0.027  0.018  0.073  0.983  0.165
      -0.095  0.045 -0.022 -0.162  0.981
      -0.016 -0.999  0.001  0.011  0.046
       0.002  0.001  0.997 -0.076  0.010
     occupation matrix ns (before diag.):
       0.140 -0.022  0.079  0.004 -0.002
      -0.022  0.955  0.002  0.014 -0.003
       0.079  0.002  0.949  0.032  0.001
       0.004  0.014  0.032  0.207  0.000
      -0.002 -0.003  0.001  0.000  0.917
     ------------------------ ATOM    5 ------------------------
     Tr[ns(  5)] (up, down, total) =   0.34838  3.16447  3.51285
     Atomic magnetic moment for atom   5 =  -2.81609
     SPIN  1
     eigenvalues:
       0.018  0.025  0.028  0.115  0.163
     eigenvectors (columns):
      -0.024 -0.004  0.005 -0.507 -0.862
      -0.055 -0.039 -0.998 -0.006 -0.000
       0.985  0.162 -0.061 -0.023 -0.015
       0.000 -0.074  0.008 -0.859  0.506
      -0.165  0.983 -0.029 -0.063  0.037
     occupation matrix ns (before diag.):
       0.150  0.000  0.003 -0.021 -0.002
       0.000  0.028  0.001  0.000  0.000
       0.003  0.001  0.018  0.001  0.001
      -0.021  0.000  0.001  0.127  0.007
      -0.002  0.000  0.001  0.007  0.025
     SPIN  2
     eigenvalues:
       0.141  0.203  0.913  0.953  0.955
     eigenvectors (columns):
       0.508  0.861  0.003 -0.027  0.006
       0.003  0.001 -0.998 -0.061 -0.009
       0.024  0.017 -0.057  0.973 -0.220
       0.858 -0.506  0.004 -0.030 -0.078
       0.071 -0.043 -0.022  0.218  0.972
     occupation matrix ns (before diag.):
       0.188 -0.001 -0.021 -0.027 -0.002
      -0.001  0.913 -0.002 -0.001 -0.001
      -0.021 -0.002  0.953 -0.010 -0.001
      -0.027 -0.001 -0.010  0.162 -0.066
      -0.002 -0.001 -0.001 -0.066  0.949
     ------------------------ ATOM    6 ------------------------
     Tr[ns(  6)] (up, down, total) =   3.80224  0.85682  4.65905
     Atomic magnetic moment for atom   6 =   2.94542
     SPIN  1
     eigenvalues:
       0.482  0.496  0.938  0.942  0.943
     eigenvectors (columns):
      -0.877 -0.480 -0.008  0.005  0.003
       0.002  0.006  0.051  0.575  0.817
      -0.015  0.011  0.998 -0.063 -0.018
      -0.479  0.877 -0.018 -0.009  0.002
       0.003 -0.009 -0.040 -0.816  0.577
     occupation matrix ns (before diag.):
       0.486  0.002 -0.004 -0.006 -0.001
       0.002  0.943 -0.000 -0.002  0.001
      -0.004 -0.000  0.938 -0.008  0.000
      -0.006 -0.002 -0.008  0.493  0.004
      -0.001  0.001  0.000  0.004  0.942
     SPIN  2
     eigenvalues:
       0.040  0.046  0.048  0.355  0.367
     eigenvectors (columns):
       0.007  0.002 -0.004 -0.893 -0.451
       0.055  0.540 -0.840  0.003  0.005
      -0.998 -0.002 -0.067 -0.015  0.014
       0.019  0.005  0.008 -0.450  0.893
      -0.038  0.842  0.538  0.003 -0.008
     occupation matrix ns (before diag.):
       0.358 -0.002  0.002 -0.005  0.000
      -0.002  0.047  0.000  0.001 -0.001
       0.002  0.000  0.040  0.006 -0.000
      -0.005  0.001  0.006  0.364 -0.003
       0.000 -0.001 -0.000 -0.003  0.047
     ------------------------ ATOM    7 ------------------------
     Tr[ns(  7)] (up, down, total) =   3.80204  0.85731  4.65935
     Atomic magnetic moment for atom   7 =   2.94474
     SPIN  1
     eigenvalues:
       0.481  0.497  0.938  0.942  0.943
     eigenvectors (columns):
       0.815 -0.579  0.020  0.005 -0.004
       0.016 -0.012 -0.998  0.062  0.015
       0.002 -0.009 -0.034 -0.711  0.703
      -0.580 -0.815  0.002  0.009  0.000
      -0.003 -0.006 -0.054 -0.701 -0.711
     occupation matrix ns (before diag.):
       0.487 -0.009 -0.003  0.008 -0.001
      -0.009  0.938 -0.000 -0.000 -0.000
      -0.003 -0.000  0.943 -0.003 -0.001
       0.008 -0.000 -0.003  0.492 -0.003
      -0.001 -0.000 -0.001 -0.003  0.943
     SPIN  2
     eigenvalues:
       0.040  0.047  0.048  0.355  0.368
     eigenvectors (columns):
      -0.021  0.003  0.007 -0.801  0.598
       0.998  0.022 -0.058 -0.015  0.015
      -0.030 -0.645 -0.763 -0.002  0.008
      -0.003 -0.001  0.008  0.598  0.801
      -0.054  0.763 -0.644  0.003  0.005
     occupation matrix ns (before diag.):
       0.359  0.007  0.002  0.006  0.000
       0.007  0.040  0.000  0.001  0.000
       0.002  0.000  0.048  0.002  0.001
       0.006  0.001  0.002  0.363  0.002
       0.000  0.000  0.001  0.002  0.048
     ------------------------ ATOM    8 ------------------------
     Tr[ns(  8)] (up, down, total) =   3.80214  0.85681  4.65895
     Atomic magnetic moment for atom   8 =   2.94533
     SPIN  1
     eigenvalues:
       0.482  0.497  0.938  0.942  0.943
     eigenvectors (columns):
       0.180  0.984 -0.011  0.010  0.003
      -0.001  0.009  0.035 -0.586 -0.809
      -0.003 -0.006 -0.052  0.808 -0.587
       0.984 -0.180  0.016  0.001 -0.004
      -0.014  0.014  0.998  0.063 -0.002
     occupation matrix ns (before diag.):
       0.496 -0.004  0.003 -0.003 -0.005
      -0.004  0.943  0.001  0.001 -0.000
       0.003  0.001  0.942  0.001  0.000
      -0.003  0.001  0.001  0.482  0.007
      -0.005 -0.000  0.000  0.007  0.938
     SPIN  2
     eigenvalues:
       0.040  0.046  0.048  0.355  0.367
     eigenvectors (columns):
      -0.013 -0.002  0.010  0.198 -0.980
      -0.032 -0.448 -0.893 -0.002 -0.008
       0.065 -0.893  0.445 -0.004  0.005
       0.016 -0.003 -0.003  0.980  0.198
       0.997  0.044 -0.057 -0.013 -0.016
     occupation matrix ns (before diag.):
       0.367  0.002 -0.002 -0.002  0.004
       0.002  0.048 -0.001 -0.001  0.000
      -0.002 -0.001  0.047 -0.001 -0.000
      -0.002 -0.001 -0.001  0.355 -0.005
       0.004  0.000 -0.000 -0.005  0.040

     Number of occupied Hubbard levels =   28.0097

     HUBBARD ENERGY =    0.7653  (Ry)

     total cpu time spent up to now is      510.6 secs

     total energy              =   -2022.04911954 Ry
     estimated scf accuracy    <       0.00009952 Ry

     total magnetization       =    -3.00 Bohr mag/cell
     absolute magnetization    =    24.39 Bohr mag/cell

     iteration # 17     ecut=   110.00 Ry     beta= 0.30
     Davidson diagonalization with overlap

---- Real-time Memory Report at c_bands before calling an iterative solver
           954 MiB given to the printing process from OS
           540 MiB allocation reported by mallinfo(arena+hblkhd)
        664856 MiB available memory on the node where the printing process lives
------------------
     ethr =  3.10E-08,  avg # of iterations =  4.5

     =================== HUBBARD OCCUPATIONS ===================
     ------------------------ ATOM    2 ------------------------
     Tr[ns(  2)] (up, down, total) =   0.34413  3.16910  3.51323
     Atomic magnetic moment for atom   2 =  -2.82498
     SPIN  1
     eigenvalues:
       0.018  0.024  0.028  0.108  0.165
     eigenvectors (columns):
       0.012 -0.047  0.005 -0.498 -0.866
       0.154 -0.986  0.041  0.034  0.037
       0.053  0.050  0.997  0.008 -0.000
       0.019  0.014 -0.008  0.866 -0.499
       0.986  0.151 -0.060 -0.017  0.014
     occupation matrix ns (before diag.):
       0.151 -0.006 -0.000  0.025 -0.001
      -0.006  0.024  0.000 -0.000 -0.001
      -0.000  0.000  0.028  0.001 -0.001
       0.025 -0.000  0.001  0.122 -0.002
      -0.001 -0.001 -0.001 -0.002  0.019
     SPIN  2
     eigenvalues:
       0.133  0.205  0.917  0.957  0.957
     eigenvectors (columns):
       0.497 -0.866  0.002  0.024  0.052
      -0.045  0.039  0.022  0.491  0.869
      -0.003 -0.001  0.999 -0.050  0.003
      -0.866 -0.498 -0.005 -0.031 -0.005
       0.019  0.017 -0.045 -0.869  0.493
     occupation matrix ns (before diag.):
       0.190  0.044  0.001  0.030  0.003
       0.044  0.954 -0.001 -0.018  0.001
       0.001 -0.001  0.917 -0.002  0.002
       0.030 -0.018 -0.002  0.152  0.020
       0.003  0.001  0.002  0.020  0.956
     ------------------------ ATOM    3 ------------------------
     Tr[ns(  3)] (up, down, total) =   0.39756  3.09411  3.49168
     Atomic magnetic moment for atom   3 =  -2.69655
     SPIN  1
     eigenvalues:
       0.025  0.025  0.026  0.161  0.161
     eigenvectors (columns):
      -0.005  0.003  0.000 -0.525  0.851
      -0.015 -0.778 -0.628 -0.005  0.000
      -0.718 -0.429  0.548 -0.003 -0.004
       0.003  0.005  0.000 -0.851 -0.525
       0.696 -0.459  0.553 -0.002  0.004
     occupation matrix ns (before diag.):
       0.161  0.000 -0.000 -0.000  0.001
       0.000  0.025 -0.000  0.001 -0.000
      -0.000 -0.000  0.025  0.001  0.000
      -0.000  0.001  0.001  0.161 -0.000
       0.001 -0.000  0.000 -0.000  0.025
     SPIN  2
     eigenvalues:
       0.199  0.200  0.894  0.900  0.902
     eigenvectors (columns):
      -0.498  0.867  0.000  0.003 -0.001
      -0.002 -0.000  0.456 -0.013  0.890
      -0.001 -0.002 -0.623  0.709  0.330
      -0.867 -0.498  0.000 -0.001 -0.002
      -0.001  0.002 -0.635 -0.705  0.315
     occupation matrix ns (before diag.):
       0.199 -0.001  0.001 -0.000 -0.002
      -0.001  0.900  0.002 -0.001  0.002
       0.001  0.002  0.898 -0.001 -0.002
      -0.000 -0.001 -0.001  0.199 -0.000
      -0.002  0.002 -0.002 -0.000  0.898
     ------------------------ ATOM    4 ------------------------
     Tr[ns(  4)] (up, down, total) =   0.34361  3.16749  3.51111
     Atomic magnetic moment for atom   4 =  -2.82388
     SPIN  1
     eigenvalues:
       0.019  0.025  0.028  0.108  0.165
     eigenvectors (columns):
      -0.008 -0.095 -0.009  0.995 -0.012
       0.977  0.200  0.067  0.027  0.015
       0.202 -0.974 -0.011 -0.091  0.037
       0.023 -0.032  0.001 -0.015 -0.999
      -0.063 -0.025  0.998  0.006  0.000
     occupation matrix ns (before diag.):
       0.107  0.002 -0.008  0.000  0.000
       0.002  0.019 -0.001 -0.002  0.001
      -0.008 -0.001  0.025 -0.005 -0.000
       0.000 -0.002 -0.005  0.164 -0.000
       0.000  0.001 -0.000 -0.000  0.028
     SPIN  2
     eigenvalues:
       0.132  0.205  0.917  0.956  0.958
     eigenvectors (columns):
       0.995 -0.013 -0.006 -0.042  0.090
       0.027  0.018  0.073  0.983  0.163
      -0.095  0.045 -0.022 -0.159  0.981
      -0.016 -0.999  0.001  0.011  0.046
       0.002  0.001  0.997 -0.076  0.010
     occupation matrix ns (before diag.):
       0.140 -0.022  0.079  0.004 -0.002
      -0.022  0.955  0.002  0.014 -0.003
       0.079  0.002  0.949  0.032  0.001
       0.004  0.014  0.032  0.207  0.000
      -0.002 -0.003  0.001  0.000  0.917
     ------------------------ ATOM    5 ------------------------
     Tr[ns(  5)] (up, down, total) =   0.34804  3.16346  3.51150
     Atomic magnetic moment for atom   5 =  -2.81543
     SPIN  1
     eigenvalues:
       0.018  0.025  0.028  0.114  0.163
     eigenvectors (columns):
      -0.024 -0.004  0.005 -0.507 -0.862
      -0.055 -0.039 -0.998 -0.006 -0.000
       0.984  0.162 -0.061 -0.023 -0.015
       0.000 -0.074  0.008 -0.859  0.506
      -0.165  0.983 -0.029 -0.063  0.037
     occupation matrix ns (before diag.):
       0.150  0.000  0.003 -0.021 -0.002
       0.000  0.028  0.001  0.000  0.000
       0.003  0.001  0.018  0.001  0.001
      -0.021  0.000  0.001  0.126  0.007
      -0.002  0.000  0.001  0.007  0.025
     SPIN  2
     eigenvalues:
       0.140  0.203  0.912  0.953  0.955
     eigenvectors (columns):
       0.508  0.861  0.003 -0.026  0.007
       0.003  0.001 -0.998 -0.061 -0.009
       0.024  0.017 -0.057  0.973 -0.223
       0.858 -0.506  0.004 -0.030 -0.078
       0.071 -0.043 -0.022  0.220  0.972
     occupation matrix ns (before diag.):
       0.187 -0.001 -0.021 -0.027 -0.002
      -0.001  0.913 -0.002 -0.001 -0.001
      -0.021 -0.002  0.952 -0.010 -0.001
      -0.027 -0.001 -0.010  0.162 -0.066
      -0.002 -0.001 -0.001 -0.066  0.949
     ------------------------ ATOM    6 ------------------------
     Tr[ns(  6)] (up, down, total) =   3.80132  0.85529  4.65661
     Atomic magnetic moment for atom   6 =   2.94603
     SPIN  1
     eigenvalues:
       0.482  0.496  0.938  0.942  0.943
     eigenvectors (columns):
      -0.876 -0.482 -0.008  0.005  0.003
       0.002  0.007  0.050  0.573  0.818
      -0.015  0.011  0.998 -0.061 -0.018
      -0.482  0.876 -0.018 -0.009  0.002
       0.003 -0.009 -0.040 -0.817  0.575
     occupation matrix ns (before diag.):
       0.485  0.002 -0.004 -0.006 -0.001
       0.002  0.943 -0.000 -0.002  0.001
      -0.004 -0.000  0.938 -0.008  0.000
      -0.006 -0.002 -0.008  0.493  0.004
      -0.001  0.001  0.000  0.004  0.942
     SPIN  2
     eigenvalues:
       0.040  0.046  0.048  0.355  0.366
     eigenvectors (columns):
       0.007  0.002 -0.004 -0.892 -0.453
       0.055  0.538 -0.841  0.003  0.005
      -0.998 -0.003 -0.066 -0.015  0.014
       0.019  0.005  0.008 -0.453  0.891
      -0.038  0.843  0.537  0.003 -0.008
     occupation matrix ns (before diag.):
       0.357 -0.002  0.002 -0.005  0.000
      -0.002  0.047  0.000  0.001 -0.001
       0.002  0.000  0.040  0.006 -0.000
      -0.005  0.001  0.006  0.364 -0.003
       0.000 -0.001 -0.000 -0.003  0.047
     ------------------------ ATOM    7 ------------------------
     Tr[ns(  7)] (up, down, total) =   3.80087  0.85566  4.65653
     Atomic magnetic moment for atom   7 =   2.94521
     SPIN  1
     eigenvalues:
       0.481  0.497  0.938  0.942  0.943
     eigenvectors (columns):
       0.816 -0.578  0.020  0.005 -0.004
       0.016 -0.012 -0.998  0.061  0.014
       0.002 -0.009 -0.033 -0.711  0.703
      -0.578 -0.816  0.002  0.009  0.000
      -0.003 -0.006 -0.053 -0.701 -0.711
     occupation matrix ns (before diag.):
       0.487 -0.009 -0.003  0.008 -0.001
      -0.009  0.938 -0.000 -0.000 -0.000
      -0.003 -0.000  0.942 -0.003 -0.001
       0.008 -0.000 -0.003  0.492 -0.003
      -0.001 -0.000 -0.001 -0.003  0.942
     SPIN  2
     eigenvalues:
       0.040  0.047  0.048  0.354  0.367
     eigenvectors (columns):
      -0.021  0.004  0.007 -0.802  0.597
       0.998  0.022 -0.057 -0.015  0.015
      -0.030 -0.647 -0.761 -0.002  0.008
      -0.003 -0.001  0.008  0.597  0.802
      -0.054  0.762 -0.646  0.003  0.005
     occupation matrix ns (before diag.):
       0.358  0.007  0.002  0.006  0.000
       0.007  0.040  0.000  0.001  0.000
       0.002  0.000  0.048  0.002  0.001
       0.006  0.001  0.002  0.362  0.002
       0.000  0.000  0.001  0.002  0.047
     ------------------------ ATOM    8 ------------------------
     Tr[ns(  8)] (up, down, total) =   3.80123  0.85528  4.65651
     Atomic magnetic moment for atom   8 =   2.94595
     SPIN  1
     eigenvalues:
       0.481  0.497  0.938  0.942  0.943
     eigenvectors (columns):
       0.176  0.984 -0.011  0.010  0.003
      -0.002  0.009  0.034 -0.584 -0.811
      -0.003 -0.006 -0.051  0.809 -0.585
       0.984 -0.176  0.016  0.001 -0.004
      -0.014  0.014  0.998  0.061 -0.002
     occupation matrix ns (before diag.):
       0.496 -0.004  0.003 -0.003 -0.005
      -0.004  0.943  0.001  0.001 -0.000
       0.003  0.001  0.942  0.001  0.000
      -0.003  0.001  0.001  0.482  0.007
      -0.005 -0.000  0.000  0.007  0.938
     SPIN  2
     eigenvalues:
       0.040  0.046  0.048  0.354  0.367
     eigenvectors (columns):
      -0.013 -0.002  0.010  0.198 -0.980
      -0.031 -0.447 -0.894 -0.002 -0.008
       0.064 -0.893  0.445 -0.003  0.005
       0.016 -0.003 -0.003  0.980  0.197
       0.997  0.044 -0.057 -0.013 -0.016
     occupation matrix ns (before diag.):
       0.366  0.002 -0.002 -0.002  0.004
       0.002  0.048 -0.001 -0.001  0.000
      -0.002 -0.001  0.047 -0.001 -0.000
      -0.002 -0.001 -0.001  0.355 -0.005
       0.004  0.000 -0.000 -0.005  0.040

     Number of occupied Hubbard levels =   27.9972

     HUBBARD ENERGY =    0.7653  (Ry)

     total cpu time spent up to now is      544.4 secs

     total energy              =   -2022.04906965 Ry
     estimated scf accuracy    <       0.00018653 Ry

     total magnetization       =    -3.00 Bohr mag/cell
     absolute magnetization    =    24.39 Bohr mag/cell

     iteration # 18     ecut=   110.00 Ry     beta= 0.30
     Davidson diagonalization with overlap

---- Real-time Memory Report at c_bands before calling an iterative solver
           954 MiB given to the printing process from OS
           540 MiB allocation reported by mallinfo(arena+hblkhd)
        665009 MiB available memory on the node where the printing process lives
------------------
     ethr =  3.10E-08,  avg # of iterations =  4.0

     =================== HUBBARD OCCUPATIONS ===================
     ------------------------ ATOM    2 ------------------------
     Tr[ns(  2)] (up, down, total) =   0.34439  3.17009  3.51448
     Atomic magnetic moment for atom   2 =  -2.82569
     SPIN  1
     eigenvalues:
       0.018  0.024  0.028  0.108  0.165
     eigenvectors (columns):
       0.012 -0.047  0.005 -0.498 -0.866
       0.153 -0.986  0.041  0.034  0.037
       0.053  0.050  0.997  0.008 -0.000
       0.019  0.014 -0.008  0.866 -0.499
       0.987  0.151 -0.060 -0.017  0.014
     occupation matrix ns (before diag.):
       0.151 -0.006 -0.000  0.025 -0.001
      -0.006  0.024  0.000 -0.000 -0.001
      -0.000  0.000  0.028  0.001 -0.001
       0.025 -0.000  0.001  0.123 -0.002
      -0.001 -0.001 -0.001 -0.002  0.019
     SPIN  2
     eigenvalues:
       0.133  0.206  0.917  0.957  0.957
     eigenvectors (columns):
       0.497 -0.866  0.002  0.024  0.052
      -0.045  0.039  0.022  0.500  0.864
      -0.003 -0.001  0.999 -0.050  0.004
      -0.866 -0.498 -0.005 -0.031 -0.005
       0.019  0.017 -0.045 -0.864  0.501
     occupation matrix ns (before diag.):
       0.190  0.044  0.001  0.030  0.003
       0.044  0.954 -0.001 -0.018  0.001
       0.001 -0.001  0.917 -0.002  0.002
       0.030 -0.018 -0.002  0.152  0.020
       0.003  0.001  0.002  0.020  0.956
     ------------------------ ATOM    3 ------------------------
     Tr[ns(  3)] (up, down, total) =   0.39829  3.09691  3.49521
     Atomic magnetic moment for atom   3 =  -2.69862
     SPIN  1
     eigenvalues:
       0.025  0.025  0.026  0.161  0.161
     eigenvectors (columns):
      -0.005  0.003  0.000 -0.511  0.860
      -0.005 -0.777 -0.630 -0.005  0.000
      -0.712 -0.440  0.548 -0.003 -0.004
       0.003  0.005  0.000 -0.860 -0.511
       0.703 -0.451  0.551 -0.002  0.004
     occupation matrix ns (before diag.):
       0.161  0.000 -0.000 -0.000  0.001
       0.000  0.025 -0.000  0.001 -0.000
      -0.000 -0.000  0.025  0.001  0.000
      -0.000  0.001  0.001  0.161 -0.000
       0.001 -0.000  0.000 -0.000  0.025
     SPIN  2
     eigenvalues:
       0.199  0.200  0.894  0.901  0.902
     eigenvectors (columns):
      -0.501  0.865  0.000  0.003 -0.001
      -0.002 -0.000  0.454 -0.013  0.891
      -0.001 -0.002 -0.624  0.709  0.328
      -0.865 -0.501  0.000 -0.001 -0.002
      -0.001  0.002 -0.636 -0.705  0.314
     occupation matrix ns (before diag.):
       0.200 -0.001  0.001 -0.000 -0.002
      -0.001  0.901  0.002 -0.001  0.002
       0.001  0.002  0.898 -0.001 -0.002
      -0.000 -0.001 -0.001  0.200 -0.000
      -0.002  0.002 -0.002 -0.000  0.898
     ------------------------ ATOM    4 ------------------------
     Tr[ns(  4)] (up, down, total) =   0.34389  3.16845  3.51234
     Atomic magnetic moment for atom   4 =  -2.82456
     SPIN  1
     eigenvalues:
       0.018  0.024  0.028  0.108  0.165
     eigenvectors (columns):
      -0.008 -0.095 -0.009  0.995 -0.013
       0.977  0.200  0.067  0.027  0.015
       0.202 -0.974 -0.011 -0.091  0.037
       0.023 -0.032  0.001 -0.015 -0.999
      -0.063 -0.025  0.998  0.006  0.000
     occupation matrix ns (before diag.):
       0.107  0.002 -0.008  0.000  0.000
       0.002  0.019 -0.001 -0.002  0.001
      -0.008 -0.001  0.025 -0.005 -0.000
       0.000 -0.002 -0.005  0.165 -0.000
       0.000  0.001 -0.000 -0.000  0.028
     SPIN  2
     eigenvalues:
       0.132  0.205  0.917  0.956  0.958
     eigenvectors (columns):
       0.995 -0.013 -0.006 -0.041  0.090
       0.027  0.018  0.073  0.984  0.161
      -0.095  0.045 -0.022 -0.157  0.982
      -0.016 -0.999  0.001  0.011  0.046
       0.002  0.001  0.997 -0.076  0.010
     occupation matrix ns (before diag.):
       0.140 -0.022  0.079  0.004 -0.002
      -0.022  0.955  0.002  0.014 -0.003
       0.079  0.002  0.949  0.032  0.001
       0.004  0.014  0.032  0.207  0.000
      -0.002 -0.003  0.001  0.000  0.918
     ------------------------ ATOM    5 ------------------------
     Tr[ns(  5)] (up, down, total) =   0.34835  3.16458  3.51293
     Atomic magnetic moment for atom   5 =  -2.81622
     SPIN  1
     eigenvalues:
       0.018  0.025  0.028  0.115  0.163
     eigenvectors (columns):
      -0.024 -0.004  0.005 -0.507 -0.862
      -0.055 -0.039 -0.998 -0.006 -0.000
       0.985  0.162 -0.061 -0.023 -0.015
      -0.000 -0.074  0.008 -0.859  0.506
      -0.164  0.983 -0.029 -0.063  0.037
     occupation matrix ns (before diag.):
       0.151  0.000  0.003 -0.021 -0.002
       0.000  0.028  0.001  0.000  0.000
       0.003  0.001  0.018  0.001  0.001
      -0.021  0.000  0.001  0.127  0.007
      -0.002  0.000  0.001  0.007  0.025
     SPIN  2
     eigenvalues:
       0.141  0.203  0.913  0.953  0.955
     eigenvectors (columns):
       0.508  0.861  0.003 -0.026  0.007
       0.003  0.001 -0.998 -0.060 -0.009
       0.024  0.017 -0.057  0.973 -0.223
       0.858 -0.506  0.004 -0.030 -0.078
       0.071 -0.043 -0.022  0.220  0.972
     occupation matrix ns (before diag.):
       0.188 -0.001 -0.021 -0.027 -0.002
      -0.001  0.913 -0.002 -0.001 -0.001
      -0.021 -0.002  0.953 -0.010 -0.001
      -0.027 -0.001 -0.010  0.162 -0.066
      -0.002 -0.001 -0.001 -0.066  0.949
     ------------------------ ATOM    6 ------------------------
     Tr[ns(  6)] (up, down, total) =   3.80240  0.85657  4.65897
     Atomic magnetic moment for atom   6 =   2.94583
     SPIN  1
     eigenvalues:
       0.482  0.497  0.938  0.942  0.943
     eigenvectors (columns):
      -0.877 -0.480 -0.008  0.005  0.003
       0.002  0.007  0.049  0.571  0.819
      -0.015  0.011  0.998 -0.060 -0.018
      -0.480  0.877 -0.018 -0.009  0.002
       0.003 -0.009 -0.039 -0.818  0.573
     occupation matrix ns (before diag.):
       0.486  0.002 -0.004 -0.006 -0.001
       0.002  0.943 -0.000 -0.002  0.001
      -0.004 -0.000  0.938 -0.008  0.000
      -0.006 -0.002 -0.008  0.494  0.004
      -0.001  0.001  0.000  0.004  0.942
     SPIN  2
     eigenvalues:
       0.040  0.046  0.048  0.355  0.367
     eigenvectors (columns):
       0.007  0.002 -0.004 -0.890 -0.457
       0.054  0.538 -0.841  0.003  0.005
      -0.998 -0.002 -0.066 -0.015  0.014
       0.019  0.005  0.008 -0.456  0.890
      -0.038  0.843  0.537  0.003 -0.008
     occupation matrix ns (before diag.):
       0.358 -0.002  0.002 -0.005  0.000
      -0.002  0.048  0.000  0.001 -0.001
       0.002  0.000  0.040  0.006 -0.000
      -0.005  0.001  0.006  0.364 -0.003
       0.000 -0.001 -0.000 -0.003  0.047
     ------------------------ ATOM    7 ------------------------
     Tr[ns(  7)] (up, down, total) =   3.80192  0.85696  4.65888
     Atomic magnetic moment for atom   7 =   2.94495
     SPIN  1
     eigenvalues:
       0.481  0.497  0.938  0.942  0.943
     eigenvectors (columns):
       0.816 -0.578  0.020  0.005 -0.004
       0.016 -0.012 -0.998  0.061  0.014
       0.002 -0.009 -0.033 -0.711  0.702
      -0.578 -0.816  0.002  0.009  0.000
      -0.003 -0.006 -0.053 -0.700 -0.712
     occupation matrix ns (before diag.):
       0.487 -0.009 -0.003  0.008 -0.001
      -0.009  0.938 -0.000 -0.000 -0.000
      -0.003 -0.000  0.943 -0.003 -0.001
       0.008 -0.000 -0.003  0.492 -0.003
      -0.001 -0.000 -0.001 -0.003  0.943
     SPIN  2
     eigenvalues:
       0.040  0.047  0.048  0.355  0.367
     eigenvectors (columns):
      -0.021  0.004  0.007 -0.803  0.596
       0.998  0.022 -0.057 -0.015  0.015
      -0.030 -0.647 -0.762 -0.002  0.008
      -0.003 -0.001  0.008  0.596  0.803
      -0.054  0.762 -0.645  0.003  0.005
     occupation matrix ns (before diag.):
       0.359  0.007  0.002  0.006  0.000
       0.007  0.040  0.000  0.001  0.000
       0.002  0.000  0.048  0.002  0.001
       0.006  0.001  0.002  0.363  0.002
       0.000  0.000  0.001  0.002  0.048
     ------------------------ ATOM    8 ------------------------
     Tr[ns(  8)] (up, down, total) =   3.80233  0.85664  4.65897
     Atomic magnetic moment for atom   8 =   2.94568
     SPIN  1
     eigenvalues:
       0.482  0.497  0.938  0.942  0.943
     eigenvectors (columns):
       0.177  0.984 -0.011  0.010  0.003
      -0.002  0.009  0.034 -0.585 -0.810
      -0.003 -0.006 -0.050  0.809 -0.586
       0.984 -0.177  0.016  0.001 -0.004
      -0.014  0.014  0.998  0.061 -0.002
     occupation matrix ns (before diag.):
       0.497 -0.004  0.003 -0.003 -0.005
      -0.004  0.943  0.001  0.001 -0.000
       0.003  0.001  0.942  0.001  0.000
      -0.003  0.001  0.001  0.482  0.007
      -0.005 -0.000  0.000  0.007  0.938
     SPIN  2
     eigenvalues:
       0.040  0.046  0.048  0.355  0.367
     eigenvectors (columns):
      -0.013 -0.002  0.010  0.195 -0.981
      -0.031 -0.445 -0.895 -0.002 -0.008
       0.064 -0.894  0.443 -0.003  0.005
       0.016 -0.003 -0.003  0.981  0.195
       0.997  0.044 -0.056 -0.013 -0.016
     occupation matrix ns (before diag.):
       0.367  0.002 -0.002 -0.002  0.004
       0.002  0.048 -0.001 -0.001  0.000
      -0.002 -0.001  0.047 -0.001 -0.000
      -0.002 -0.001 -0.001  0.355 -0.005
       0.004  0.000 -0.000 -0.005  0.041

     Number of occupied Hubbard levels =   28.0118

     HUBBARD ENERGY =    0.7654  (Ry)

     total cpu time spent up to now is      579.0 secs

     total energy              =   -2022.04911039 Ry
     estimated scf accuracy    <       0.00007292 Ry

     total magnetization       =    -3.00 Bohr mag/cell
     absolute magnetization    =    24.39 Bohr mag/cell

     iteration # 19     ecut=   110.00 Ry     beta= 0.30
     Davidson diagonalization with overlap

---- Real-time Memory Report at c_bands before calling an iterative solver
           954 MiB given to the printing process from OS
           540 MiB allocation reported by mallinfo(arena+hblkhd)
        664879 MiB available memory on the node where the printing process lives
------------------
     ethr =  2.27E-08,  avg # of iterations =  1.9

     =================== HUBBARD OCCUPATIONS ===================
     ------------------------ ATOM    2 ------------------------
     Tr[ns(  2)] (up, down, total) =   0.34446  3.16988  3.51433
     Atomic magnetic moment for atom   2 =  -2.82542
     SPIN  1
     eigenvalues:
       0.018  0.024  0.029  0.108  0.165
     eigenvectors (columns):
       0.012 -0.047  0.005 -0.498 -0.866
       0.153 -0.986  0.041  0.034  0.037
       0.053  0.050  0.997  0.008 -0.000
       0.019  0.014 -0.008  0.866 -0.499
       0.986  0.151 -0.060 -0.017  0.014
     occupation matrix ns (before diag.):
       0.151 -0.006 -0.000  0.025 -0.001
      -0.006  0.024  0.000 -0.000 -0.001
      -0.000  0.000  0.028  0.001 -0.001
       0.025 -0.000  0.001  0.123 -0.002
      -0.001 -0.001 -0.001 -0.002  0.019
     SPIN  2
     eigenvalues:
       0.133  0.206  0.917  0.957  0.957
     eigenvectors (columns):
       0.497 -0.866  0.002  0.024  0.051
      -0.045  0.039  0.022  0.504  0.861
      -0.003 -0.001  0.999 -0.050  0.004
      -0.866 -0.498 -0.005 -0.031 -0.004
       0.019  0.017 -0.045 -0.861  0.505
     occupation matrix ns (before diag.):
       0.190  0.044  0.001  0.030  0.003
       0.044  0.954 -0.001 -0.018  0.001
       0.001 -0.001  0.917 -0.002  0.002
       0.030 -0.018 -0.002  0.152  0.020
       0.003  0.001  0.002  0.020  0.956
     ------------------------ ATOM    3 ------------------------
     Tr[ns(  3)] (up, down, total) =   0.39835  3.09647  3.49482
     Atomic magnetic moment for atom   3 =  -2.69811
     SPIN  1
     eigenvalues:
       0.025  0.025  0.026  0.161  0.161
     eigenvectors (columns):
      -0.005  0.003  0.000 -0.509  0.861
      -0.011 -0.776 -0.630 -0.005  0.000
      -0.716 -0.434  0.547 -0.003 -0.004
       0.003  0.005  0.000 -0.861 -0.509
       0.698 -0.457  0.551 -0.002  0.004
     occupation matrix ns (before diag.):
       0.161  0.000 -0.000 -0.000  0.001
       0.000  0.025 -0.000  0.001 -0.000
      -0.000 -0.000  0.025  0.001  0.000
      -0.000  0.001  0.001  0.161 -0.000
       0.001 -0.000  0.000 -0.000  0.025
     SPIN  2
     eigenvalues:
       0.199  0.200  0.894  0.901  0.902
     eigenvectors (columns):
      -0.502  0.865  0.000  0.003 -0.001
      -0.002 -0.000  0.453 -0.013  0.891
      -0.001 -0.002 -0.624  0.709  0.328
      -0.865 -0.502  0.000 -0.001 -0.002
      -0.001  0.002 -0.636 -0.705  0.313
     occupation matrix ns (before diag.):
       0.200 -0.001  0.001 -0.000 -0.002
      -0.001  0.901  0.002 -0.001  0.002
       0.001  0.002  0.898 -0.001 -0.002
      -0.000 -0.001 -0.001  0.200 -0.000
      -0.002  0.002 -0.002 -0.000  0.898
     ------------------------ ATOM    4 ------------------------
     Tr[ns(  4)] (up, down, total) =   0.34396  3.16824  3.51220
     Atomic magnetic moment for atom   4 =  -2.82428
     SPIN  1
     eigenvalues:
       0.019  0.025  0.028  0.108  0.165
     eigenvectors (columns):
      -0.008 -0.095 -0.009  0.995 -0.013
       0.977  0.200  0.067  0.027  0.015
       0.202 -0.974 -0.011 -0.091  0.037
       0.023 -0.032  0.001 -0.015 -0.999
      -0.063 -0.025  0.998  0.006  0.000
     occupation matrix ns (before diag.):
       0.107  0.002 -0.008  0.000  0.000
       0.002  0.019 -0.001 -0.002  0.001
      -0.008 -0.001  0.025 -0.005 -0.000
       0.000 -0.002 -0.005  0.165 -0.000
       0.000  0.001 -0.000 -0.000  0.028
     SPIN  2
     eigenvalues:
       0.132  0.205  0.917  0.956  0.958
     eigenvectors (columns):
       0.995 -0.013 -0.006 -0.041  0.090
       0.027  0.018  0.073  0.984  0.160
      -0.095  0.045 -0.022 -0.157  0.982
      -0.016 -0.999  0.001  0.011  0.046
       0.002  0.001  0.997 -0.076  0.010
     occupation matrix ns (before diag.):
       0.140 -0.022  0.079  0.004 -0.002
      -0.022  0.955  0.002  0.014 -0.003
       0.079  0.002  0.949  0.032  0.001
       0.004  0.014  0.032  0.207  0.000
      -0.002 -0.003  0.001  0.000  0.917
     ------------------------ ATOM    5 ------------------------
     Tr[ns(  5)] (up, down, total) =   0.34841  3.16435  3.51277
     Atomic magnetic moment for atom   5 =  -2.81594
     SPIN  1
     eigenvalues:
       0.018  0.025  0.028  0.115  0.163
     eigenvectors (columns):
      -0.024 -0.004  0.005 -0.507 -0.862
      -0.055 -0.039 -0.998 -0.006 -0.000
       0.985  0.162 -0.061 -0.023 -0.015
      -0.000 -0.074  0.008 -0.859  0.506
      -0.164  0.983 -0.028 -0.063  0.037
     occupation matrix ns (before diag.):
       0.151  0.000  0.003 -0.021 -0.002
       0.000  0.028  0.001  0.000  0.000
       0.003  0.001  0.018  0.001  0.001
      -0.021  0.000  0.001  0.127  0.007
      -0.002  0.000  0.001  0.007  0.025
     SPIN  2
     eigenvalues:
       0.141  0.203  0.913  0.953  0.955
     eigenvectors (columns):
       0.508  0.861  0.004 -0.026  0.007
       0.003  0.001 -0.998 -0.060 -0.009
       0.024  0.017 -0.057  0.973 -0.223
       0.858 -0.506  0.004 -0.030 -0.078
       0.071 -0.043 -0.022  0.221  0.972
     occupation matrix ns (before diag.):
       0.187 -0.001 -0.021 -0.027 -0.002
      -0.001  0.913 -0.002 -0.001 -0.001
      -0.021 -0.002  0.953 -0.010 -0.001
      -0.027 -0.001 -0.010  0.162 -0.066
      -0.002 -0.001 -0.001 -0.066  0.949
     ------------------------ ATOM    6 ------------------------
     Tr[ns(  6)] (up, down, total) =   3.80234  0.85616  4.65850
     Atomic magnetic moment for atom   6 =   2.94619
     SPIN  1
     eigenvalues:
       0.482  0.497  0.938  0.942  0.943
     eigenvectors (columns):
      -0.877 -0.480 -0.008  0.005  0.003
       0.002  0.007  0.049  0.571  0.819
      -0.015  0.011  0.998 -0.060 -0.018
      -0.480  0.877 -0.018 -0.009  0.002
       0.003 -0.009 -0.039 -0.818  0.573
     occupation matrix ns (before diag.):
       0.486  0.002 -0.004 -0.006 -0.001
       0.002  0.943 -0.000 -0.002  0.001
      -0.004 -0.000  0.938 -0.008  0.000
      -0.006 -0.002 -0.008  0.494  0.004
      -0.001  0.001  0.000  0.004  0.942
     SPIN  2
     eigenvalues:
       0.040  0.046  0.048  0.355  0.367
     eigenvectors (columns):
       0.007  0.002 -0.004 -0.890 -0.456
       0.054  0.537 -0.842  0.003  0.005
      -0.998 -0.003 -0.066 -0.015  0.014
       0.019  0.005  0.008 -0.456  0.890
      -0.038  0.843  0.536  0.003 -0.008
     occupation matrix ns (before diag.):
       0.357 -0.002  0.002 -0.005  0.000
      -0.002  0.047  0.000  0.001 -0.001
       0.002  0.000  0.040  0.006 -0.000
      -0.005  0.001  0.006  0.364 -0.003
       0.000 -0.001 -0.000 -0.003  0.047
     ------------------------ ATOM    7 ------------------------
     Tr[ns(  7)] (up, down, total) =   3.80187  0.85654  4.65841
     Atomic magnetic moment for atom   7 =   2.94533
     SPIN  1
     eigenvalues:
       0.481  0.497  0.938  0.942  0.943
     eigenvectors (columns):
       0.816 -0.578  0.020  0.005 -0.004
       0.016 -0.012 -0.998  0.061  0.014
       0.002 -0.009 -0.033 -0.711  0.702
      -0.578 -0.816  0.002  0.009  0.000
      -0.003 -0.006 -0.053 -0.700 -0.712
     occupation matrix ns (before diag.):
       0.487 -0.009 -0.003  0.008 -0.001
      -0.009  0.938 -0.000 -0.000 -0.000
      -0.003 -0.000  0.943 -0.003 -0.001
       0.008 -0.000 -0.003  0.492 -0.003
      -0.001 -0.000 -0.001 -0.003  0.943
     SPIN  2
     eigenvalues:
       0.040  0.047  0.048  0.354  0.367
     eigenvectors (columns):
      -0.021  0.004  0.007 -0.803  0.596
       0.998  0.022 -0.057 -0.015  0.015
      -0.030 -0.648 -0.761 -0.002  0.008
      -0.003 -0.001  0.008  0.596  0.803
      -0.053  0.762 -0.646  0.003  0.005
     occupation matrix ns (before diag.):
       0.359  0.007  0.002  0.006  0.000
       0.007  0.040  0.000  0.001  0.000
       0.002  0.000  0.048  0.002  0.001
       0.006  0.001  0.002  0.363  0.002
       0.000  0.000  0.001  0.002  0.048
     ------------------------ ATOM    8 ------------------------
     Tr[ns(  8)] (up, down, total) =   3.80225  0.85620  4.65845
     Atomic magnetic moment for atom   8 =   2.94605
     SPIN  1
     eigenvalues:
       0.482  0.497  0.938  0.942  0.943
     eigenvectors (columns):
       0.176  0.984 -0.011  0.010  0.003
      -0.002  0.009  0.033 -0.584 -0.811
      -0.003 -0.006 -0.050  0.809 -0.585
       0.984 -0.176  0.016  0.001 -0.004
      -0.014  0.014  0.998  0.060 -0.002
     occupation matrix ns (before diag.):
       0.497 -0.004  0.003 -0.003 -0.005
      -0.004  0.943  0.001  0.001 -0.000
       0.003  0.001  0.942  0.001  0.000
      -0.003  0.001  0.001  0.482  0.007
      -0.005 -0.000  0.000  0.007  0.938
     SPIN  2
     eigenvalues:
       0.040  0.046  0.048  0.355  0.367
     eigenvectors (columns):
      -0.013 -0.002  0.010  0.196 -0.981
      -0.031 -0.446 -0.895 -0.002 -0.008
       0.064 -0.894  0.443 -0.003  0.005
       0.016 -0.003 -0.003  0.981  0.195
       0.997  0.044 -0.056 -0.013 -0.016
     occupation matrix ns (before diag.):
       0.366  0.002 -0.002 -0.002  0.004
       0.002  0.048 -0.001 -0.001  0.000
      -0.002 -0.001  0.047 -0.001 -0.000
      -0.002 -0.001 -0.001  0.355 -0.005
       0.004  0.000 -0.000 -0.005  0.040

     Number of occupied Hubbard levels =   28.0095

     HUBBARD ENERGY =    0.7654  (Ry)

     total cpu time spent up to now is      606.4 secs

     total energy              =   -2022.04910907 Ry
     estimated scf accuracy    <       0.00001885 Ry

     total magnetization       =    -3.00 Bohr mag/cell
     absolute magnetization    =    24.40 Bohr mag/cell

     iteration # 20     ecut=   110.00 Ry     beta= 0.30
     Davidson diagonalization with overlap

---- Real-time Memory Report at c_bands before calling an iterative solver
           954 MiB given to the printing process from OS
           540 MiB allocation reported by mallinfo(arena+hblkhd)
        664946 MiB available memory on the node where the printing process lives
------------------
     ethr =  5.87E-09,  avg # of iterations =  5.0

     =================== HUBBARD OCCUPATIONS ===================
     ------------------------ ATOM    2 ------------------------
     Tr[ns(  2)] (up, down, total) =   0.34439  3.16973  3.51412
     Atomic magnetic moment for atom   2 =  -2.82534
     SPIN  1
     eigenvalues:
       0.018  0.024  0.029  0.108  0.165
     eigenvectors (columns):
       0.012 -0.047  0.005 -0.498 -0.866
       0.153 -0.986  0.041  0.034  0.037
       0.053  0.050  0.997  0.008 -0.000
       0.019  0.014 -0.008  0.866 -0.499
       0.986  0.151 -0.060 -0.017  0.014
     occupation matrix ns (before diag.):
       0.151 -0.006 -0.000  0.025 -0.001
      -0.006  0.024  0.000 -0.000 -0.001
      -0.000  0.000  0.028  0.001 -0.001
       0.025 -0.000  0.001  0.123 -0.002
      -0.001 -0.001 -0.001 -0.002  0.019
     SPIN  2
     eigenvalues:
       0.133  0.206  0.917  0.957  0.957
     eigenvectors (columns):
       0.497 -0.866  0.002  0.025  0.051
      -0.045  0.039  0.022  0.509  0.858
      -0.003 -0.001  0.999 -0.050  0.004
      -0.866 -0.498 -0.005 -0.031 -0.004
       0.019  0.017 -0.045 -0.858  0.510
     occupation matrix ns (before diag.):
       0.190  0.044  0.001  0.030  0.003
       0.044  0.954 -0.001 -0.018  0.001
       0.001 -0.001  0.917 -0.002  0.002
       0.030 -0.018 -0.002  0.152  0.020
       0.003  0.001  0.002  0.020  0.956
     ------------------------ ATOM    3 ------------------------
     Tr[ns(  3)] (up, down, total) =   0.39801  3.09513  3.49314
     Atomic magnetic moment for atom   3 =  -2.69713
     SPIN  1
     eigenvalues:
       0.025  0.025  0.026  0.161  0.161
     eigenvectors (columns):
      -0.005  0.003  0.000 -0.503  0.864
      -0.019 -0.776 -0.630 -0.005  0.000
      -0.720 -0.427  0.548 -0.003 -0.004
       0.003  0.005  0.000 -0.864 -0.503
       0.694 -0.464  0.551 -0.002  0.004
     occupation matrix ns (before diag.):
       0.161  0.000 -0.000 -0.000  0.001
       0.000  0.025 -0.000  0.001 -0.000
      -0.000 -0.000  0.025  0.001  0.000
      -0.000  0.001  0.001  0.161 -0.000
       0.001 -0.000  0.000 -0.000  0.025
     SPIN  2
     eigenvalues:
       0.199  0.200  0.894  0.900  0.902
     eigenvectors (columns):
      -0.502  0.865  0.000  0.003 -0.001
      -0.002 -0.000  0.452 -0.013  0.892
      -0.001 -0.002 -0.625  0.709  0.327
      -0.865 -0.502  0.000 -0.001 -0.002
      -0.001  0.002 -0.637 -0.705  0.313
     occupation matrix ns (before diag.):
       0.200 -0.001  0.001 -0.000 -0.002
      -0.001  0.900  0.002 -0.001  0.002
       0.001  0.002  0.898 -0.001 -0.002
      -0.000 -0.001 -0.001  0.199 -0.000
      -0.002  0.002 -0.002 -0.000  0.898
     ------------------------ ATOM    4 ------------------------
     Tr[ns(  4)] (up, down, total) =   0.34389  3.16810  3.51199
     Atomic magnetic moment for atom   4 =  -2.82421
     SPIN  1
     eigenvalues:
       0.019  0.025  0.028  0.108  0.165
     eigenvectors (columns):
      -0.008 -0.095 -0.009  0.995 -0.013
       0.977  0.200  0.067  0.027  0.015
       0.202 -0.974 -0.011 -0.091  0.037
       0.023 -0.032  0.001 -0.015 -0.999
      -0.063 -0.025  0.998  0.006  0.000
     occupation matrix ns (before diag.):
       0.107  0.002 -0.008  0.000  0.000
       0.002  0.019 -0.001 -0.002  0.001
      -0.008 -0.001  0.025 -0.005 -0.000
       0.000 -0.002 -0.005  0.165 -0.000
       0.000  0.001 -0.000 -0.000  0.028
     SPIN  2
     eigenvalues:
       0.132  0.205  0.917  0.956  0.958
     eigenvectors (columns):
       0.995 -0.013 -0.006 -0.041  0.090
       0.027  0.018  0.073  0.984  0.159
      -0.095  0.045 -0.022 -0.156  0.982
      -0.016 -0.999  0.001  0.011  0.046
       0.002  0.001  0.997 -0.076  0.010
     occupation matrix ns (before diag.):
       0.140 -0.022  0.079  0.004 -0.002
      -0.022  0.955  0.002  0.014 -0.003
       0.079  0.002  0.949  0.032  0.001
       0.004  0.014  0.032  0.207  0.000
      -0.002 -0.003  0.001  0.000  0.917
     ------------------------ ATOM    5 ------------------------
     Tr[ns(  5)] (up, down, total) =   0.34834  3.16424  3.51258
     Atomic magnetic moment for atom   5 =  -2.81590
     SPIN  1
     eigenvalues:
       0.018  0.025  0.028  0.114  0.163
     eigenvectors (columns):
      -0.024 -0.004  0.005 -0.507 -0.862
      -0.055 -0.039 -0.998 -0.006 -0.000
       0.985  0.162 -0.061 -0.023 -0.015
       0.000 -0.074  0.008 -0.859  0.506
      -0.165  0.983 -0.029 -0.063  0.037
     occupation matrix ns (before diag.):
       0.151  0.000  0.003 -0.021 -0.002
       0.000  0.028  0.001  0.000  0.000
       0.003  0.001  0.018  0.001  0.001
      -0.021  0.000  0.001  0.126  0.007
      -0.002  0.000  0.001  0.007  0.025
     SPIN  2
     eigenvalues:
       0.140  0.203  0.913  0.953  0.955
     eigenvectors (columns):
       0.508  0.861  0.004 -0.026  0.007
       0.003  0.001 -0.998 -0.060 -0.009
       0.024  0.017 -0.057  0.973 -0.223
       0.858 -0.506  0.004 -0.030 -0.078
       0.071 -0.043 -0.022  0.220  0.972
     occupation matrix ns (before diag.):
       0.187 -0.001 -0.021 -0.027 -0.002
      -0.001  0.913 -0.002 -0.001 -0.001
      -0.021 -0.002  0.953 -0.010 -0.001
      -0.027 -0.001 -0.010  0.162 -0.066
      -0.002 -0.001 -0.001 -0.066  0.949
     ------------------------ ATOM    6 ------------------------
     Tr[ns(  6)] (up, down, total) =   3.80225  0.85593  4.65818
     Atomic magnetic moment for atom   6 =   2.94632
     SPIN  1
     eigenvalues:
       0.482  0.497  0.938  0.942  0.943
     eigenvectors (columns):
      -0.877 -0.481 -0.008  0.005  0.003
       0.002  0.007  0.049  0.572  0.819
      -0.015  0.011  0.998 -0.060 -0.018
      -0.481  0.877 -0.018 -0.009  0.002
       0.003 -0.009 -0.038 -0.818  0.574
     occupation matrix ns (before diag.):
       0.486  0.002 -0.004 -0.006 -0.001
       0.002  0.943 -0.000 -0.002  0.001
      -0.004 -0.000  0.938 -0.008  0.000
      -0.006 -0.002 -0.008  0.494  0.004
      -0.001  0.001  0.000  0.004  0.942
     SPIN  2
     eigenvalues:
       0.040  0.046  0.048  0.355  0.366
     eigenvectors (columns):
       0.007  0.002 -0.004 -0.890 -0.455
       0.054  0.537 -0.842  0.003  0.005
      -0.998 -0.003 -0.065 -0.015  0.014
       0.019  0.005  0.008 -0.455  0.890
      -0.037  0.844  0.536  0.003 -0.008
     occupation matrix ns (before diag.):
       0.357 -0.002  0.002 -0.005  0.000
      -0.002  0.047  0.000  0.001 -0.001
       0.002  0.000  0.040  0.006 -0.000
      -0.005  0.001  0.006  0.364 -0.003
       0.000 -0.001 -0.000 -0.003  0.047
     ------------------------ ATOM    7 ------------------------
     Tr[ns(  7)] (up, down, total) =   3.80190  0.85640  4.65830
     Atomic magnetic moment for atom   7 =   2.94551
     SPIN  1
     eigenvalues:
       0.481  0.497  0.938  0.942  0.943
     eigenvectors (columns):
       0.816 -0.578  0.020  0.005 -0.004
       0.016 -0.012 -0.998  0.060  0.014
       0.002 -0.009 -0.033 -0.711  0.703
      -0.578 -0.816  0.002  0.009  0.000
      -0.003 -0.006 -0.052 -0.701 -0.711
     occupation matrix ns (before diag.):
       0.487 -0.009 -0.003  0.008 -0.001
      -0.009  0.938 -0.000 -0.000 -0.000
      -0.003 -0.000  0.943 -0.003 -0.001
       0.008 -0.000 -0.003  0.492 -0.003
      -0.001 -0.000 -0.001 -0.003  0.943
     SPIN  2
     eigenvalues:
       0.040  0.047  0.048  0.354  0.367
     eigenvectors (columns):
      -0.021  0.004  0.007 -0.803  0.596
       0.998  0.022 -0.057 -0.015  0.015
      -0.029 -0.647 -0.762 -0.002  0.008
      -0.003 -0.001  0.008  0.596  0.803
      -0.053  0.762 -0.645  0.003  0.005
     occupation matrix ns (before diag.):
       0.359  0.007  0.002  0.006  0.000
       0.007  0.040  0.000  0.001  0.000
       0.002  0.000  0.048  0.002  0.001
       0.006  0.001  0.002  0.363  0.002
       0.000  0.000  0.001  0.002  0.048
     ------------------------ ATOM    8 ------------------------
     Tr[ns(  8)] (up, down, total) =   3.80214  0.85596  4.65810
     Atomic magnetic moment for atom   8 =   2.94618
     SPIN  1
     eigenvalues:
       0.482  0.497  0.938  0.942  0.943
     eigenvectors (columns):
       0.176  0.984 -0.011  0.010  0.003
      -0.002  0.009  0.033 -0.583 -0.812
      -0.003 -0.006 -0.050  0.810 -0.584
       0.984 -0.176  0.016  0.001 -0.004
      -0.014  0.014  0.998  0.060 -0.002
     occupation matrix ns (before diag.):
       0.497 -0.004  0.003 -0.003 -0.005
      -0.004  0.943  0.001  0.001 -0.000
       0.003  0.001  0.942  0.001  0.000
      -0.003  0.001  0.001  0.482  0.007
      -0.005 -0.000  0.000  0.007  0.938
     SPIN  2
     eigenvalues:
       0.040  0.046  0.048  0.355  0.367
     eigenvectors (columns):
      -0.013 -0.002  0.010  0.197 -0.980
      -0.031 -0.445 -0.895 -0.002 -0.008
       0.064 -0.894  0.443 -0.003  0.005
       0.016 -0.003 -0.003  0.980  0.196
       0.997  0.043 -0.056 -0.013 -0.016
     occupation matrix ns (before diag.):
       0.366  0.002 -0.002 -0.002  0.004
       0.002  0.048 -0.001 -0.001  0.000
      -0.002 -0.001  0.047 -0.001 -0.000
      -0.002 -0.001 -0.001  0.355 -0.005
       0.004  0.000 -0.000 -0.005  0.040

     Number of occupied Hubbard levels =   28.0064

     HUBBARD ENERGY =    0.7652  (Ry)

     total cpu time spent up to now is      640.4 secs

     total energy              =   -2022.04910802 Ry
     estimated scf accuracy    <       0.00003417 Ry

     total magnetization       =    -3.00 Bohr mag/cell
     absolute magnetization    =    24.40 Bohr mag/cell

     iteration # 21     ecut=   110.00 Ry     beta= 0.30
     Davidson diagonalization with overlap

---- Real-time Memory Report at c_bands before calling an iterative solver
           954 MiB given to the printing process from OS
           540 MiB allocation reported by mallinfo(arena+hblkhd)
        664952 MiB available memory on the node where the printing process lives
------------------
     ethr =  5.87E-09,  avg # of iterations =  3.0

     =================== HUBBARD OCCUPATIONS ===================
     ------------------------ ATOM    2 ------------------------
     Tr[ns(  2)] (up, down, total) =   0.34442  3.17004  3.51446
     Atomic magnetic moment for atom   2 =  -2.82562
     SPIN  1
     eigenvalues:
       0.018  0.024  0.028  0.108  0.165
     eigenvectors (columns):
       0.012 -0.047  0.005 -0.498 -0.866
       0.153 -0.986  0.041  0.034  0.037
       0.053  0.050  0.997  0.008 -0.000
       0.019  0.014 -0.008  0.866 -0.499
       0.986  0.151 -0.060 -0.017  0.014
     occupation matrix ns (before diag.):
       0.151 -0.006 -0.000  0.025 -0.001
      -0.006  0.024  0.000 -0.000 -0.001
      -0.000  0.000  0.028  0.001 -0.001
       0.025 -0.000  0.001  0.123 -0.002
      -0.001 -0.001 -0.001 -0.002  0.019
     SPIN  2
     eigenvalues:
       0.133  0.206  0.917  0.957  0.957
     eigenvectors (columns):
       0.497 -0.866  0.002  0.025  0.051
      -0.045  0.039  0.022  0.511  0.857
      -0.003 -0.001  0.999 -0.050  0.004
      -0.866 -0.498 -0.005 -0.031 -0.004
       0.019  0.017 -0.045 -0.857  0.512
     occupation matrix ns (before diag.):
       0.190  0.044  0.001  0.030  0.003
       0.044  0.954 -0.001 -0.018  0.001
       0.001 -0.001  0.917 -0.002  0.002
       0.030 -0.018 -0.002  0.152  0.020
       0.003  0.001  0.002  0.020  0.956
     ------------------------ ATOM    3 ------------------------
     Tr[ns(  3)] (up, down, total) =   0.39802  3.09568  3.49370
     Atomic magnetic moment for atom   3 =  -2.69766
     SPIN  1
     eigenvalues:
       0.025  0.025  0.026  0.161  0.161
     eigenvectors (columns):
      -0.005  0.003  0.000 -0.503  0.864
      -0.021 -0.776 -0.630 -0.005  0.000
      -0.720 -0.426  0.548 -0.003 -0.004
       0.003  0.005  0.000 -0.864 -0.503
       0.694 -0.465  0.550 -0.002  0.004
     occupation matrix ns (before diag.):
       0.161  0.000 -0.000 -0.000  0.001
       0.000  0.025 -0.000  0.001 -0.000
      -0.000 -0.000  0.025  0.001  0.000
      -0.000  0.001  0.001  0.161 -0.000
       0.001 -0.000  0.000 -0.000  0.025
     SPIN  2
     eigenvalues:
       0.199  0.200  0.894  0.900  0.902
     eigenvectors (columns):
      -0.504  0.864  0.000  0.003 -0.001
      -0.002 -0.000  0.452 -0.012  0.892
      -0.001 -0.002 -0.625  0.709  0.326
      -0.864 -0.504  0.000 -0.001 -0.002
      -0.001  0.002 -0.637 -0.705  0.313
     occupation matrix ns (before diag.):
       0.200 -0.001  0.001 -0.000 -0.002
      -0.001  0.901  0.002 -0.001  0.002
       0.001  0.002  0.898 -0.001 -0.002
      -0.000 -0.001 -0.001  0.199 -0.000
      -0.002  0.002 -0.002 -0.000  0.898
     ------------------------ ATOM    4 ------------------------
     Tr[ns(  4)] (up, down, total) =   0.34392  3.16841  3.51233
     Atomic magnetic moment for atom   4 =  -2.82448
     SPIN  1
     eigenvalues:
       0.018  0.024  0.028  0.108  0.165
     eigenvectors (columns):
      -0.008 -0.095 -0.009  0.995 -0.013
       0.977  0.199  0.067  0.027  0.015
       0.202 -0.974 -0.011 -0.091  0.037
       0.023 -0.032  0.001 -0.015 -0.999
      -0.063 -0.025  0.998  0.006  0.000
     occupation matrix ns (before diag.):
       0.107  0.002 -0.008  0.000  0.000
       0.002  0.019 -0.001 -0.002  0.001
      -0.008 -0.001  0.025 -0.005 -0.000
       0.000 -0.002 -0.005  0.165 -0.000
       0.000  0.001 -0.000 -0.000  0.028
     SPIN  2
     eigenvalues:
       0.132  0.205  0.917  0.956  0.958
     eigenvectors (columns):
       0.995 -0.013 -0.006 -0.041  0.090
       0.027  0.018  0.073  0.984  0.159
      -0.095  0.045 -0.022 -0.155  0.982
      -0.016 -0.999  0.001  0.011  0.046
       0.002  0.001  0.997 -0.076  0.010
     occupation matrix ns (before diag.):
       0.140 -0.022  0.079  0.004 -0.002
      -0.022  0.955  0.002  0.014 -0.003
       0.079  0.002  0.949  0.032  0.001
       0.004  0.014  0.032  0.207  0.000
      -0.002 -0.003  0.001  0.000  0.918
     ------------------------ ATOM    5 ------------------------
     Tr[ns(  5)] (up, down, total) =   0.34838  3.16460  3.51297
     Atomic magnetic moment for atom   5 =  -2.81622
     SPIN  1
     eigenvalues:
       0.018  0.025  0.028  0.115  0.163
     eigenvectors (columns):
      -0.024 -0.004  0.005 -0.507 -0.862
      -0.055 -0.039 -0.998 -0.006 -0.000
       0.985  0.162 -0.061 -0.023 -0.015
       0.000 -0.074  0.008 -0.859  0.506
      -0.164  0.983 -0.029 -0.063  0.037
     occupation matrix ns (before diag.):
       0.151  0.000  0.003 -0.021 -0.002
       0.000  0.028  0.001  0.000  0.000
       0.003  0.001  0.018  0.001  0.001
      -0.021  0.000  0.001  0.126  0.007
      -0.002  0.000  0.001  0.007  0.025
     SPIN  2
     eigenvalues:
       0.141  0.203  0.913  0.953  0.955
     eigenvectors (columns):
       0.508  0.861  0.004 -0.026  0.007
       0.003  0.001 -0.998 -0.060 -0.009
       0.024  0.017 -0.057  0.973 -0.222
       0.858 -0.506  0.004 -0.030 -0.078
       0.071 -0.043 -0.022  0.220  0.972
     occupation matrix ns (before diag.):
       0.187 -0.001 -0.021 -0.027 -0.002
      -0.001  0.913 -0.002 -0.001 -0.001
      -0.021 -0.002  0.953 -0.010 -0.001
      -0.027 -0.001 -0.010  0.162 -0.066
      -0.002 -0.001 -0.001 -0.066  0.949
     ------------------------ ATOM    6 ------------------------
     Tr[ns(  6)] (up, down, total) =   3.80211  0.85607  4.65818
     Atomic magnetic moment for atom   6 =   2.94604
     SPIN  1
     eigenvalues:
       0.482  0.497  0.938  0.942  0.943
     eigenvectors (columns):
      -0.877 -0.480 -0.008  0.005  0.003
       0.002  0.007  0.049  0.571  0.819
      -0.015  0.011  0.998 -0.060 -0.018
      -0.480  0.877 -0.018 -0.009  0.002
       0.003 -0.009 -0.038 -0.818  0.573
     occupation matrix ns (before diag.):
       0.486  0.002 -0.004 -0.006 -0.001
       0.002  0.943 -0.000 -0.002  0.001
      -0.004 -0.000  0.938 -0.008  0.000
      -0.006 -0.002 -0.008  0.493  0.004
      -0.001  0.001  0.000  0.004  0.942
     SPIN  2
     eigenvalues:
       0.040  0.046  0.048  0.355  0.367
     eigenvectors (columns):
       0.007  0.002 -0.004 -0.890 -0.456
       0.054  0.537 -0.842  0.003  0.005
      -0.998 -0.003 -0.065 -0.015  0.014
       0.019  0.005  0.008 -0.456  0.890
      -0.037  0.843  0.536  0.003 -0.008
     occupation matrix ns (before diag.):
       0.357 -0.002  0.002 -0.005  0.000
      -0.002  0.047  0.000  0.001 -0.001
       0.002  0.000  0.040  0.006 -0.000
      -0.005  0.001  0.006  0.364 -0.003
       0.000 -0.001 -0.000 -0.003  0.047
     ------------------------ ATOM    7 ------------------------
     Tr[ns(  7)] (up, down, total) =   3.80174  0.85656  4.65829
     Atomic magnetic moment for atom   7 =   2.94518
     SPIN  1
     eigenvalues:
       0.481  0.497  0.938  0.942  0.943
     eigenvectors (columns):
       0.816 -0.578  0.020  0.005 -0.004
       0.016 -0.012 -0.998  0.060  0.014
       0.002 -0.009 -0.032 -0.711  0.703
      -0.578 -0.816  0.002  0.009  0.000
      -0.003 -0.006 -0.052 -0.701 -0.711
     occupation matrix ns (before diag.):
       0.487 -0.009 -0.003  0.008 -0.001
      -0.009  0.938 -0.000 -0.000 -0.000
      -0.003 -0.000  0.943 -0.003 -0.001
       0.008 -0.000 -0.003  0.492 -0.003
      -0.001 -0.000 -0.001 -0.003  0.943
     SPIN  2
     eigenvalues:
       0.040  0.047  0.048  0.354  0.367
     eigenvectors (columns):
      -0.021  0.004  0.007 -0.803  0.596
       0.998  0.022 -0.057 -0.015  0.015
      -0.029 -0.647 -0.762 -0.002  0.008
      -0.003 -0.001  0.008  0.596  0.803
      -0.053  0.762 -0.645  0.003  0.005
     occupation matrix ns (before diag.):
       0.359  0.007  0.002  0.006  0.000
       0.007  0.040  0.000  0.001  0.000
       0.002  0.000  0.048  0.002  0.001
       0.006  0.001  0.002  0.363  0.002
       0.000  0.000  0.001  0.002  0.048
     ------------------------ ATOM    8 ------------------------
     Tr[ns(  8)] (up, down, total) =   3.80201  0.85613  4.65814
     Atomic magnetic moment for atom   8 =   2.94588
     SPIN  1
     eigenvalues:
       0.482  0.497  0.938  0.942  0.943
     eigenvectors (columns):
       0.176  0.984 -0.011  0.010  0.003
      -0.002  0.009  0.033 -0.582 -0.812
      -0.003 -0.006 -0.050  0.811 -0.583
       0.984 -0.176  0.016  0.001 -0.004
      -0.014  0.014  0.998  0.060 -0.002
     occupation matrix ns (before diag.):
       0.497 -0.004  0.003 -0.003 -0.005
      -0.004  0.943  0.001  0.001 -0.000
       0.003  0.001  0.942  0.001  0.000
      -0.003  0.001  0.001  0.482  0.007
      -0.005 -0.000  0.000  0.007  0.938
     SPIN  2
     eigenvalues:
       0.040  0.046  0.048  0.355  0.367
     eigenvectors (columns):
      -0.013 -0.002  0.010  0.196 -0.980
      -0.031 -0.444 -0.895 -0.002 -0.008
       0.063 -0.895  0.442 -0.003  0.005
       0.016 -0.003 -0.003  0.980  0.196
       0.997  0.043 -0.056 -0.013 -0.016
     occupation matrix ns (before diag.):
       0.366  0.002 -0.002 -0.002  0.004
       0.002  0.048 -0.001 -0.001  0.000
      -0.002 -0.001  0.047 -0.001 -0.000
      -0.002 -0.001 -0.001  0.355 -0.005
       0.004  0.000 -0.000 -0.005  0.040

     Number of occupied Hubbard levels =   28.0081

     HUBBARD ENERGY =    0.7651  (Ry)

     Magnetic moment per site  (integrated on atomic sphere of radius R)
     atom   1 (R=0.114)  charge=  7.6829  magn= -0.0009
     atom   2 (R=0.081)  charge= 10.1229  magn= -2.1079
     atom   3 (R=0.081)  charge= 10.0771  magn= -1.9965
     atom   4 (R=0.081)  charge= 10.1224  magn= -2.1082
     atom   5 (R=0.081)  charge= 10.1208  magn= -2.1005
     atom   6 (R=0.079)  charge= 11.0446  magn=  2.3208
     atom   7 (R=0.079)  charge= 11.0446  magn=  2.3202
     atom   8 (R=0.079)  charge= 11.0446  magn=  2.3207
     atom   9 (R=0.045)  charge=  1.0187  magn= -0.0429
     atom  10 (R=0.045)  charge=  1.0167  magn= -0.0424
     atom  11 (R=0.045)  charge=  1.0220  magn= -0.0447
     atom  12 (R=0.045)  charge=  1.0178  magn= -0.0402
     atom  13 (R=0.045)  charge=  1.0235  magn= -0.0429
     atom  14 (R=0.045)  charge=  1.0250  magn= -0.0455
     atom  15 (R=0.045)  charge=  1.0251  magn= -0.0456
     atom  16 (R=0.045)  charge=  1.0237  magn= -0.0431
     atom  17 (R=0.045)  charge=  1.0249  magn= -0.0454
     atom  18 (R=0.045)  charge=  1.0235  magn= -0.0429
     atom  19 (R=0.045)  charge=  1.0170  magn= -0.0424
     atom  20 (R=0.045)  charge=  1.0188  magn= -0.0429
     atom  21 (R=0.045)  charge=  1.0218  magn= -0.0445
     atom  22 (R=0.045)  charge=  1.0175  magn= -0.0401
     atom  23 (R=0.045)  charge=  1.0191  magn= -0.0407
     atom  24 (R=0.045)  charge=  1.0224  magn= -0.0447
     atom  25 (R=0.045)  charge=  1.0198  magn= -0.0435
     atom  26 (R=0.045)  charge=  1.0177  magn= -0.0427
     atom  27 (R=0.045)  charge=  1.8327  magn=  0.0444
     atom  28 (R=0.045)  charge=  1.8345  magn=  0.0446
     atom  29 (R=0.045)  charge=  1.8329  magn=  0.0466
     atom  30 (R=0.045)  charge=  1.8332  magn=  0.0436
     atom  31 (R=0.045)  charge=  1.8306  magn=  0.0450
     atom  32 (R=0.045)  charge=  1.8300  magn=  0.0513
     atom  33 (R=0.045)  charge=  1.8297  magn=  0.0515
     atom  34 (R=0.045)  charge=  1.8304  magn=  0.0453
     atom  35 (R=0.045)  charge=  1.8300  magn=  0.0512
     atom  36 (R=0.045)  charge=  1.8307  magn=  0.0451
     atom  37 (R=0.045)  charge=  1.8337  magn=  0.0447
     atom  38 (R=0.045)  charge=  1.8323  magn=  0.0444
     atom  39 (R=0.045)  charge=  1.8328  magn=  0.0462
     atom  40 (R=0.045)  charge=  1.8335  magn=  0.0434
     atom  41 (R=0.045)  charge=  1.8335  magn=  0.0444
     atom  42 (R=0.045)  charge=  1.8318  magn=  0.0465
     atom  43 (R=0.045)  charge=  1.8321  magn=  0.0452
     atom  44 (R=0.045)  charge=  1.8339  magn=  0.0450
     atom  45 (R=0.037)  charge=  1.8922  magn=  0.0022
     atom  46 (R=0.037)  charge=  0.3894  magn= -0.0008
     atom  47 (R=0.037)  charge=  0.3865  magn= -0.0008
     atom  48 (R=0.037)  charge=  1.8943  magn=  0.0028
     atom  49 (R=0.037)  charge=  0.3926  magn= -0.0011
     atom  50 (R=0.037)  charge=  0.3920  magn= -0.0010
     atom  51 (R=0.037)  charge=  1.8916  magn=  0.0019
     atom  52 (R=0.037)  charge=  0.3882  magn= -0.0005
     atom  53 (R=0.037)  charge=  0.3898  magn= -0.0006
     atom  54 (R=0.037)  charge=  1.8957  magn=  0.0026
     atom  55 (R=0.037)  charge=  0.3888  magn= -0.0013
     atom  56 (R=0.037)  charge=  0.3952  magn= -0.0013
     atom  57 (R=0.037)  charge=  1.8940  magn=  0.0027
     atom  58 (R=0.037)  charge=  0.3912  magn= -0.0011
     atom  59 (R=0.037)  charge=  0.3932  magn= -0.0009
     atom  60 (R=0.037)  charge=  1.8952  magn=  0.0025
     atom  61 (R=0.037)  charge=  0.3908  magn= -0.0012
     atom  62 (R=0.037)  charge=  0.3938  magn= -0.0012
     atom  63 (R=0.037)  charge=  1.8909  magn=  0.0004
     atom  64 (R=0.037)  charge=  0.3921  magn= -0.0000
     atom  65 (R=0.037)  charge=  0.4018  magn= -0.0000

     total cpu time spent up to now is      669.3 secs

     End of self-consistent calculation

 ------ SPIN UP ------------


          k = 0.2500 0.2500 0.2500 (160125 PWs)   bands (ev):

   -72.3344 -72.2753 -72.2736 -60.8811 -60.8766 -60.6890 -60.3818 -43.7280
   -43.7200 -43.6725 -43.6689 -43.6657 -43.6608 -43.6539 -43.6169 -43.6153
   -34.8292 -34.8285 -34.7639 -34.7552 -34.7336 -34.7308 -34.6172 -34.5821
   -34.5527 -34.2802 -34.2422 -34.2382 -29.7023 -22.2203 -22.1916 -21.8247
   -21.7220 -21.6894 -21.6044 -20.7408 -17.2748 -17.2410 -17.1644 -17.1536
   -17.1414 -17.0995 -17.0876 -17.0555 -17.0484 -17.0271 -16.9929 -16.9748
   -16.9609 -16.8882 -16.8707 -16.4709 -16.3975 -16.3795 -13.1697 -13.1687
   -13.1669 -10.0301  -9.9822  -9.6135  -9.4753  -9.4105  -9.3663  -8.7109
    -7.5211  -7.3439  -7.3287  -6.8347  -6.7990  -6.7122  -6.4412  -6.3438
    -6.2899  -6.1579  -6.1359  -6.1064  -6.0029  -5.9846  -5.9660  -5.9002
    -5.8717  -5.8253  -5.7943  -5.7337  -5.6945  -5.5848  -5.4338  -5.4114
    -5.3003  -4.8317  -4.7030  -4.5323  -4.5199  -4.4415  -4.2953  -4.2567
    -4.1803  -4.1614  -4.1392  -4.1081  -4.0709  -4.0418  -4.0026  -3.9581
    -3.9365  -3.9218  -3.9017  -3.8588  -3.8476  -3.7983  -3.7737  -3.7576
    -3.7374  -3.7040  -3.6667  -3.6260  -3.6090  -3.5960  -3.5652  -3.5096
    -3.4363  -3.4041  -3.2325  -3.2042  -3.1205  -3.0701  -3.0510  -3.0338
    -2.9873  -2.9761  -2.9399  -2.9156  -2.8981  -2.8658  -2.8418  -2.8041
    -2.7563  -2.6754  -2.6340  -2.6063  -2.5585  -2.4917  -2.4294  -2.3601
    -2.2672  -2.2122  -2.1492  -2.1298  -2.0826  -2.0665  -1.8468  -1.7783
    -1.7560  -1.7144  -1.7036  -1.6628  -1.4951  -1.4879  -1.4587   2.6763
     3.5298   3.5722   3.6042   3.6420   3.7036   3.7236   3.7652   3.8153
     3.8482   3.8829   3.9448   3.9774   4.1251   4.1830   4.2225   4.3036
     4.4115   4.4265   4.4753   4.5416   4.5903   4.7340   4.8008   4.8674
     4.9319   4.9719   4.9874   5.0525   5.1144   5.1488   5.2001   5.2285
     5.2688

     occupation numbers 
     1.0000   1.0000   1.0000   1.0000   1.0000   1.0000   1.0000   1.0000
     1.0000   1.0000   1.0000   1.0000   1.0000   1.0000   1.0000   1.0000
     1.0000   1.0000   1.0000   1.0000   1.0000   1.0000   1.0000   1.0000
     1.0000   1.0000   1.0000   1.0000   1.0000   1.0000   1.0000   1.0000
     1.0000   1.0000   1.0000   1.0000   1.0000   1.0000   1.0000   1.0000
     1.0000   1.0000   1.0000   1.0000   1.0000   1.0000   1.0000   1.0000
     1.0000   1.0000   1.0000   1.0000   1.0000   1.0000   1.0000   1.0000
     1.0000   1.0000   1.0000   1.0000   1.0000   1.0000   1.0000   1.0000
     1.0000   1.0000   1.0000   1.0000   1.0000   1.0000   1.0000   1.0000
     1.0000   1.0000   1.0000   1.0000   1.0000   1.0000   1.0000   1.0000
     1.0000   1.0000   1.0000   1.0000   1.0000   1.0000   1.0000   1.0000
     1.0000   1.0000   1.0000   1.0000   1.0000   1.0000   1.0000   1.0000
     1.0000   1.0000   1.0000   1.0000   1.0000   1.0000   1.0000   1.0000
     1.0000   1.0000   1.0000   1.0000   1.0000   1.0000   1.0000   1.0000
     1.0000   1.0000   1.0000   1.0000   1.0000   1.0000   1.0000   1.0000
     1.0000   1.0000   1.0000   1.0000   1.0000   1.0000   1.0000   1.0000
     1.0000   1.0000   1.0000   1.0000   1.0000   1.0000   1.0000   1.0000
     1.0000   1.0000   1.0000   1.0000   1.0000   1.0000   1.0000   1.0000
     1.0000   1.0000   1.0000   1.0000   1.0000   1.0000   1.0000   1.0000
     1.0000   1.0000   1.0000   1.0000   1.0000   1.0000   1.0000   0.0000
     0.0000   0.0000   0.0000   0.0000   0.0000   0.0000   0.0000   0.0000
     0.0000   0.0000   0.0000   0.0000   0.0000   0.0000   0.0000   0.0000
     0.0000   0.0000   0.0000   0.0000   0.0000   0.0000   0.0000   0.0000
     0.0000   0.0000   0.0000   0.0000   0.0000   0.0000   0.0000   0.0000
     0.0000

          k =-0.2500-0.2500 0.2500 (160125 PWs)   bands (ev):

   -72.3344 -72.2753 -72.2736 -60.8811 -60.8766 -60.6890 -60.3818 -43.7280
   -43.7200 -43.6725 -43.6689 -43.6657 -43.6608 -43.6539 -43.6169 -43.6153
   -34.8292 -34.8285 -34.7639 -34.7552 -34.7336 -34.7308 -34.6172 -34.5821
   -34.5527 -34.2802 -34.2422 -34.2382 -29.7023 -22.2203 -22.1916 -21.8247
   -21.7220 -21.6894 -21.6044 -20.7408 -17.2749 -17.2409 -17.1637 -17.1545
   -17.1417 -17.0989 -17.0878 -17.0573 -17.0466 -17.0276 -16.9910 -16.9764
   -16.9609 -16.8885 -16.8704 -16.4709 -16.3975 -16.3794 -13.1697 -13.1687
   -13.1669 -10.0301  -9.9822  -9.6135  -9.4754  -9.4105  -9.3663  -8.7109
    -7.5193  -7.3470  -7.3275  -6.8329  -6.8024  -6.7115  -6.4282  -6.3460
    -6.3110  -6.1556  -6.1268  -6.1042  -6.0092  -5.9794  -5.9637  -5.9002
    -5.8620  -5.8413  -5.7898  -5.7351  -5.6931  -5.5838  -5.4428  -5.4062
    -5.3018  -4.8274  -4.6848  -4.5924  -4.4802  -4.4397  -4.2951  -4.2299
    -4.2020  -4.1731  -4.1365  -4.1027  -4.0790  -4.0469  -3.9925  -3.9767
    -3.9294  -3.9134  -3.8908  -3.8465  -3.8398  -3.8265  -3.7789  -3.7499
    -3.7317  -3.7194  -3.6538  -3.6369  -3.6266  -3.5916  -3.5487  -3.5032
    -3.4302  -3.4134  -3.2341  -3.2065  -3.1199  -3.0619  -3.0490  -3.0332
    -3.0019  -2.9712  -2.9529  -2.9161  -2.8933  -2.8524  -2.8252  -2.8122
    -2.7693  -2.6770  -2.6328  -2.5922  -2.5636  -2.4983  -2.4309  -2.3651
    -2.2658  -2.1978  -2.1530  -2.1335  -2.1049  -2.0467  -1.8468  -1.7779
    -1.7565  -1.7135  -1.6934  -1.6744  -1.4996  -1.4871  -1.4547   2.6759
     3.5276   3.5740   3.6034   3.6398   3.7024   3.7267   3.7722   3.8049
     3.8474   3.9059   3.9428   3.9609   4.1078   4.2013   4.2187   4.3376
     4.3706   4.4297   4.5227   4.5421   4.5584   4.7008   4.8340   4.8606
     4.9239   4.9820   5.0156   5.0267   5.1169   5.1584   5.1946   5.2391
     5.2451

     occupation numbers 
     1.0000   1.0000   1.0000   1.0000   1.0000   1.0000   1.0000   1.0000
     1.0000   1.0000   1.0000   1.0000   1.0000   1.0000   1.0000   1.0000
     1.0000   1.0000   1.0000   1.0000   1.0000   1.0000   1.0000   1.0000
     1.0000   1.0000   1.0000   1.0000   1.0000   1.0000   1.0000   1.0000
     1.0000   1.0000   1.0000   1.0000   1.0000   1.0000   1.0000   1.0000
     1.0000   1.0000   1.0000   1.0000   1.0000   1.0000   1.0000   1.0000
     1.0000   1.0000   1.0000   1.0000   1.0000   1.0000   1.0000   1.0000
     1.0000   1.0000   1.0000   1.0000   1.0000   1.0000   1.0000   1.0000
     1.0000   1.0000   1.0000   1.0000   1.0000   1.0000   1.0000   1.0000
     1.0000   1.0000   1.0000   1.0000   1.0000   1.0000   1.0000   1.0000
     1.0000   1.0000   1.0000   1.0000   1.0000   1.0000   1.0000   1.0000
     1.0000   1.0000   1.0000   1.0000   1.0000   1.0000   1.0000   1.0000
     1.0000   1.0000   1.0000   1.0000   1.0000   1.0000   1.0000   1.0000
     1.0000   1.0000   1.0000   1.0000   1.0000   1.0000   1.0000   1.0000
     1.0000   1.0000   1.0000   1.0000   1.0000   1.0000   1.0000   1.0000
     1.0000   1.0000   1.0000   1.0000   1.0000   1.0000   1.0000   1.0000
     1.0000   1.0000   1.0000   1.0000   1.0000   1.0000   1.0000   1.0000
     1.0000   1.0000   1.0000   1.0000   1.0000   1.0000   1.0000   1.0000
     1.0000   1.0000   1.0000   1.0000   1.0000   1.0000   1.0000   1.0000
     1.0000   1.0000   1.0000   1.0000   1.0000   1.0000   1.0000   0.0000
     0.0000   0.0000   0.0000   0.0000   0.0000   0.0000   0.0000   0.0000
     0.0000   0.0000   0.0000   0.0000   0.0000   0.0000   0.0000   0.0000
     0.0000   0.0000   0.0000   0.0000   0.0000   0.0000   0.0000   0.0000
     0.0000   0.0000   0.0000   0.0000   0.0000   0.0000   0.0000   0.0000
     0.0000

          k =-0.2500 0.2500-0.2500 (160125 PWs)   bands (ev):

   -72.3344 -72.2753 -72.2736 -60.8811 -60.8766 -60.6890 -60.3818 -43.7280
   -43.7200 -43.6725 -43.6689 -43.6657 -43.6608 -43.6539 -43.6169 -43.6153
   -34.8292 -34.8285 -34.7639 -34.7552 -34.7336 -34.7308 -34.6172 -34.5821
   -34.5527 -34.2802 -34.2422 -34.2382 -29.7023 -22.2203 -22.1916 -21.8247
   -21.7220 -21.6894 -21.6044 -20.7408 -17.2748 -17.2410 -17.1631 -17.1555
   -17.1409 -17.0994 -17.0873 -17.0573 -17.0464 -17.0277 -16.9928 -16.9747
   -16.9610 -16.8882 -16.8707 -16.4709 -16.3975 -16.3795 -13.1697 -13.1687
   -13.1669 -10.0301  -9.9822  -9.6135  -9.4754  -9.4105  -9.3663  -8.7109
    -7.5211  -7.3437  -7.3290  -6.8341  -6.8000  -6.7111  -6.4365  -6.3526
    -6.2944  -6.1527  -6.1341  -6.1038  -5.9925  -5.9902  -5.9603  -5.9077
    -5.8711  -5.8431  -5.7837  -5.7324  -5.6938  -5.5846  -5.4324  -5.4138
    -5.3016  -4.8342  -4.6773  -4.5769  -4.5060  -4.4335  -4.2811  -4.2429
    -4.2225  -4.1490  -4.1386  -4.0988  -4.0882  -4.0385  -4.0102  -3.9546
    -3.9414  -3.9102  -3.8800  -3.8674  -3.8507  -3.8111  -3.7696  -3.7474
    -3.7387  -3.7071  -3.6640  -3.6333  -3.6083  -3.5932  -3.5682  -3.5049
    -3.4329  -3.4071  -3.2403  -3.2014  -3.1208  -3.0847  -3.0320  -3.0211
    -3.0040  -2.9672  -2.9432  -2.9160  -2.8925  -2.8712  -2.8563  -2.7976
    -2.7558  -2.6707  -2.6251  -2.6144  -2.5571  -2.4981  -2.4277  -2.3556
    -2.2714  -2.2084  -2.1607  -2.1175  -2.0881  -2.0640  -1.8466  -1.7787
    -1.7559  -1.7134  -1.7049  -1.6628  -1.4948  -1.4881  -1.4587   2.6762
     3.5300   3.5667   3.6053   3.6413   3.7101   3.7224   3.7723   3.8117
     3.8540   3.8690   3.9504   3.9783   4.1263   4.1825   4.2134   4.3062
     4.4210   4.4237   4.4816   4.5347   4.5921   4.7280   4.7985   4.8740
     4.9395   4.9715   4.9883   5.0604   5.1003   5.1410   5.2082   5.2211
     5.2688

     occupation numbers 
     1.0000   1.0000   1.0000   1.0000   1.0000   1.0000   1.0000   1.0000
     1.0000   1.0000   1.0000   1.0000   1.0000   1.0000   1.0000   1.0000
     1.0000   1.0000   1.0000   1.0000   1.0000   1.0000   1.0000   1.0000
     1.0000   1.0000   1.0000   1.0000   1.0000   1.0000   1.0000   1.0000
     1.0000   1.0000   1.0000   1.0000   1.0000   1.0000   1.0000   1.0000
     1.0000   1.0000   1.0000   1.0000   1.0000   1.0000   1.0000   1.0000
     1.0000   1.0000   1.0000   1.0000   1.0000   1.0000   1.0000   1.0000
     1.0000   1.0000   1.0000   1.0000   1.0000   1.0000   1.0000   1.0000
     1.0000   1.0000   1.0000   1.0000   1.0000   1.0000   1.0000   1.0000
     1.0000   1.0000   1.0000   1.0000   1.0000   1.0000   1.0000   1.0000
     1.0000   1.0000   1.0000   1.0000   1.0000   1.0000   1.0000   1.0000
     1.0000   1.0000   1.0000   1.0000   1.0000   1.0000   1.0000   1.0000
     1.0000   1.0000   1.0000   1.0000   1.0000   1.0000   1.0000   1.0000
     1.0000   1.0000   1.0000   1.0000   1.0000   1.0000   1.0000   1.0000
     1.0000   1.0000   1.0000   1.0000   1.0000   1.0000   1.0000   1.0000
     1.0000   1.0000   1.0000   1.0000   1.0000   1.0000   1.0000   1.0000
     1.0000   1.0000   1.0000   1.0000   1.0000   1.0000   1.0000   1.0000
     1.0000   1.0000   1.0000   1.0000   1.0000   1.0000   1.0000   1.0000
     1.0000   1.0000   1.0000   1.0000   1.0000   1.0000   1.0000   1.0000
     1.0000   1.0000   1.0000   1.0000   1.0000   1.0000   1.0000   0.0000
     0.0000   0.0000   0.0000   0.0000   0.0000   0.0000   0.0000   0.0000
     0.0000   0.0000   0.0000   0.0000   0.0000   0.0000   0.0000   0.0000
     0.0000   0.0000   0.0000   0.0000   0.0000   0.0000   0.0000   0.0000
     0.0000   0.0000   0.0000   0.0000   0.0000   0.0000   0.0000   0.0000
     0.0000

          k = 0.2500-0.2500-0.2500 (160125 PWs)   bands (ev):

   -72.3344 -72.2753 -72.2736 -60.8811 -60.8766 -60.6890 -60.3818 -43.7280
   -43.7200 -43.6725 -43.6689 -43.6657 -43.6608 -43.6539 -43.6169 -43.6153
   -34.8292 -34.8285 -34.7639 -34.7552 -34.7336 -34.7308 -34.6172 -34.5821
   -34.5527 -34.2802 -34.2422 -34.2382 -29.7023 -22.2203 -22.1916 -21.8247
   -21.7220 -21.6894 -21.6044 -20.7408 -17.2749 -17.2409 -17.1632 -17.1547
   -17.1421 -17.0985 -17.0876 -17.0560 -17.0486 -17.0269 -16.9909 -16.9769
   -16.9608 -16.8883 -16.8704 -16.4709 -16.3975 -16.3794 -13.1697 -13.1687
   -13.1669 -10.0301  -9.9822  -9.6135  -9.4753  -9.4105  -9.3663  -8.7109
    -7.5227  -7.3453  -7.3240  -6.8333  -6.7957  -6.7190  -6.4438  -6.3531
    -6.2894  -6.1518  -6.1281  -6.1045  -6.0088  -5.9830  -5.9631  -5.9118
    -5.8643  -5.8244  -5.7827  -5.7351  -5.6949  -5.5998  -5.4290  -5.4040
    -5.3004  -4.8690  -4.6661  -4.5521  -4.4899  -4.4564  -4.2774  -4.2542
    -4.2008  -4.1618  -4.1352  -4.0820  -4.0757  -4.0551  -4.0063  -3.9644
    -3.9398  -3.9247  -3.8914  -3.8631  -3.8375  -3.8205  -3.7946  -3.7559
    -3.7441  -3.7095  -3.6563  -3.6429  -3.6034  -3.5778  -3.5443  -3.5104
    -3.4171  -3.3997  -3.2460  -3.2045  -3.1550  -3.0616  -3.0476  -3.0180
    -2.9744  -2.9709  -2.9360  -2.9171  -2.8847  -2.8520  -2.8389  -2.8054
    -2.7885  -2.6775  -2.6420  -2.6090  -2.6059  -2.4661  -2.4030  -2.3881
    -2.2365  -2.2029  -2.1962  -2.1095  -2.0813  -2.0511  -1.8468  -1.7781
    -1.7564  -1.7222  -1.7049  -1.6717  -1.4970  -1.4849  -1.4517   2.6757
     3.5256   3.5681   3.6020   3.6413   3.6938   3.7342   3.7689   3.7994
     3.8637   3.9022   3.9496   3.9841   4.1025   4.1784   4.1978   4.3063
     4.3814   4.4611   4.5127   4.5621   4.5829   4.7361   4.7813   4.8838
     4.9371   4.9608   4.9790   5.0864   5.1036   5.1488   5.2033   5.2185
     5.2466

     occupation numbers 
     1.0000   1.0000   1.0000   1.0000   1.0000   1.0000   1.0000   1.0000
     1.0000   1.0000   1.0000   1.0000   1.0000   1.0000   1.0000   1.0000
     1.0000   1.0000   1.0000   1.0000   1.0000   1.0000   1.0000   1.0000
     1.0000   1.0000   1.0000   1.0000   1.0000   1.0000   1.0000   1.0000
     1.0000   1.0000   1.0000   1.0000   1.0000   1.0000   1.0000   1.0000
     1.0000   1.0000   1.0000   1.0000   1.0000   1.0000   1.0000   1.0000
     1.0000   1.0000   1.0000   1.0000   1.0000   1.0000   1.0000   1.0000
     1.0000   1.0000   1.0000   1.0000   1.0000   1.0000   1.0000   1.0000
     1.0000   1.0000   1.0000   1.0000   1.0000   1.0000   1.0000   1.0000
     1.0000   1.0000   1.0000   1.0000   1.0000   1.0000   1.0000   1.0000
     1.0000   1.0000   1.0000   1.0000   1.0000   1.0000   1.0000   1.0000
     1.0000   1.0000   1.0000   1.0000   1.0000   1.0000   1.0000   1.0000
     1.0000   1.0000   1.0000   1.0000   1.0000   1.0000   1.0000   1.0000
     1.0000   1.0000   1.0000   1.0000   1.0000   1.0000   1.0000   1.0000
     1.0000   1.0000   1.0000   1.0000   1.0000   1.0000   1.0000   1.0000
     1.0000   1.0000   1.0000   1.0000   1.0000   1.0000   1.0000   1.0000
     1.0000   1.0000   1.0000   1.0000   1.0000   1.0000   1.0000   1.0000
     1.0000   1.0000   1.0000   1.0000   1.0000   1.0000   1.0000   1.0000
     1.0000   1.0000   1.0000   1.0000   1.0000   1.0000   1.0000   1.0000
     1.0000   1.0000   1.0000   1.0000   1.0000   1.0000   1.0000   0.0000
     0.0000   0.0000   0.0000   0.0000   0.0000   0.0000   0.0000   0.0000
     0.0000   0.0000   0.0000   0.0000   0.0000   0.0000   0.0000   0.0000
     0.0000   0.0000   0.0000   0.0000   0.0000   0.0000   0.0000   0.0000
     0.0000   0.0000   0.0000   0.0000   0.0000   0.0000   0.0000   0.0000
     0.0000

 ------ SPIN DOWN ----------


          k = 0.2500 0.2500 0.2500 (160125 PWs)   bands (ev):

   -69.4247 -69.3648 -69.3632 -63.5104 -63.5055 -63.3097 -62.8904 -40.7920
   -40.7634 -40.7301 -40.7298 -40.7207 -40.7021 -40.6985 -40.6645 -40.6630
   -37.4927 -37.4883 -37.3807 -37.3733 -37.3591 -37.3575 -37.2735 -37.1896
   -37.1685 -36.7846 -36.7628 -36.7605 -29.7031 -22.2212 -22.1919 -21.8268
   -21.7252 -21.6903 -21.6079 -20.7396 -17.2446 -17.2102 -17.1323 -17.1210
   -17.1082 -17.0671 -17.0544 -17.0219 -17.0152 -16.9925 -16.9570 -16.9375
   -16.9252 -16.8494 -16.8322 -16.4207 -16.3468 -16.3291 -13.1707 -13.1689
   -13.1676 -10.0464 -10.0010  -9.6400  -9.4999  -9.4395  -9.3851  -8.7113
    -7.5218  -7.3128  -7.2989  -6.9126  -6.8883  -6.8259  -6.4970  -6.3768
    -6.3275  -6.2105  -6.1816  -6.1483  -6.0490  -6.0315  -6.0170  -5.9322
    -5.8827  -5.8203  -5.7982  -5.7251  -5.6893  -5.5859  -5.4496  -5.4218
    -5.3168  -4.8252  -4.7307  -4.5532  -4.4894  -4.4449  -4.3226  -4.3091
    -4.1502  -4.1164  -4.1052  -4.0232  -3.9558  -3.9101  -3.8870  -3.8335
    -3.7875  -3.7590  -3.7230  -3.7015  -3.6419  -3.6181  -3.5860  -3.5629
    -3.4916  -3.4686  -3.4344  -3.4015  -3.3829  -3.3299  -3.3195  -3.2983
    -3.2706  -3.2161  -3.1852  -3.1616  -3.1325  -3.0913  -3.0409  -3.0278
    -2.9868  -2.9719  -2.9449  -2.9197  -2.8816  -2.8617  -2.8302  -2.8028
    -2.7565  -2.7152  -2.6357  -2.5818  -2.5384  -2.4512  -2.4158  -2.3604
    -2.2290  -2.1782  -2.0925  -2.0423  -2.0165  -1.9973  -0.3532  -0.3351
    -0.2325  -0.1718  -0.0762  -0.0612  -0.0505   0.0466   0.1028   0.5803
     0.6099   0.6186   2.3411   2.6031   2.6314   2.7039   2.7439   2.7653
     2.7734   2.7925   2.8185   2.8563   3.5904   3.7222   3.9163   4.2710
     4.4447   4.6066   4.6892   4.7411   4.7673   4.8332   4.8603   4.9295
     4.9696   4.9954   5.0346   5.0432   5.0750   5.0912   5.1456   5.1601
     5.2001

     occupation numbers 
     1.0000   1.0000   1.0000   1.0000   1.0000   1.0000   1.0000   1.0000
     1.0000   1.0000   1.0000   1.0000   1.0000   1.0000   1.0000   1.0000
     1.0000   1.0000   1.0000   1.0000   1.0000   1.0000   1.0000   1.0000
     1.0000   1.0000   1.0000   1.0000   1.0000   1.0000   1.0000   1.0000
     1.0000   1.0000   1.0000   1.0000   1.0000   1.0000   1.0000   1.0000
     1.0000   1.0000   1.0000   1.0000   1.0000   1.0000   1.0000   1.0000
     1.0000   1.0000   1.0000   1.0000   1.0000   1.0000   1.0000   1.0000
     1.0000   1.0000   1.0000   1.0000   1.0000   1.0000   1.0000   1.0000
     1.0000   1.0000   1.0000   1.0000   1.0000   1.0000   1.0000   1.0000
     1.0000   1.0000   1.0000   1.0000   1.0000   1.0000   1.0000   1.0000
     1.0000   1.0000   1.0000   1.0000   1.0000   1.0000   1.0000   1.0000
     1.0000   1.0000   1.0000   1.0000   1.0000   1.0000   1.0000   1.0000
     1.0000   1.0000   1.0000   1.0000   1.0000   1.0000   1.0000   1.0000
     1.0000   1.0000   1.0000   1.0000   1.0000   1.0000   1.0000   1.0000
     1.0000   1.0000   1.0000   1.0000   1.0000   1.0000   1.0000   1.0000
     1.0000   1.0000   1.0000   1.0000   1.0000   1.0000   1.0000   1.0000
     1.0000   1.0000   1.0000   1.0000   1.0000   1.0000   1.0000   1.0000
     1.0000   1.0000   1.0000   1.0000   1.0000   1.0000   1.0000   1.0000
     1.0000   1.0000   1.0000   1.0000   1.0000   1.0000   1.0000   1.0000
     1.0000   1.0000   1.0000   1.0000   1.0000   1.0000   1.0000   1.0000
     1.0000   1.0000   0.0000   0.0000   0.0000   0.0000   0.0000   0.0000
     0.0000   0.0000   0.0000   0.0000   0.0000   0.0000   0.0000   0.0000
     0.0000   0.0000   0.0000   0.0000   0.0000   0.0000   0.0000   0.0000
     0.0000   0.0000   0.0000   0.0000   0.0000   0.0000   0.0000   0.0000
     0.0000

          k =-0.2500-0.2500 0.2500 (160125 PWs)   bands (ev):

   -69.4247 -69.3648 -69.3632 -63.5104 -63.5055 -63.3097 -62.8904 -40.7920
   -40.7634 -40.7301 -40.7298 -40.7207 -40.7021 -40.6985 -40.6645 -40.6630
   -37.4927 -37.4883 -37.3807 -37.3733 -37.3591 -37.3575 -37.2735 -37.1896
   -37.1685 -36.7846 -36.7628 -36.7605 -29.7031 -22.2212 -22.1919 -21.8268
   -21.7252 -21.6903 -21.6079 -20.7396 -17.2446 -17.2101 -17.1315 -17.1220
   -17.1086 -17.0664 -17.0545 -17.0241 -17.0130 -16.9930 -16.9552 -16.9388
   -16.9254 -16.8497 -16.8318 -16.4207 -16.3468 -16.3291 -13.1707 -13.1689
   -13.1676 -10.0464 -10.0010  -9.6400  -9.4999  -9.4395  -9.3851  -8.7113
    -7.5196  -7.3114  -7.3037  -6.9040  -6.8962  -6.8272  -6.4840  -6.3797
    -6.3489  -6.2087  -6.1734  -6.1437  -6.0546  -6.0294  -6.0129  -5.9321
    -5.8705  -5.8336  -5.7989  -5.7278  -5.6859  -5.5849  -5.4544  -5.4213
    -5.3165  -4.8193  -4.7238  -4.5951  -4.4767  -4.4197  -4.3343  -4.2770
    -4.1721  -4.1514  -4.0760  -4.0124  -3.9863  -3.8984  -3.8663  -3.8354
    -3.7926  -3.7584  -3.7291  -3.6992  -3.6539  -3.6230  -3.5805  -3.5595
    -3.4924  -3.4518  -3.4345  -3.4089  -3.3865  -3.3410  -3.3101  -3.2941
    -3.2631  -3.2236  -3.1985  -3.1641  -3.1194  -3.0862  -3.0414  -3.0193
    -2.9939  -2.9861  -2.9560  -2.8945  -2.8880  -2.8454  -2.8276  -2.8118
    -2.7635  -2.7190  -2.6321  -2.5651  -2.5475  -2.4516  -2.4302  -2.3613
    -2.2260  -2.1629  -2.1040  -2.0373  -2.0273  -1.9908  -0.3607  -0.3344
    -0.2248  -0.1641  -0.0849  -0.0604  -0.0523   0.0465   0.1044   0.5805
     0.6105   0.6173   2.3511   2.5895   2.6337   2.7007   2.7510   2.7648
     2.7719   2.7771   2.8340   2.8492   3.5975   3.7562   3.8758   4.2866
     4.4310   4.6085   4.6998   4.7495   4.7749   4.8237   4.8447   4.9278
     4.9639   4.9892   5.0392   5.0520   5.0829   5.1022   5.1495   5.1688
     5.1745

     occupation numbers 
     1.0000   1.0000   1.0000   1.0000   1.0000   1.0000   1.0000   1.0000
     1.0000   1.0000   1.0000   1.0000   1.0000   1.0000   1.0000   1.0000
     1.0000   1.0000   1.0000   1.0000   1.0000   1.0000   1.0000   1.0000
     1.0000   1.0000   1.0000   1.0000   1.0000   1.0000   1.0000   1.0000
     1.0000   1.0000   1.0000   1.0000   1.0000   1.0000   1.0000   1.0000
     1.0000   1.0000   1.0000   1.0000   1.0000   1.0000   1.0000   1.0000
     1.0000   1.0000   1.0000   1.0000   1.0000   1.0000   1.0000   1.0000
     1.0000   1.0000   1.0000   1.0000   1.0000   1.0000   1.0000   1.0000
     1.0000   1.0000   1.0000   1.0000   1.0000   1.0000   1.0000   1.0000
     1.0000   1.0000   1.0000   1.0000   1.0000   1.0000   1.0000   1.0000
     1.0000   1.0000   1.0000   1.0000   1.0000   1.0000   1.0000   1.0000
     1.0000   1.0000   1.0000   1.0000   1.0000   1.0000   1.0000   1.0000
     1.0000   1.0000   1.0000   1.0000   1.0000   1.0000   1.0000   1.0000
     1.0000   1.0000   1.0000   1.0000   1.0000   1.0000   1.0000   1.0000
     1.0000   1.0000   1.0000   1.0000   1.0000   1.0000   1.0000   1.0000
     1.0000   1.0000   1.0000   1.0000   1.0000   1.0000   1.0000   1.0000
     1.0000   1.0000   1.0000   1.0000   1.0000   1.0000   1.0000   1.0000
     1.0000   1.0000   1.0000   1.0000   1.0000   1.0000   1.0000   1.0000
     1.0000   1.0000   1.0000   1.0000   1.0000   1.0000   1.0000   1.0000
     1.0000   1.0000   1.0000   1.0000   1.0000   1.0000   1.0000   1.0000
     1.0000   1.0000   0.0000   0.0000   0.0000   0.0000   0.0000   0.0000
     0.0000   0.0000   0.0000   0.0000   0.0000   0.0000   0.0000   0.0000
     0.0000   0.0000   0.0000   0.0000   0.0000   0.0000   0.0000   0.0000
     0.0000   0.0000   0.0000   0.0000   0.0000   0.0000   0.0000   0.0000
     0.0000

          k =-0.2500 0.2500-0.2500 (160125 PWs)   bands (ev):

   -69.4247 -69.3648 -69.3632 -63.5104 -63.5055 -63.3097 -62.8904 -40.7920
   -40.7634 -40.7301 -40.7298 -40.7207 -40.7021 -40.6985 -40.6645 -40.6630
   -37.4927 -37.4883 -37.3807 -37.3733 -37.3591 -37.3575 -37.2735 -37.1896
   -37.1685 -36.7846 -36.7628 -36.7605 -29.7031 -22.2212 -22.1919 -21.8268
   -21.7252 -21.6903 -21.6079 -20.7396 -17.2446 -17.2102 -17.1308 -17.1233
   -17.1076 -17.0669 -17.0539 -17.0242 -17.0129 -16.9932 -16.9569 -16.9374
   -16.9253 -16.8494 -16.8322 -16.4207 -16.3468 -16.3291 -13.1707 -13.1689
   -13.1676 -10.0464 -10.0010  -9.6400  -9.4999  -9.4395  -9.3851  -8.7113
    -7.5218  -7.3127  -7.2991  -6.9105  -6.8915  -6.8243  -6.4928  -6.3852
    -6.3327  -6.2041  -6.1818  -6.1439  -6.0440  -6.0328  -6.0108  -5.9414
    -5.8856  -5.8308  -5.7882  -5.7247  -5.6885  -5.5859  -5.4491  -5.4239
    -5.3162  -4.8299  -4.7098  -4.5840  -4.4874  -4.4325  -4.3303  -4.2857
    -4.1907  -4.0988  -4.0891  -4.0293  -3.9575  -3.9046  -3.8832  -3.8366
    -3.7915  -3.7673  -3.7333  -3.6855  -3.6462  -3.6152  -3.5832  -3.5679
    -3.4950  -3.4593  -3.4345  -3.4007  -3.3821  -3.3412  -3.3091  -3.2900
    -3.2836  -3.2115  -3.1875  -3.1609  -3.1349  -3.0892  -3.0359  -3.0230
    -3.0026  -2.9662  -2.9505  -2.9085  -2.8867  -2.8640  -2.8286  -2.8054
    -2.7544  -2.7140  -2.6323  -2.5889  -2.5346  -2.4554  -2.4132  -2.3583
    -2.2309  -2.1778  -2.0942  -2.0399  -2.0173  -1.9972  -0.3538  -0.3372
    -0.2252  -0.1713  -0.0848  -0.0607  -0.0511   0.0501   0.1028   0.5803
     0.6099   0.6186   2.3440   2.6010   2.6320   2.7046   2.7407   2.7642
     2.7757   2.7897   2.8183   2.8565   3.5898   3.7400   3.9003   4.2759
     4.4372   4.6106   4.6929   4.7299   4.7854   4.8179   4.8726   4.9241
     4.9648   5.0017   5.0282   5.0495   5.0729   5.0864   5.1411   5.1696
     5.1976

     occupation numbers 
     1.0000   1.0000   1.0000   1.0000   1.0000   1.0000   1.0000   1.0000
     1.0000   1.0000   1.0000   1.0000   1.0000   1.0000   1.0000   1.0000
     1.0000   1.0000   1.0000   1.0000   1.0000   1.0000   1.0000   1.0000
     1.0000   1.0000   1.0000   1.0000   1.0000   1.0000   1.0000   1.0000
     1.0000   1.0000   1.0000   1.0000   1.0000   1.0000   1.0000   1.0000
     1.0000   1.0000   1.0000   1.0000   1.0000   1.0000   1.0000   1.0000
     1.0000   1.0000   1.0000   1.0000   1.0000   1.0000   1.0000   1.0000
     1.0000   1.0000   1.0000   1.0000   1.0000   1.0000   1.0000   1.0000
     1.0000   1.0000   1.0000   1.0000   1.0000   1.0000   1.0000   1.0000
     1.0000   1.0000   1.0000   1.0000   1.0000   1.0000   1.0000   1.0000
     1.0000   1.0000   1.0000   1.0000   1.0000   1.0000   1.0000   1.0000
     1.0000   1.0000   1.0000   1.0000   1.0000   1.0000   1.0000   1.0000
     1.0000   1.0000   1.0000   1.0000   1.0000   1.0000   1.0000   1.0000
     1.0000   1.0000   1.0000   1.0000   1.0000   1.0000   1.0000   1.0000
     1.0000   1.0000   1.0000   1.0000   1.0000   1.0000   1.0000   1.0000
     1.0000   1.0000   1.0000   1.0000   1.0000   1.0000   1.0000   1.0000
     1.0000   1.0000   1.0000   1.0000   1.0000   1.0000   1.0000   1.0000
     1.0000   1.0000   1.0000   1.0000   1.0000   1.0000   1.0000   1.0000
     1.0000   1.0000   1.0000   1.0000   1.0000   1.0000   1.0000   1.0000
     1.0000   1.0000   1.0000   1.0000   1.0000   1.0000   1.0000   1.0000
     1.0000   1.0000   0.0000   0.0000   0.0000   0.0000   0.0000   0.0000
     0.0000   0.0000   0.0000   0.0000   0.0000   0.0000   0.0000   0.0000
     0.0000   0.0000   0.0000   0.0000   0.0000   0.0000   0.0000   0.0000
     0.0000   0.0000   0.0000   0.0000   0.0000   0.0000   0.0000   0.0000
     0.0000

          k = 0.2500-0.2500-0.2500 (160125 PWs)   bands (ev):

   -69.4247 -69.3648 -69.3632 -63.5104 -63.5055 -63.3097 -62.8904 -40.7920
   -40.7634 -40.7301 -40.7298 -40.7207 -40.7021 -40.6985 -40.6645 -40.6630
   -37.4927 -37.4883 -37.3807 -37.3733 -37.3591 -37.3575 -37.2735 -37.1896
   -37.1685 -36.7846 -36.7628 -36.7605 -29.7031 -22.2212 -22.1919 -21.8268
   -21.7252 -21.6903 -21.6079 -20.7396 -17.2446 -17.2101 -17.1311 -17.1221
   -17.1091 -17.0659 -17.0543 -17.0226 -17.0154 -16.9923 -16.9552 -16.9394
   -16.9253 -16.8495 -16.8318 -16.4207 -16.3468 -16.3291 -13.1707 -13.1689
   -13.1676 -10.0464 -10.0010  -9.6400  -9.4999  -9.4395  -9.3851  -8.7113
    -7.5229  -7.3151  -7.2940  -6.9034  -6.8918  -6.8317  -6.5039  -6.3843
    -6.3275  -6.2049  -6.1748  -6.1422  -6.0542  -6.0335  -6.0147  -5.9438
    -5.8745  -5.8155  -5.7916  -5.7267  -5.6877  -5.5940  -5.4471  -5.4201
    -5.3166  -4.8583  -4.7130  -4.5394  -4.4998  -4.4136  -4.3282  -4.2838
    -4.1931  -4.1654  -4.1056  -3.9949  -3.9401  -3.8993  -3.8561  -3.8352
    -3.8145  -3.7666  -3.7339  -3.6821  -3.6518  -3.6192  -3.5996  -3.5692
    -3.5219  -3.4693  -3.3982  -3.3808  -3.3464  -3.3409  -3.3281  -3.2957
    -3.2663  -3.2417  -3.1988  -3.1572  -3.1400  -3.0823  -3.0174  -3.0056
    -2.9966  -2.9683  -2.9538  -2.9217  -2.8907  -2.8527  -2.8256  -2.8062
    -2.7543  -2.7235  -2.6427  -2.6006  -2.5796  -2.4281  -2.3914  -2.3786
    -2.1856  -2.1552  -2.1497  -2.0350  -2.0182  -1.9923  -0.3601  -0.3379
    -0.2334  -0.1639  -0.0764  -0.0585  -0.0517   0.0502   0.1043   0.5784
     0.6091   0.6173   2.3588   2.5984   2.6260   2.7076   2.7296   2.7470
     2.7650   2.7956   2.8346   2.8463   3.5963   3.7456   3.9295   4.2558
     4.4465   4.6043   4.6989   4.7488   4.7948   4.8411   4.8682   4.8955
     4.9529   4.9820   5.0388   5.0495   5.0684   5.0949   5.1323   5.1543
     5.1939

     occupation numbers 
     1.0000   1.0000   1.0000   1.0000   1.0000   1.0000   1.0000   1.0000
     1.0000   1.0000   1.0000   1.0000   1.0000   1.0000   1.0000   1.0000
     1.0000   1.0000   1.0000   1.0000   1.0000   1.0000   1.0000   1.0000
     1.0000   1.0000   1.0000   1.0000   1.0000   1.0000   1.0000   1.0000
     1.0000   1.0000   1.0000   1.0000   1.0000   1.0000   1.0000   1.0000
     1.0000   1.0000   1.0000   1.0000   1.0000   1.0000   1.0000   1.0000
     1.0000   1.0000   1.0000   1.0000   1.0000   1.0000   1.0000   1.0000
     1.0000   1.0000   1.0000   1.0000   1.0000   1.0000   1.0000   1.0000
     1.0000   1.0000   1.0000   1.0000   1.0000   1.0000   1.0000   1.0000
     1.0000   1.0000   1.0000   1.0000   1.0000   1.0000   1.0000   1.0000
     1.0000   1.0000   1.0000   1.0000   1.0000   1.0000   1.0000   1.0000
     1.0000   1.0000   1.0000   1.0000   1.0000   1.0000   1.0000   1.0000
     1.0000   1.0000   1.0000   1.0000   1.0000   1.0000   1.0000   1.0000
     1.0000   1.0000   1.0000   1.0000   1.0000   1.0000   1.0000   1.0000
     1.0000   1.0000   1.0000   1.0000   1.0000   1.0000   1.0000   1.0000
     1.0000   1.0000   1.0000   1.0000   1.0000   1.0000   1.0000   1.0000
     1.0000   1.0000   1.0000   1.0000   1.0000   1.0000   1.0000   1.0000
     1.0000   1.0000   1.0000   1.0000   1.0000   1.0000   1.0000   1.0000
     1.0000   1.0000   1.0000   1.0000   1.0000   1.0000   1.0000   1.0000
     1.0000   1.0000   1.0000   1.0000   1.0000   1.0000   1.0000   1.0000
     1.0000   1.0000   0.0000   0.0000   0.0000   0.0000   0.0000   0.0000
     0.0000   0.0000   0.0000   0.0000   0.0000   0.0000   0.0000   0.0000
     0.0000   0.0000   0.0000   0.0000   0.0000   0.0000   0.0000   0.0000
     0.0000   0.0000   0.0000   0.0000   0.0000   0.0000   0.0000   0.0000
     0.0000

     the Fermi energy is     1.0139 ev

!    total energy              =   -2022.04911115 Ry
     estimated scf accuracy    <       0.00000242 Ry
     smearing contrib. (-TS)   =      -0.00000000 Ry
     internal energy E=F+TS    =   -2022.04911115 Ry

     The total energy is F=E-TS. E is the sum of the following terms:
     one-electron contribution =   -2107.13843950 Ry
     hartree contribution      =    1122.62792628 Ry
     xc contribution           =    -435.54959061 Ry
     ewald contribution        =    -602.75412413 Ry
     Hubbard energy            =       0.76511680 Ry

     total magnetization       =    -3.00 Bohr mag/cell
     absolute magnetization    =    24.40 Bohr mag/cell

     convergence has been achieved in  21 iterations

     Writing all to output data dir /tmp/scratch/KVCr_VAC_w1_lcm/KVCr_VAC_w1_lcm.save/ :
     XML data file, charge density, pseudopotentials, collected wavefunctions

     init_run     :     13.59s CPU     18.47s WALL (       1 calls)
     electrons    :    454.35s CPU    650.68s WALL (       1 calls)

     Called by init_run:
     wfcinit      :     10.87s CPU     15.10s WALL (       1 calls)
     wfcinit:atom :      0.07s CPU      0.10s WALL (       1 calls)
     wfcinit:wfcr :      8.81s CPU     12.80s WALL (       1 calls)
     potinit      :      1.22s CPU      1.71s WALL (       1 calls)
     hinit0       :      0.97s CPU      1.05s WALL (       1 calls)

     Called by electrons:
     c_bands      :    346.99s CPU    498.30s WALL (      21 calls)
     sum_band     :     64.41s CPU     98.12s WALL (      21 calls)
     v_of_rho     :      7.95s CPU     13.83s WALL (      22 calls)
     v_h          :      0.27s CPU      0.37s WALL (      22 calls)
     v_xc         :      7.68s CPU     13.45s WALL (      22 calls)
     mix_rho      :     18.29s CPU     23.43s WALL (      21 calls)

     Called by c_bands:
     init_us_2    :      3.86s CPU      4.12s WALL (      44 calls)
     cegterg      :    316.24s CPU    466.67s WALL (      21 calls)

     Called by sum_band:
     sum_band:wei :      0.04s CPU      0.03s WALL (      21 calls)
     sum_band:loo :     59.37s CPU     87.84s WALL (      21 calls)
     sum_band:buf :      0.00s CPU      0.00s WALL (      21 calls)
     sum_band:ini :      1.82s CPU      1.91s WALL (      21 calls)

     Called by *egterg:
     cdiaghg      :      5.57s CPU      6.86s WALL (     164 calls)
     cegterg:over :     17.54s CPU     18.23s WALL (     143 calls)
     cegterg:upda :     11.25s CPU     11.65s WALL (     143 calls)
     cegterg:last :     13.79s CPU     14.37s WALL (      42 calls)
     cdiaghg:chol :      0.58s CPU      0.63s WALL (     164 calls)
     cdiaghg:inve :      0.02s CPU      0.08s WALL (     164 calls)
     cdiaghg:para :      2.10s CPU      2.70s WALL (     328 calls)
     h_psi        :    269.42s CPU    420.32s WALL (     165 calls)
     g_psi        :      0.63s CPU      0.66s WALL (     143 calls)

     Called by h_psi:
     h_psi:calbec :     22.85s CPU     23.65s WALL (     165 calls)
     vloc_psi     :    220.38s CPU    369.45s WALL (     165 calls)
                                        0.00s GPU  (     165 calls)
     add_vuspsi   :     20.15s CPU     20.74s WALL (     165 calls)
     vhpsi        :      4.46s CPU      4.70s WALL (     165 calls)

     General routines
     calbec       :     26.88s CPU     27.94s WALL (     352 calls)
     fft          :      4.73s CPU     12.47s WALL (     416 calls)
     ffts         :      9.83s CPU     16.45s WALL (    1430 calls)
     fftw         :    243.42s CPU    421.34s WALL (   24865 calls)

     Parallel routines

     Hubbard U routines
     new_ns       :      0.68s CPU      0.74s WALL (      21 calls)
     vhpsi        :      4.46s CPU      4.70s WALL (     165 calls)

     PWSCF        :   7m49.26s CPU  11m11.24s WALL


   This run was terminated on:  18:12:29   3Oct2026            

=------------------------------------------------------------------------------=
   JOB DONE.
=------------------------------------------------------------------------------=
Note: The following floating-point exceptions are signalling: IEEE_UNDERFLOW_FLAG IEEE_DENORMAL
Note: The following floating-point exceptions are signalling: IEEE_UNDERFLOW_FLAG IEEE_DENORMAL
Note: The following floating-point exceptions are signalling: IEEE_UNDERFLOW_FLAG IEEE_DENORMAL
Note: The following floating-point exceptions are signalling: IEEE_UNDERFLOW_FLAG IEEE_DENORMAL
Note: The following floating-point exceptions are signalling: IEEE_UNDERFLOW_FLAG IEEE_DENORMAL
Note: The following floating-point exceptions are signalling: IEEE_UNDERFLOW_FLAG IEEE_DENORMAL
Note: The following floating-point exceptions are signalling: IEEE_UNDERFLOW_FLAG IEEE_DENORMAL
Note: The following floating-point exceptions are signalling: IEEE_UNDERFLOW_FLAG IEEE_DENORMAL
Note: The following floating-point exceptions are signalling: IEEE_UNDERFLOW_FLAG IEEE_DENORMAL
Note: The following floating-point exceptions are signalling: IEEE_UNDERFLOW_FLAG IEEE_DENORMAL
Note: The following floating-point exceptions are signalling: IEEE_UNDERFLOW_FLAG IEEE_DENORMAL
Note: The following floating-point exceptions are signalling: IEEE_UNDERFLOW_FLAG IEEE_DENORMAL
Note: The following floating-point exceptions are signalling: IEEE_DENORMAL
Note: The following floating-point exceptions are signalling: IEEE_UNDERFLOW_FLAG IEEE_DENORMAL
Note: The following floating-point exceptions are signalling: IEEE_UNDERFLOW_FLAG IEEE_DENORMAL
Note: The following floating-point exceptions are signalling: IEEE_UNDERFLOW_FLAG IEEE_DENORMAL
