
     Program PWSCF v.7.5 starts on  2Oct2026 at  7:41:41 

     This program is part of the open-source Quantum ESPRESSO suite
     for quantum simulation of materials; please cite
         "P. Giannozzi et al., J. Phys.:Condens. Matter 21 395502 (2009);
         "P. Giannozzi et al., J. Phys.:Condens. Matter 29 465901 (2017);
         "P. Giannozzi et al., J. Chem. Phys. 152 154105 (2020);
          URL http://www.quantum-espresso.org", 
     in publications or presentations arising from this work. More details at
     http://www.quantum-espresso.org/quote

     Parallel version (MPI & OpenMP), running on      32 processor cores
     Number of MPI processes:                32
     Threads/MPI process:                     1

     MPI processes distributed on     1 nodes
     695523 MiB available memory on the printing compute node when the environment starts

     Reading input from single.in

     Current dimensions of program PWSCF are:
     Max number of different atomic species (ntypx) = 10
     Max number of k-points (npk) =  40000
     Max angular momentum in pseudopotentials (lmaxx) =  4
     Message from routine setup:
     using ibrav=0 with symmetry is DISCOURAGED, use correct ibrav instead

     K-points division:     npool     =      16
     R & G space division:  proc/nbgrp/npool/nimage =       2
     Subspace diagonalization in iterative solution of the eigenvalue problem:
     a serial algorithm will be used


     Parallelization info
     --------------------
     sticks:   dense  smooth     PW     G-vecs:    dense   smooth      PW
     Min        1648    1648    442               192138   192138   27394
     Max        1649    1649    443               192141   192141   27405
     Sum        3297    3297    885               384279   384279   54799

     Using Slab Decomposition



     bravais-lattice index     =            0
     lattice parameter (alat)  =      10.7051  a.u.
     unit-cell volume          =    3330.2042 (a.u.)^3
     number of atoms/cell      =           36
     number of atomic types    =            7
     number of electrons       =       328.00
     number of Kohn-Sham states=          197
     kinetic-energy cutoff     =      90.0000  Ry
     charge density cutoff     =     360.0000  Ry
     scf convergence threshold =      3.6E-07
     mixing beta               =       0.3000
     number of iterations used =            8  local-TF  mixing
     Exchange-correlation= PBE
                           (   1   4   3   4   0   0   0)
     Hubbard projectors: ortho-atomic
     Hubbard parameters of DFT+U (Dudarev formulation) in eV:
     U(Mn-3d) =  6.0000
     U(Mn1-3d) =  6.0000
     U(Fe-3d) =  6.0000
     U(Fe1-3d) =  6.0000

     Internal variables: lda_plus_u =T, lda_plus_u_kind = 0

     Internal variables: orbital_resolved =F, hub_pot_fix =F, apply_U = F

     celldm(1)=  10.705124  celldm(2)=   0.000000  celldm(3)=   0.000000
     celldm(4)=   0.000000  celldm(5)=   0.000000  celldm(6)=   0.000000

     crystal axes: (cart. coord. in units of alat)
               a(1) = (   1.000000   0.000000   0.000000 )  
               a(2) = (   0.000000   1.000000   0.000000 )  
               a(3) = (   0.000000   0.000000   2.714537 )  

     reciprocal axes: (cart. coord. in units 2 pi/alat)
               b(1) = (  1.000000  0.000000  0.000000 )  
               b(2) = (  0.000000  1.000000  0.000000 )  
               b(3) = (  0.000000  0.000000  0.368387 )  


     PseudoPot. # 1 for Ba read from file:
     /data/pseudo/dojo_sr/Ba.upf
     MD5 check sum: d1993ebf099ea5c29fdb9ecc5bd2bc91
     Pseudo is Norm-conserving + core correction, Zval = 10.0
     Generated using ONCVPSP code by D. R. Hamann
     Using radial grid of 1958 points,  6 beta functions with: 
                l(1) =   0
                l(2) =   0
                l(3) =   1
                l(4) =   1
                l(5) =   2
                l(6) =   2

     PseudoPot. # 2 for Y  read from file:
     /data/pseudo/dojo_sr/Y.upf
     MD5 check sum: 28b7a77fe5d3539441de961898735449
     Pseudo is Norm-conserving + core correction, Zval = 11.0
     Generated using ONCVPSP code by D. R. Hamann
     Using radial grid of 1766 points,  6 beta functions with: 
                l(1) =   0
                l(2) =   0
                l(3) =   1
                l(4) =   1
                l(5) =   2
                l(6) =   2

     PseudoPot. # 3 for Mn read from file:
     /data/pseudo/dojo_sr/Mn.upf
     MD5 check sum: ae71e1481ef25a952ba54bed1e0db183
     Pseudo is Norm-conserving + core correction, Zval = 15.0
     Generated using ONCVPSP code by D. R. Hamann
     Using radial grid of 1464 points,  6 beta functions with: 
                l(1) =   0
                l(2) =   0
                l(3) =   1
                l(4) =   1
                l(5) =   2
                l(6) =   2

     PseudoPot. # 4 for Mn read from file:
     /data/pseudo/dojo_sr/Mn.upf
     MD5 check sum: ae71e1481ef25a952ba54bed1e0db183
     Pseudo is Norm-conserving + core correction, Zval = 15.0
     Generated using ONCVPSP code by D. R. Hamann
     Using radial grid of 1464 points,  6 beta functions with: 
                l(1) =   0
                l(2) =   0
                l(3) =   1
                l(4) =   1
                l(5) =   2
                l(6) =   2

     PseudoPot. # 5 for Fe read from file:
     /data/pseudo/dojo_sr/Fe.upf
     MD5 check sum: a5f07f5dca5be6cacb81ceb54992e4ae
     Pseudo is Norm-conserving + core correction, Zval = 16.0
     Generated using ONCVPSP code by D. R. Hamann
     Using radial grid of 1426 points,  6 beta functions with: 
                l(1) =   0
                l(2) =   0
                l(3) =   1
                l(4) =   1
                l(5) =   2
                l(6) =   2

     PseudoPot. # 6 for Fe read from file:
     /data/pseudo/dojo_sr/Fe.upf
     MD5 check sum: a5f07f5dca5be6cacb81ceb54992e4ae
     Pseudo is Norm-conserving + core correction, Zval = 16.0
     Generated using ONCVPSP code by D. R. Hamann
     Using radial grid of 1426 points,  6 beta functions with: 
                l(1) =   0
                l(2) =   0
                l(3) =   1
                l(4) =   1
                l(5) =   2
                l(6) =   2

     PseudoPot. # 7 for O  read from file:
     /data/pseudo/dojo_sr/O.upf
     MD5 check sum: 3e3f909f7470e8921608ab6b1f57bbae
     Pseudo is Norm-conserving + core correction, Zval =  6.0
     Generated using ONCVPSP code by D. R. Hamann
     Using radial grid of  936 points,  5 beta functions with: 
                l(1) =   0
                l(2) =   0
                l(3) =   1
                l(4) =   1
                l(5) =   2

     atomic species   valence    mass     pseudopotential
     Ba               10.00   137.32700     Ba( 1.00)
     Y                11.00    88.90580     Y ( 1.00)
     Mn               15.00    54.93800     Mn( 1.00)
     Mn1              15.00    54.93800     Mn( 1.00)
     Fe               16.00    55.84500     Fe( 1.00)
     Fe1              16.00    55.84500     Fe( 1.00)
     O                 6.00    15.99900     O ( 1.00)

     Starting magnetic structure 
     atomic species   magnetization
     Ba              0.000
     Y               0.000
     Mn              0.300
     Mn1            -0.300
     Fe             -0.263
     Fe1             0.263
     O               0.000

      8 Sym. Ops., with inversion, found ( 6 have fractional translation)


                                    s                        frac. trans.

      isym =  1     identity                                     

 cryst.   s( 1) = (     1          0          0      )
                  (     0          1          0      )
                  (     0          0          1      )

 cart.    s( 1) = (  1.0000000  0.0000000  0.0000000 )
                  (  0.0000000  1.0000000  0.0000000 )
                  (  0.0000000  0.0000000  1.0000000 )


      isym =  2     180 deg rotation - cart. axis [0,0,1]        

 cryst.   s( 2) = (    -1          0          0      )
                  (     0         -1          0      )
                  (     0          0          1      )

 cart.    s( 2) = ( -1.0000000  0.0000000  0.0000000 )
                  (  0.0000000 -1.0000000  0.0000000 )
                  (  0.0000000  0.0000000  1.0000000 )


      isym =  3      90 deg rotation - cart. axis [0,0,-1]       

 cryst.   s( 3) = (     0         -1          0      )    f =( -0.5000000 )
                  (     1          0          0      )       (  0.5000000 )
                  (     0          0          1      )       (  0.0000000 )

 cart.    s( 3) = (  0.0000000  1.0000000  0.0000000 )    f =( -0.5000000 )
                  ( -1.0000000  0.0000000  0.0000000 )       (  0.5000000 )
                  (  0.0000000  0.0000000  1.0000000 )       (  0.0000000 )


      isym =  4      90 deg rotation - cart. axis [0,0,1]        

 cryst.   s( 4) = (     0          1          0      )    f =(  0.5000000 )
                  (    -1          0          0      )       ( -0.5000000 )
                  (     0          0          1      )       (  0.0000000 )

 cart.    s( 4) = (  0.0000000 -1.0000000  0.0000000 )    f =(  0.5000000 )
                  (  1.0000000  0.0000000  0.0000000 )       ( -0.5000000 )
                  (  0.0000000  0.0000000  1.0000000 )       (  0.0000000 )


      isym =  5     inversion                                    

 cryst.   s( 5) = (    -1          0          0      )    f =(  0.5000000 )
                  (     0         -1          0      )       (  0.5000000 )
                  (     0          0         -1      )       (  0.5000000 )

 cart.    s( 5) = ( -1.0000000  0.0000000  0.0000000 )    f =(  0.5000000 )
                  (  0.0000000 -1.0000000  0.0000000 )       (  0.5000000 )
                  (  0.0000000  0.0000000 -1.0000000 )       (  1.3572685 )


      isym =  6     inv. 180 deg rotation - cart. axis [0,0,1]   

 cryst.   s( 6) = (     1          0          0      )    f =( -0.5000000 )
                  (     0          1          0      )       ( -0.5000000 )
                  (     0          0         -1      )       (  0.5000000 )

 cart.    s( 6) = (  1.0000000  0.0000000  0.0000000 )    f =( -0.5000000 )
                  (  0.0000000  1.0000000  0.0000000 )       ( -0.5000000 )
                  (  0.0000000  0.0000000 -1.0000000 )       (  1.3572685 )


      isym =  7     inv.  90 deg rotation - cart. axis [0,0,-1]  

 cryst.   s( 7) = (     0          1          0      )    f =(  0.0000000 )
                  (    -1          0          0      )       (  0.0000000 )
                  (     0          0         -1      )       (  0.5000000 )

 cart.    s( 7) = (  0.0000000 -1.0000000  0.0000000 )    f =(  0.0000000 )
                  (  1.0000000  0.0000000  0.0000000 )       (  0.0000000 )
                  (  0.0000000  0.0000000 -1.0000000 )       (  1.3572685 )


      isym =  8     inv.  90 deg rotation - cart. axis [0,0,1]   

 cryst.   s( 8) = (     0         -1          0      )    f =(  0.0000000 )
                  (     1          0          0      )       (  0.0000000 )
                  (     0          0         -1      )       (  0.5000000 )

 cart.    s( 8) = (  0.0000000  1.0000000  0.0000000 )    f =(  0.0000000 )
                  ( -1.0000000  0.0000000  0.0000000 )       (  0.0000000 )
                  (  0.0000000  0.0000000 -1.0000000 )       (  1.3572685 )


   Cartesian axes

     site n.     atom                  positions (alat units)
         1        Ba     tau(   1) = (   0.0000000   0.0000000   0.0000000  )
         2        Ba     tau(   2) = (   0.0000000   0.0000000   1.3572685  )
         3        Ba     tau(   3) = (   0.5000000   0.5000000   0.0000000  )
         4        Ba     tau(   4) = (   0.5000000   0.5000000   1.3572685  )
         5        Y      tau(   5) = (   0.0000000   0.0000000   0.6786343  )
         6        Y      tau(   6) = (   0.0000000   0.0000000   2.0359028  )
         7        Y      tau(   7) = (   0.5000000   0.5000000   0.6786343  )
         8        Y      tau(   8) = (   0.5000000   0.5000000   2.0359028  )
         9        Mn     tau(   9) = (   0.0000000   0.5000000   0.3541496  )
        10        Mn1    tau(  10) = (   0.0000000   0.5000000   1.7114181  )
        11        Mn     tau(  11) = (   0.5000000   0.0000000   1.0031189  )
        12        Mn1    tau(  12) = (   0.5000000   0.0000000   2.3603874  )
        13        Fe     tau(  13) = (   0.5000000   0.0000000   0.3505554  )
        14        Fe1    tau(  14) = (   0.5000000   0.0000000   1.7078239  )
        15        Fe     tau(  15) = (   0.0000000   0.5000000   1.0067131  )
        16        Fe1    tau(  16) = (   0.0000000   0.5000000   2.3639816  )
        17        O      tau(  17) = (   0.5000000   0.0000000   0.0118988  )
        18        O      tau(  18) = (   0.5000000   0.0000000   1.3691674  )
        19        O      tau(  19) = (   0.0000000   0.5000000   1.3453697  )
        20        O      tau(  20) = (   0.0000000   0.5000000   2.7026382  )
        21        O      tau(  21) = (   0.2144487   0.2287493   0.9307969  )
        22        O      tau(  22) = (   0.2144487   0.2287493   2.2880654  )
        23        O      tau(  23) = (   0.7855513   0.7712507   0.9307969  )
        24        O      tau(  24) = (   0.7855513   0.7712507   2.2880654  )
        25        O      tau(  25) = (   0.2712507   0.7144487   0.9307969  )
        26        O      tau(  26) = (   0.2712507   0.7144487   2.2880654  )
        27        O      tau(  27) = (   0.7287493   0.2855513   0.9307969  )
        28        O      tau(  28) = (   0.7287493   0.2855513   2.2880654  )
        29        O      tau(  29) = (   0.2855513   0.2712507   0.4264716  )
        30        O      tau(  30) = (   0.2855513   0.2712507   1.7837401  )
        31        O      tau(  31) = (   0.7144487   0.7287493   0.4264716  )
        32        O      tau(  32) = (   0.7144487   0.7287493   1.7837401  )
        33        O      tau(  33) = (   0.2287493   0.7855513   0.4264716  )
        34        O      tau(  34) = (   0.2287493   0.7855513   1.7837401  )
        35        O      tau(  35) = (   0.7712507   0.2144487   0.4264716  )
        36        O      tau(  36) = (   0.7712507   0.2144487   1.7837401  )

   Crystallographic axes

     site n.     atom                  positions (cryst. coord.)
         1        Ba     tau(   1) = (  0.0000000  0.0000000  0.0000000  )
         2        Ba     tau(   2) = (  0.0000000  0.0000000  0.5000000  )
         3        Ba     tau(   3) = (  0.5000000  0.5000000  0.0000000  )
         4        Ba     tau(   4) = (  0.5000000  0.5000000  0.5000000  )
         5        Y      tau(   5) = (  0.0000000  0.0000000  0.2500000  )
         6        Y      tau(   6) = (  0.0000000  0.0000000  0.7500000  )
         7        Y      tau(   7) = (  0.5000000  0.5000000  0.2500000  )
         8        Y      tau(   8) = (  0.5000000  0.5000000  0.7500000  )
         9        Mn     tau(   9) = (  0.0000000  0.5000000  0.1304641  )
        10        Mn1    tau(  10) = (  0.0000000  0.5000000  0.6304641  )
        11        Mn     tau(  11) = (  0.5000000  0.0000000  0.3695359  )
        12        Mn1    tau(  12) = (  0.5000000  0.0000000  0.8695359  )
        13        Fe     tau(  13) = (  0.5000000  0.0000000  0.1291400  )
        14        Fe1    tau(  14) = (  0.5000000  0.0000000  0.6291400  )
        15        Fe     tau(  15) = (  0.0000000  0.5000000  0.3708600  )
        16        Fe1    tau(  16) = (  0.0000000  0.5000000  0.8708600  )
        17        O      tau(  17) = (  0.5000000  0.0000000  0.0043834  )
        18        O      tau(  18) = (  0.5000000  0.0000000  0.5043834  )
        19        O      tau(  19) = (  0.0000000  0.5000000  0.4956166  )
        20        O      tau(  20) = (  0.0000000  0.5000000  0.9956166  )
        21        O      tau(  21) = (  0.2144487  0.2287493  0.3428934  )
        22        O      tau(  22) = (  0.2144487  0.2287493  0.8428934  )
        23        O      tau(  23) = (  0.7855513  0.7712507  0.3428934  )
        24        O      tau(  24) = (  0.7855513  0.7712507  0.8428934  )
        25        O      tau(  25) = (  0.2712507  0.7144487  0.3428934  )
        26        O      tau(  26) = (  0.2712507  0.7144487  0.8428934  )
        27        O      tau(  27) = (  0.7287493  0.2855513  0.3428934  )
        28        O      tau(  28) = (  0.7287493  0.2855513  0.8428934  )
        29        O      tau(  29) = (  0.2855513  0.2712507  0.1571066  )
        30        O      tau(  30) = (  0.2855513  0.2712507  0.6571066  )
        31        O      tau(  31) = (  0.7144487  0.7287493  0.1571066  )
        32        O      tau(  32) = (  0.7144487  0.7287493  0.6571066  )
        33        O      tau(  33) = (  0.2287493  0.7855513  0.1571066  )
        34        O      tau(  34) = (  0.2287493  0.7855513  0.6571066  )
        35        O      tau(  35) = (  0.7712507  0.2144487  0.1571066  )
        36        O      tau(  36) = (  0.7712507  0.2144487  0.6571066  )

     number of k points=    12  Gaussian smearing, width (Ry)=  0.0050
                       cart. coord. in units 2pi/alat
        k(    1) = (   0.0000000   0.0000000   0.0000000), wk =   0.0312500
        k(    2) = (   0.0000000   0.0000000  -0.1841935), wk =   0.0312500
        k(    3) = (   0.0000000   0.2500000   0.0000000), wk =   0.1250000
        k(    4) = (   0.0000000   0.2500000  -0.1841935), wk =   0.1250000
        k(    5) = (   0.0000000  -0.5000000   0.0000000), wk =   0.0625000
        k(    6) = (   0.0000000  -0.5000000  -0.1841935), wk =   0.0625000
        k(    7) = (   0.2500000   0.2500000   0.0000000), wk =   0.1250000
        k(    8) = (   0.2500000   0.2500000  -0.1841935), wk =   0.1250000
        k(    9) = (   0.2500000  -0.5000000   0.0000000), wk =   0.1250000
        k(   10) = (   0.2500000  -0.5000000  -0.1841935), wk =   0.1250000
        k(   11) = (  -0.5000000  -0.5000000   0.0000000), wk =   0.0312500
        k(   12) = (  -0.5000000  -0.5000000  -0.1841935), wk =   0.0312500

                       cryst. coord.
        k(    1) = (   0.0000000   0.0000000   0.0000000), wk =   0.0312500
        k(    2) = (   0.0000000   0.0000000  -0.5000000), wk =   0.0312500
        k(    3) = (   0.0000000   0.2500000   0.0000000), wk =   0.1250000
        k(    4) = (   0.0000000   0.2500000  -0.5000000), wk =   0.1250000
        k(    5) = (   0.0000000  -0.5000000   0.0000000), wk =   0.0625000
        k(    6) = (   0.0000000  -0.5000000  -0.5000000), wk =   0.0625000
        k(    7) = (   0.2500000   0.2500000   0.0000000), wk =   0.1250000
        k(    8) = (   0.2500000   0.2500000  -0.5000000), wk =   0.1250000
        k(    9) = (   0.2500000  -0.5000000   0.0000000), wk =   0.1250000
        k(   10) = (   0.2500000  -0.5000000  -0.5000000), wk =   0.1250000
        k(   11) = (  -0.5000000  -0.5000000   0.0000000), wk =   0.0312500
        k(   12) = (  -0.5000000  -0.5000000  -0.5000000), wk =   0.0312500

     Dense  grid:   384279 G-vectors     FFT dimensions: (  72,  72, 180)

     Dynamical RAM for                 wfc:      72.17 MB

     Dynamical RAM for     wfc (w. buffer):     216.50 MB

     Dynamical RAM for             U proj.:      14.65 MB

     Dynamical RAM for  U proj. (w. buff.):      43.96 MB

     Dynamical RAM for           str. fact:      20.52 MB

     Dynamical RAM for           local pot:       0.00 MB

     Dynamical RAM for          nlocal pot:     200.75 MB

     Dynamical RAM for                qrad:      10.66 MB

     Dynamical RAM for          rho,v,vnew:      38.95 MB

     Dynamical RAM for               rhoin:      12.98 MB

     Dynamical RAM for            rho*nmix:      93.82 MB

     Dynamical RAM for           G-vectors:      12.46 MB

     Dynamical RAM for          h,s,v(r/c):       7.11 MB

     Dynamical RAM for          <psi|beta>:       1.65 MB

     Dynamical RAM for                 psi:     144.34 MB

     Dynamical RAM for                hpsi:     144.34 MB

     Dynamical RAM for      wfcinit/wfcrot:     145.22 MB

     Estimated static dynamical RAM per process >     601.60 MB

     Estimated max dynamical RAM per process >     992.84 MB

     Estimated total dynamical RAM >      28.28 GB
     Generating pointlists ...
     new r_m :   0.2063 (alat units)  2.2086 (a.u.) for type    1
     new r_m :   0.1660 (alat units)  1.7768 (a.u.) for type    2
     new r_m :   0.1510 (alat units)  1.6164 (a.u.) for type    3
     new r_m :   0.1510 (alat units)  1.6164 (a.u.) for type    4
     new r_m :   0.1397 (alat units)  1.4955 (a.u.) for type    5
     new r_m :   0.1397 (alat units)  1.4955 (a.u.) for type    6
     new r_m :   0.1397 (alat units)  1.4955 (a.u.) for type    7

     Initial potential from superposition of free atoms

     starting charge     327.9122, renormalised to     328.0000

     HUBBARD ENERGY =    0.7056  (Ry)

     STARTING HUBBARD OCCUPATIONS:

     =================== HUBBARD OCCUPATIONS ===================
     ------------------------ ATOM    9 ------------------------
     Tr[ns(  9)] (up, down, total) =   5.00000  0.00000  5.00000
     Atomic magnetic moment for atom   9 =   5.00000
     SPIN  1
     eigenvalues:
       1.000  1.000  1.000  1.000  1.000
     eigenvectors (columns):
       1.000  0.000  0.000  0.000  0.000
       0.000  1.000  0.000  0.000  0.000
       0.000  0.000  1.000  0.000  0.000
       0.000  0.000  0.000  1.000  0.000
       0.000  0.000  0.000  0.000  1.000
     occupation matrix ns (before diag.):
       1.000  0.000  0.000  0.000  0.000
       0.000  1.000  0.000  0.000  0.000
       0.000  0.000  1.000  0.000  0.000
       0.000  0.000  0.000  1.000  0.000
       0.000  0.000  0.000  0.000  1.000
     SPIN  2
     eigenvalues:
       0.000  0.000  0.000  0.000  0.000
     eigenvectors (columns):
       1.000  0.000  0.000  0.000  0.000
       0.000  1.000  0.000  0.000  0.000
       0.000  0.000  1.000  0.000  0.000
       0.000  0.000  0.000  1.000  0.000
       0.000  0.000  0.000  0.000  1.000
     occupation matrix ns (before diag.):
       0.000  0.000  0.000  0.000  0.000
       0.000  0.000  0.000  0.000  0.000
       0.000  0.000  0.000  0.000  0.000
       0.000  0.000  0.000  0.000  0.000
       0.000  0.000  0.000  0.000  0.000
     ------------------------ ATOM   10 ------------------------
     Tr[ns( 10)] (up, down, total) =   0.00000  5.00000  5.00000
     Atomic magnetic moment for atom  10 =  -5.00000
     SPIN  1
     eigenvalues:
       0.000  0.000  0.000  0.000  0.000
     eigenvectors (columns):
       1.000  0.000  0.000  0.000  0.000
       0.000  1.000  0.000  0.000  0.000
       0.000  0.000  1.000  0.000  0.000
       0.000  0.000  0.000  1.000  0.000
       0.000  0.000  0.000  0.000  1.000
     occupation matrix ns (before diag.):
       0.000  0.000  0.000  0.000  0.000
       0.000  0.000  0.000  0.000  0.000
       0.000  0.000  0.000  0.000  0.000
       0.000  0.000  0.000  0.000  0.000
       0.000  0.000  0.000  0.000  0.000
     SPIN  2
     eigenvalues:
       1.000  1.000  1.000  1.000  1.000
     eigenvectors (columns):
       1.000  0.000  0.000  0.000  0.000
       0.000  1.000  0.000  0.000  0.000
       0.000  0.000  1.000  0.000  0.000
       0.000  0.000  0.000  1.000  0.000
       0.000  0.000  0.000  0.000  1.000
     occupation matrix ns (before diag.):
       1.000  0.000  0.000  0.000  0.000
       0.000  1.000  0.000  0.000  0.000
       0.000  0.000  1.000  0.000  0.000
       0.000  0.000  0.000  1.000  0.000
       0.000  0.000  0.000  0.000  1.000
     ------------------------ ATOM   11 ------------------------
     Tr[ns( 11)] (up, down, total) =   5.00000  0.00000  5.00000
     Atomic magnetic moment for atom  11 =   5.00000
     SPIN  1
     eigenvalues:
       1.000  1.000  1.000  1.000  1.000
     eigenvectors (columns):
       1.000  0.000  0.000  0.000  0.000
       0.000  1.000  0.000  0.000  0.000
       0.000  0.000  1.000  0.000  0.000
       0.000  0.000  0.000  1.000  0.000
       0.000  0.000  0.000  0.000  1.000
     occupation matrix ns (before diag.):
       1.000  0.000  0.000  0.000  0.000
       0.000  1.000  0.000  0.000  0.000
       0.000  0.000  1.000  0.000  0.000
       0.000  0.000  0.000  1.000  0.000
       0.000  0.000  0.000  0.000  1.000
     SPIN  2
     eigenvalues:
       0.000  0.000  0.000  0.000  0.000
     eigenvectors (columns):
       1.000  0.000  0.000  0.000  0.000
       0.000  1.000  0.000  0.000  0.000
       0.000  0.000  1.000  0.000  0.000
       0.000  0.000  0.000  1.000  0.000
       0.000  0.000  0.000  0.000  1.000
     occupation matrix ns (before diag.):
       0.000  0.000  0.000  0.000  0.000
       0.000  0.000  0.000  0.000  0.000
       0.000  0.000  0.000  0.000  0.000
       0.000  0.000  0.000  0.000  0.000
       0.000  0.000  0.000  0.000  0.000
     ------------------------ ATOM   12 ------------------------
     Tr[ns( 12)] (up, down, total) =   0.00000  5.00000  5.00000
     Atomic magnetic moment for atom  12 =  -5.00000
     SPIN  1
     eigenvalues:
       0.000  0.000  0.000  0.000  0.000
     eigenvectors (columns):
       1.000  0.000  0.000  0.000  0.000
       0.000  1.000  0.000  0.000  0.000
       0.000  0.000  1.000  0.000  0.000
       0.000  0.000  0.000  1.000  0.000
       0.000  0.000  0.000  0.000  1.000
     occupation matrix ns (before diag.):
       0.000  0.000  0.000  0.000  0.000
       0.000  0.000  0.000  0.000  0.000
       0.000  0.000  0.000  0.000  0.000
       0.000  0.000  0.000  0.000  0.000
       0.000  0.000  0.000  0.000  0.000
     SPIN  2
     eigenvalues:
       1.000  1.000  1.000  1.000  1.000
     eigenvectors (columns):
       1.000  0.000  0.000  0.000  0.000
       0.000  1.000  0.000  0.000  0.000
       0.000  0.000  1.000  0.000  0.000
       0.000  0.000  0.000  1.000  0.000
       0.000  0.000  0.000  0.000  1.000
     occupation matrix ns (before diag.):
       1.000  0.000  0.000  0.000  0.000
       0.000  1.000  0.000  0.000  0.000
       0.000  0.000  1.000  0.000  0.000
       0.000  0.000  0.000  1.000  0.000
       0.000  0.000  0.000  0.000  1.000
     ------------------------ ATOM   13 ------------------------
     Tr[ns( 13)] (up, down, total) =   1.00000  5.00000  6.00000
     Atomic magnetic moment for atom  13 =  -4.00000
     SPIN  1
     eigenvalues:
       0.200  0.200  0.200  0.200  0.200
     eigenvectors (columns):
       1.000  0.000  0.000  0.000  0.000
       0.000  1.000  0.000  0.000  0.000
       0.000  0.000  1.000  0.000  0.000
       0.000  0.000  0.000  1.000  0.000
       0.000  0.000  0.000  0.000  1.000
     occupation matrix ns (before diag.):
       0.200  0.000  0.000  0.000  0.000
       0.000  0.200  0.000  0.000  0.000
       0.000  0.000  0.200  0.000  0.000
       0.000  0.000  0.000  0.200  0.000
       0.000  0.000  0.000  0.000  0.200
     SPIN  2
     eigenvalues:
       1.000  1.000  1.000  1.000  1.000
     eigenvectors (columns):
       1.000  0.000  0.000  0.000  0.000
       0.000  1.000  0.000  0.000  0.000
       0.000  0.000  1.000  0.000  0.000
       0.000  0.000  0.000  1.000  0.000
       0.000  0.000  0.000  0.000  1.000
     occupation matrix ns (before diag.):
       1.000  0.000  0.000  0.000  0.000
       0.000  1.000  0.000  0.000  0.000
       0.000  0.000  1.000  0.000  0.000
       0.000  0.000  0.000  1.000  0.000
       0.000  0.000  0.000  0.000  1.000
     ------------------------ ATOM   14 ------------------------
     Tr[ns( 14)] (up, down, total) =   5.00000  1.00000  6.00000
     Atomic magnetic moment for atom  14 =   4.00000
     SPIN  1
     eigenvalues:
       1.000  1.000  1.000  1.000  1.000
     eigenvectors (columns):
       1.000  0.000  0.000  0.000  0.000
       0.000  1.000  0.000  0.000  0.000
       0.000  0.000  1.000  0.000  0.000
       0.000  0.000  0.000  1.000  0.000
       0.000  0.000  0.000  0.000  1.000
     occupation matrix ns (before diag.):
       1.000  0.000  0.000  0.000  0.000
       0.000  1.000  0.000  0.000  0.000
       0.000  0.000  1.000  0.000  0.000
       0.000  0.000  0.000  1.000  0.000
       0.000  0.000  0.000  0.000  1.000
     SPIN  2
     eigenvalues:
       0.200  0.200  0.200  0.200  0.200
     eigenvectors (columns):
       1.000  0.000  0.000  0.000  0.000
       0.000  1.000  0.000  0.000  0.000
       0.000  0.000  1.000  0.000  0.000
       0.000  0.000  0.000  1.000  0.000
       0.000  0.000  0.000  0.000  1.000
     occupation matrix ns (before diag.):
       0.200  0.000  0.000  0.000  0.000
       0.000  0.200  0.000  0.000  0.000
       0.000  0.000  0.200  0.000  0.000
       0.000  0.000  0.000  0.200  0.000
       0.000  0.000  0.000  0.000  0.200
     ------------------------ ATOM   15 ------------------------
     Tr[ns( 15)] (up, down, total) =   1.00000  5.00000  6.00000
     Atomic magnetic moment for atom  15 =  -4.00000
     SPIN  1
     eigenvalues:
       0.200  0.200  0.200  0.200  0.200
     eigenvectors (columns):
       1.000  0.000  0.000  0.000  0.000
       0.000  1.000  0.000  0.000  0.000
       0.000  0.000  1.000  0.000  0.000
       0.000  0.000  0.000  1.000  0.000
       0.000  0.000  0.000  0.000  1.000
     occupation matrix ns (before diag.):
       0.200  0.000  0.000  0.000  0.000
       0.000  0.200  0.000  0.000  0.000
       0.000  0.000  0.200  0.000  0.000
       0.000  0.000  0.000  0.200  0.000
       0.000  0.000  0.000  0.000  0.200
     SPIN  2
     eigenvalues:
       1.000  1.000  1.000  1.000  1.000
     eigenvectors (columns):
       1.000  0.000  0.000  0.000  0.000
       0.000  1.000  0.000  0.000  0.000
       0.000  0.000  1.000  0.000  0.000
       0.000  0.000  0.000  1.000  0.000
       0.000  0.000  0.000  0.000  1.000
     occupation matrix ns (before diag.):
       1.000  0.000  0.000  0.000  0.000
       0.000  1.000  0.000  0.000  0.000
       0.000  0.000  1.000  0.000  0.000
       0.000  0.000  0.000  1.000  0.000
       0.000  0.000  0.000  0.000  1.000
     ------------------------ ATOM   16 ------------------------
     Tr[ns( 16)] (up, down, total) =   5.00000  1.00000  6.00000
     Atomic magnetic moment for atom  16 =   4.00000
     SPIN  1
     eigenvalues:
       1.000  1.000  1.000  1.000  1.000
     eigenvectors (columns):
       1.000  0.000  0.000  0.000  0.000
       0.000  1.000  0.000  0.000  0.000
       0.000  0.000  1.000  0.000  0.000
       0.000  0.000  0.000  1.000  0.000
       0.000  0.000  0.000  0.000  1.000
     occupation matrix ns (before diag.):
       1.000  0.000  0.000  0.000  0.000
       0.000  1.000  0.000  0.000  0.000
       0.000  0.000  1.000  0.000  0.000
       0.000  0.000  0.000  1.000  0.000
       0.000  0.000  0.000  0.000  1.000
     SPIN  2
     eigenvalues:
       0.200  0.200  0.200  0.200  0.200
     eigenvectors (columns):
       1.000  0.000  0.000  0.000  0.000
       0.000  1.000  0.000  0.000  0.000
       0.000  0.000  1.000  0.000  0.000
       0.000  0.000  0.000  1.000  0.000
       0.000  0.000  0.000  0.000  1.000
     occupation matrix ns (before diag.):
       0.200  0.000  0.000  0.000  0.000
       0.000  0.200  0.000  0.000  0.000
       0.000  0.000  0.200  0.000  0.000
       0.000  0.000  0.000  0.200  0.000
       0.000  0.000  0.000  0.000  0.200

     Number of occupied Hubbard levels =   44.0000

     Atomic wfc used for Hubbard projectors are orthogonalized

     Starting wfcs are  220 randomized atomic wfcs

     total cpu time spent up to now is       13.8 secs

     per-process dynamical memory:   628.5 Mb

     Self-consistent Calculation

     iteration #  1     ecut=    90.00 Ry     beta= 0.30
     Davidson diagonalization with overlap

---- Real-time Memory Report at c_bands before calling an iterative solver
           900 MiB given to the printing process from OS
           613 MiB allocation reported by mallinfo(arena+hblkhd)
        676608 MiB available memory on the node where the printing process lives
------------------
     ethr =  1.00E-02,  avg # of iterations =  4.2

     =================== HUBBARD OCCUPATIONS ===================
     ------------------------ ATOM    9 ------------------------
     Tr[ns(  9)] (up, down, total) =   4.96767  0.17786  5.14552
     Atomic magnetic moment for atom   9 =   4.78981
     SPIN  1
     eigenvalues:
       0.985  0.994  0.996  0.996  0.997
     eigenvectors (columns):
       1.000  0.000 -0.000  0.000 -0.000
       0.000 -0.000  0.563  0.826 -0.000
       0.000 -0.000  0.826 -0.563 -0.000
      -0.000 -0.155 -0.000  0.000 -0.988
      -0.000  0.988  0.000 -0.000 -0.155
     occupation matrix ns (before diag.):
       0.985 -0.000 -0.000  0.000  0.000
      -0.000  0.996 -0.000  0.000  0.000
      -0.000 -0.000  0.996  0.000  0.000
       0.000  0.000  0.000  0.997  0.000
       0.000  0.000  0.000  0.000  0.994
     SPIN  2
     eigenvalues:
       0.021  0.022  0.022  0.043  0.069
     eigenvectors (columns):
      -0.000 -0.000  0.000  1.000  0.000
      -0.000 -0.645 -0.764 -0.000  0.000
      -0.000 -0.764  0.645 -0.000  0.000
       0.976 -0.000  0.000  0.000 -0.219
       0.219 -0.000  0.000 -0.000  0.976
     occupation matrix ns (before diag.):
       0.043 -0.000 -0.000  0.000  0.000
      -0.000  0.022 -0.000  0.000  0.000
      -0.000 -0.000  0.022  0.000  0.000
       0.000  0.000  0.000  0.024 -0.010
       0.000  0.000  0.000 -0.010  0.067
     ------------------------ ATOM   10 ------------------------
     Tr[ns( 10)] (up, down, total) =   0.17782  4.96768  5.14550
     Atomic magnetic moment for atom  10 =  -4.78987
     SPIN  1
     eigenvalues:
       0.021  0.022  0.022  0.043  0.069
     eigenvectors (columns):
      -0.000 -0.000  0.000  1.000  0.000
      -0.000 -0.646 -0.764 -0.000  0.000
      -0.000 -0.764  0.646 -0.000  0.000
       0.976 -0.000  0.000  0.000 -0.219
       0.219 -0.000  0.000 -0.000  0.976
     occupation matrix ns (before diag.):
       0.043 -0.000 -0.000  0.000  0.000
      -0.000  0.022 -0.000  0.000  0.000
      -0.000 -0.000  0.022  0.000  0.000
       0.000  0.000  0.000  0.024 -0.010
       0.000  0.000  0.000 -0.010  0.067
     SPIN  2
     eigenvalues:
       0.985  0.994  0.996  0.996  0.997
     eigenvectors (columns):
       1.000  0.000 -0.000  0.000 -0.000
       0.000 -0.000  0.633  0.774 -0.000
       0.000 -0.000  0.774 -0.633 -0.000
      -0.000 -0.155 -0.000  0.000 -0.988
      -0.000  0.988  0.000 -0.000 -0.155
     occupation matrix ns (before diag.):
       0.985 -0.000 -0.000  0.000  0.000
      -0.000  0.996 -0.000  0.000  0.000
      -0.000 -0.000  0.996  0.000  0.000
       0.000  0.000  0.000  0.997  0.000
       0.000  0.000  0.000  0.000  0.994
     ------------------------ ATOM   11 ------------------------
     Tr[ns( 11)] (up, down, total) =   4.96767  0.17786  5.14552
     Atomic magnetic moment for atom  11 =   4.78981
     SPIN  1
     eigenvalues:
       0.985  0.994  0.996  0.996  0.997
     eigenvectors (columns):
       1.000  0.000 -0.000 -0.000 -0.000
       0.000 -0.000  0.628  0.779 -0.000
       0.000 -0.000  0.779 -0.628 -0.000
      -0.000 -0.155 -0.000  0.000 -0.988
      -0.000  0.988  0.000 -0.000 -0.155
     occupation matrix ns (before diag.):
       0.985 -0.000 -0.000  0.000  0.000
      -0.000  0.996 -0.000  0.000  0.000
      -0.000 -0.000  0.996  0.000  0.000
       0.000  0.000  0.000  0.997  0.000
       0.000  0.000  0.000  0.000  0.994
     SPIN  2
     eigenvalues:
       0.021  0.022  0.022  0.043  0.069
     eigenvectors (columns):
      -0.000 -0.000  0.000  1.000  0.000
      -0.000 -0.488 -0.873 -0.000  0.000
      -0.000 -0.873  0.488 -0.000  0.000
       0.976 -0.000 -0.000  0.000 -0.219
       0.219 -0.000 -0.000 -0.000  0.976
     occupation matrix ns (before diag.):
       0.043 -0.000 -0.000  0.000  0.000
      -0.000  0.022 -0.000  0.000  0.000
      -0.000 -0.000  0.022  0.000  0.000
       0.000  0.000  0.000  0.024 -0.010
       0.000  0.000  0.000 -0.010  0.067
     ------------------------ ATOM   12 ------------------------
     Tr[ns( 12)] (up, down, total) =   0.17782  4.96768  5.14550
     Atomic magnetic moment for atom  12 =  -4.78987
     SPIN  1
     eigenvalues:
       0.021  0.022  0.022  0.043  0.069
     eigenvectors (columns):
      -0.000 -0.000  0.000  1.000  0.000
      -0.000 -0.452 -0.892 -0.000  0.000
      -0.000 -0.892  0.452 -0.000  0.000
       0.976 -0.000 -0.000  0.000 -0.219
       0.219 -0.000 -0.000 -0.000  0.976
     occupation matrix ns (before diag.):
       0.043 -0.000 -0.000  0.000  0.000
      -0.000  0.022 -0.000  0.000  0.000
      -0.000 -0.000  0.022  0.000  0.000
       0.000  0.000  0.000  0.024 -0.010
       0.000  0.000  0.000 -0.010  0.067
     SPIN  2
     eigenvalues:
       0.985  0.994  0.996  0.996  0.997
     eigenvectors (columns):
       1.000  0.000 -0.000  0.000 -0.000
       0.000 -0.000  0.542  0.840 -0.000
       0.000 -0.000  0.840 -0.542 -0.000
      -0.000 -0.155 -0.000 -0.000 -0.988
      -0.000  0.988  0.000 -0.000 -0.155
     occupation matrix ns (before diag.):
       0.985 -0.000 -0.000  0.000  0.000
      -0.000  0.996 -0.000  0.000  0.000
      -0.000 -0.000  0.996  0.000  0.000
       0.000  0.000  0.000  0.997  0.000
       0.000  0.000  0.000  0.000  0.994
     ------------------------ ATOM   13 ------------------------
     Tr[ns( 13)] (up, down, total) =   0.30465  4.97428  5.27893
     Atomic magnetic moment for atom  13 =  -4.66964
     SPIN  1
     eigenvalues:
       0.035  0.043  0.043  0.075  0.109
     eigenvectors (columns):
      -0.000 -0.000 -0.000 -1.000  0.000
      -0.000 -0.481  0.876  0.000  0.000
      -0.000 -0.876 -0.481  0.000  0.000
       0.972 -0.000  0.000  0.000  0.236
      -0.236  0.000  0.000  0.000  0.972
     occupation matrix ns (before diag.):
       0.075 -0.000 -0.000  0.000  0.000
      -0.000  0.043 -0.000  0.000  0.000
      -0.000 -0.000  0.043  0.000  0.000
       0.000  0.000  0.000  0.040  0.017
       0.000  0.000  0.000  0.017  0.104
     SPIN  2
     eigenvalues:
       0.987  0.995  0.997  0.997  0.998
     eigenvectors (columns):
       1.000  0.000 -0.000 -0.000 -0.000
       0.000 -0.000  0.681 -0.733 -0.000
       0.000 -0.000  0.733  0.681 -0.000
      -0.000  0.154 -0.000  0.000 -0.988
      -0.000  0.988  0.000  0.000  0.154
     occupation matrix ns (before diag.):
       0.987 -0.000 -0.000  0.000  0.000
      -0.000  0.997 -0.000  0.000  0.000
      -0.000 -0.000  0.997  0.000  0.000
       0.000  0.000  0.000  0.998 -0.000
       0.000  0.000  0.000 -0.000  0.995
     ------------------------ ATOM   14 ------------------------
     Tr[ns( 14)] (up, down, total) =   4.97425  0.30465  5.27891
     Atomic magnetic moment for atom  14 =   4.66960
     SPIN  1
     eigenvalues:
       0.987  0.995  0.997  0.997  0.998
     eigenvectors (columns):
       1.000  0.000 -0.000  0.000 -0.000
       0.000 -0.000  0.609 -0.793 -0.000
       0.000 -0.000  0.793  0.609 -0.000
      -0.000  0.154 -0.000  0.000 -0.988
      -0.000  0.988  0.000  0.000  0.154
     occupation matrix ns (before diag.):
       0.987 -0.000 -0.000  0.000  0.000
      -0.000  0.997 -0.000  0.000  0.000
      -0.000 -0.000  0.997  0.000  0.000
       0.000  0.000  0.000  0.998 -0.000
       0.000  0.000  0.000 -0.000  0.995
     SPIN  2
     eigenvalues:
       0.035  0.043  0.043  0.075  0.109
     eigenvectors (columns):
      -0.000 -0.000 -0.000 -1.000  0.000
      -0.000 -0.538  0.843  0.000  0.000
      -0.000 -0.843 -0.538  0.000  0.000
       0.972 -0.000  0.000  0.000  0.236
      -0.236  0.000  0.000  0.000  0.972
     occupation matrix ns (before diag.):
       0.075 -0.000 -0.000  0.000  0.000
      -0.000  0.043 -0.000  0.000  0.000
      -0.000 -0.000  0.043  0.000  0.000
       0.000  0.000  0.000  0.040  0.017
       0.000  0.000  0.000  0.017  0.104
     ------------------------ ATOM   15 ------------------------
     Tr[ns( 15)] (up, down, total) =   0.30465  4.97428  5.27893
     Atomic magnetic moment for atom  15 =  -4.66964
     SPIN  1
     eigenvalues:
       0.035  0.043  0.043  0.075  0.109
     eigenvectors (columns):
      -0.000 -0.000 -0.000 -1.000  0.000
      -0.000 -0.555  0.832  0.000  0.000
      -0.000 -0.832 -0.555  0.000  0.000
       0.972 -0.000  0.000  0.000  0.236
      -0.236  0.000  0.000  0.000  0.972
     occupation matrix ns (before diag.):
       0.075 -0.000 -0.000  0.000  0.000
      -0.000  0.043 -0.000  0.000  0.000
      -0.000 -0.000  0.043  0.000  0.000
       0.000  0.000  0.000  0.040  0.017
       0.000  0.000  0.000  0.017  0.104
     SPIN  2
     eigenvalues:
       0.987  0.995  0.997  0.997  0.998
     eigenvectors (columns):
       1.000  0.000 -0.000  0.000 -0.000
       0.000 -0.000  0.562 -0.827 -0.000
       0.000 -0.000  0.827  0.562 -0.000
      -0.000  0.154 -0.000  0.000 -0.988
      -0.000  0.988  0.000  0.000  0.154
     occupation matrix ns (before diag.):
       0.987 -0.000 -0.000  0.000  0.000
      -0.000  0.997 -0.000  0.000  0.000
      -0.000 -0.000  0.997  0.000  0.000
       0.000  0.000  0.000  0.998 -0.000
       0.000  0.000  0.000 -0.000  0.995
     ------------------------ ATOM   16 ------------------------
     Tr[ns( 16)] (up, down, total) =   4.97425  0.30465  5.27891
     Atomic magnetic moment for atom  16 =   4.66960
     SPIN  1
     eigenvalues:
       0.987  0.995  0.997  0.997  0.998
     eigenvectors (columns):
       1.000  0.000 -0.000 -0.000 -0.000
       0.000 -0.000  0.678 -0.735 -0.000
       0.000 -0.000  0.735  0.678 -0.000
      -0.000  0.154 -0.000  0.000 -0.988
      -0.000  0.988  0.000  0.000  0.154
     occupation matrix ns (before diag.):
       0.987 -0.000 -0.000  0.000  0.000
      -0.000  0.997 -0.000  0.000  0.000
      -0.000 -0.000  0.997  0.000  0.000
       0.000  0.000  0.000  0.998 -0.000
       0.000  0.000  0.000 -0.000  0.995
     SPIN  2
     eigenvalues:
       0.035  0.043  0.043  0.075  0.109
     eigenvectors (columns):
      -0.000 -0.000 -0.000 -1.000  0.000
      -0.000 -0.674  0.738  0.000  0.000
      -0.000 -0.738 -0.674  0.000  0.000
       0.972 -0.000  0.000  0.000  0.236
      -0.236  0.000  0.000  0.000  0.972
     occupation matrix ns (before diag.):
       0.075 -0.000 -0.000  0.000  0.000
      -0.000  0.043 -0.000  0.000  0.000
      -0.000 -0.000  0.043  0.000  0.000
       0.000  0.000  0.000  0.040  0.017
       0.000  0.000  0.000  0.017  0.104

     Number of occupied Hubbard levels =   41.6977

     HUBBARD ENERGY =    0.4495  (Ry)

     total cpu time spent up to now is       41.9 secs

     total energy              =   -3089.05030494 Ry
     estimated scf accuracy    <      11.94353609 Ry

     total magnetization       =     0.00 Bohr mag/cell
     absolute magnetization    =    38.74 Bohr mag/cell

     iteration #  2     ecut=    90.00 Ry     beta= 0.30
     Davidson diagonalization with overlap

---- Real-time Memory Report at c_bands before calling an iterative solver
          1123 MiB given to the printing process from OS
           742 MiB allocation reported by mallinfo(arena+hblkhd)
        673596 MiB available memory on the node where the printing process lives
------------------
     ethr =  3.64E-03,  avg # of iterations =  1.0

     =================== HUBBARD OCCUPATIONS ===================
     ------------------------ ATOM    9 ------------------------
     Tr[ns(  9)] (up, down, total) =   4.96382  0.21647  5.18029
     Atomic magnetic moment for atom   9 =   4.74735
     SPIN  1
     eigenvalues:
       0.983  0.993  0.996  0.996  0.997
     eigenvectors (columns):
      -1.000  0.000 -0.000  0.000 -0.000
      -0.000 -0.000  0.569 -0.822 -0.000
      -0.000 -0.000  0.822  0.569 -0.000
       0.000 -0.184 -0.000 -0.000 -0.983
       0.000  0.983  0.000  0.000 -0.184
     occupation matrix ns (before diag.):
       0.983 -0.000 -0.000  0.000  0.000
      -0.000  0.996 -0.000  0.000  0.000
      -0.000 -0.000  0.996  0.000  0.000
       0.000  0.000  0.000  0.996  0.001
       0.000  0.000  0.000  0.001  0.993
     SPIN  2
     eigenvalues:
       0.027  0.029  0.029  0.050  0.082
     eigenvectors (columns):
      -0.000 -0.000  0.000  1.000  0.000
      -0.000 -0.597 -0.802 -0.000  0.000
      -0.000 -0.802  0.597 -0.000  0.000
       0.975 -0.000  0.000  0.000 -0.221
       0.221 -0.000 -0.000 -0.000  0.975
     occupation matrix ns (before diag.):
       0.050 -0.000 -0.000  0.000  0.000
      -0.000  0.029 -0.000  0.000  0.000
      -0.000 -0.000  0.029  0.000  0.000
       0.000  0.000  0.000  0.030 -0.012
       0.000  0.000  0.000 -0.012  0.079
     ------------------------ ATOM   10 ------------------------
     Tr[ns( 10)] (up, down, total) =   0.21619  4.96382  5.18001
     Atomic magnetic moment for atom  10 =  -4.74764
     SPIN  1
     eigenvalues:
       0.027  0.029  0.029  0.050  0.082
     eigenvectors (columns):
      -0.000 -0.000  0.000  1.000  0.000
      -0.000 -0.549 -0.836 -0.000  0.000
      -0.000 -0.836  0.549 -0.000  0.000
       0.975 -0.000 -0.000  0.000 -0.222
       0.222 -0.000 -0.000 -0.000  0.975
     occupation matrix ns (before diag.):
       0.050 -0.000 -0.000  0.000  0.000
      -0.000  0.029 -0.000  0.000  0.000
      -0.000 -0.000  0.029  0.000  0.000
       0.000  0.000  0.000  0.030 -0.012
       0.000  0.000  0.000 -0.012  0.079
     SPIN  2
     eigenvalues:
       0.983  0.993  0.996  0.996  0.997
     eigenvectors (columns):
      -1.000  0.000 -0.000  0.000 -0.000
      -0.000 -0.000  0.622 -0.783 -0.000
      -0.000 -0.000  0.783  0.622 -0.000
       0.000 -0.184 -0.000 -0.000 -0.983
       0.000  0.983  0.000  0.000 -0.184
     occupation matrix ns (before diag.):
       0.983 -0.000 -0.000  0.000  0.000
      -0.000  0.996 -0.000  0.000  0.000
      -0.000 -0.000  0.996  0.000  0.000
       0.000  0.000  0.000  0.996  0.001
       0.000  0.000  0.000  0.001  0.993
     ------------------------ ATOM   11 ------------------------
     Tr[ns( 11)] (up, down, total) =   4.96382  0.21647  5.18029
     Atomic magnetic moment for atom  11 =   4.74735
     SPIN  1
     eigenvalues:
       0.983  0.993  0.996  0.996  0.997
     eigenvectors (columns):
      -1.000  0.000 -0.000  0.000 -0.000
      -0.000 -0.000  0.524 -0.852 -0.000
      -0.000 -0.000  0.852  0.524 -0.000
       0.000 -0.184 -0.000  0.000 -0.983
       0.000  0.983  0.000  0.000 -0.184
     occupation matrix ns (before diag.):
       0.983 -0.000 -0.000  0.000  0.000
      -0.000  0.996 -0.000  0.000  0.000
      -0.000 -0.000  0.996  0.000  0.000
       0.000  0.000  0.000  0.996  0.001
       0.000  0.000  0.000  0.001  0.993
     SPIN  2
     eigenvalues:
       0.027  0.029  0.029  0.050  0.082
     eigenvectors (columns):
      -0.000 -0.000  0.000  1.000  0.000
      -0.000 -0.580 -0.815 -0.000  0.000
      -0.000 -0.815  0.580 -0.000  0.000
       0.975 -0.000  0.000  0.000 -0.221
       0.221 -0.000 -0.000 -0.000  0.975
     occupation matrix ns (before diag.):
       0.050 -0.000 -0.000  0.000  0.000
      -0.000  0.029 -0.000  0.000  0.000
      -0.000 -0.000  0.029  0.000  0.000
       0.000  0.000  0.000  0.030 -0.012
       0.000  0.000  0.000 -0.012  0.079
     ------------------------ ATOM   12 ------------------------
     Tr[ns( 12)] (up, down, total) =   0.21619  4.96382  5.18001
     Atomic magnetic moment for atom  12 =  -4.74764
     SPIN  1
     eigenvalues:
       0.027  0.029  0.029  0.050  0.082
     eigenvectors (columns):
      -0.000 -0.000  0.000  1.000  0.000
      -0.000 -0.661 -0.750 -0.000  0.000
      -0.000 -0.750  0.661 -0.000  0.000
       0.975 -0.000  0.000  0.000 -0.222
       0.222 -0.000  0.000 -0.000  0.975
     occupation matrix ns (before diag.):
       0.050 -0.000 -0.000  0.000  0.000
      -0.000  0.029 -0.000  0.000  0.000
      -0.000 -0.000  0.029  0.000  0.000
       0.000  0.000  0.000  0.030 -0.012
       0.000  0.000  0.000 -0.012  0.079
     SPIN  2
     eigenvalues:
       0.983  0.993  0.996  0.996  0.997
     eigenvectors (columns):
      -1.000  0.000 -0.000  0.000 -0.000
      -0.000 -0.000  0.664 -0.747 -0.000
      -0.000 -0.000  0.747  0.664 -0.000
       0.000 -0.184 -0.000 -0.000 -0.983
       0.000  0.983  0.000  0.000 -0.184
     occupation matrix ns (before diag.):
       0.983 -0.000 -0.000  0.000  0.000
      -0.000  0.996 -0.000  0.000  0.000
      -0.000 -0.000  0.996  0.000  0.000
       0.000  0.000  0.000  0.996  0.001
       0.000  0.000  0.000  0.001  0.993
     ------------------------ ATOM   13 ------------------------
     Tr[ns( 13)] (up, down, total) =   0.36298  4.97562  5.33859
     Atomic magnetic moment for atom  13 =  -4.61264
     SPIN  1
     eigenvalues:
       0.041  0.051  0.051  0.088  0.132
     eigenvectors (columns):
      -0.000 -0.000 -0.000 -1.000  0.000
      -0.000 -0.798  0.603  0.000  0.000
      -0.000 -0.603 -0.798  0.000  0.000
       0.972 -0.000 -0.000  0.000  0.237
      -0.237  0.000  0.000  0.000  0.972
     occupation matrix ns (before diag.):
       0.088 -0.000 -0.000  0.000  0.000
      -0.000  0.051 -0.000  0.000  0.000
      -0.000 -0.000  0.051  0.000  0.000
       0.000  0.000  0.000  0.046  0.021
       0.000  0.000  0.000  0.021  0.127
     SPIN  2
     eigenvalues:
       0.988  0.994  0.998  0.998  0.998
     eigenvectors (columns):
       1.000  0.000 -0.000  0.000 -0.000
       0.000 -0.000  0.565 -0.825 -0.000
       0.000 -0.000  0.825  0.565 -0.000
      -0.000  0.176 -0.000  0.000 -0.984
      -0.000  0.984  0.000  0.000  0.176
     occupation matrix ns (before diag.):
       0.988 -0.000 -0.000  0.000  0.000
      -0.000  0.998 -0.000  0.000  0.000
      -0.000 -0.000  0.998  0.000  0.000
       0.000  0.000  0.000  0.998 -0.001
       0.000  0.000  0.000 -0.001  0.994
     ------------------------ ATOM   14 ------------------------
     Tr[ns( 14)] (up, down, total) =   4.97560  0.36301  5.33861
     Atomic magnetic moment for atom  14 =   4.61259
     SPIN  1
     eigenvalues:
       0.988  0.994  0.998  0.998  0.998
     eigenvectors (columns):
       1.000  0.000 -0.000 -0.000 -0.000
       0.000 -0.000  0.578 -0.816 -0.000
       0.000 -0.000  0.816  0.578 -0.000
      -0.000  0.176 -0.000  0.000 -0.984
      -0.000  0.984  0.000  0.000  0.176
     occupation matrix ns (before diag.):
       0.988 -0.000 -0.000  0.000  0.000
      -0.000  0.998 -0.000  0.000  0.000
      -0.000 -0.000  0.998  0.000  0.000
       0.000  0.000  0.000  0.998 -0.001
       0.000  0.000  0.000 -0.001  0.994
     SPIN  2
     eigenvalues:
       0.041  0.051  0.051  0.088  0.132
     eigenvectors (columns):
      -0.000 -0.000 -0.000 -1.000  0.000
      -0.000 -0.694  0.720  0.000  0.000
      -0.000 -0.720 -0.694  0.000  0.000
       0.972 -0.000  0.000  0.000  0.237
      -0.237  0.000  0.000  0.000  0.972
     occupation matrix ns (before diag.):
       0.088 -0.000 -0.000  0.000  0.000
      -0.000  0.051 -0.000  0.000  0.000
      -0.000 -0.000  0.051  0.000  0.000
       0.000  0.000  0.000  0.046  0.021
       0.000  0.000  0.000  0.021  0.127
     ------------------------ ATOM   15 ------------------------
     Tr[ns( 15)] (up, down, total) =   0.36298  4.97562  5.33859
     Atomic magnetic moment for atom  15 =  -4.61264
     SPIN  1
     eigenvalues:
       0.041  0.051  0.051  0.088  0.132
     eigenvectors (columns):
      -0.000 -0.000 -0.000 -1.000  0.000
      -0.000 -0.495  0.869  0.000  0.000
      -0.000 -0.869 -0.495  0.000  0.000
       0.972 -0.000  0.000  0.000  0.237
      -0.237  0.000  0.000  0.000  0.972
     occupation matrix ns (before diag.):
       0.088 -0.000 -0.000  0.000  0.000
      -0.000  0.051 -0.000  0.000  0.000
      -0.000 -0.000  0.051  0.000  0.000
       0.000  0.000  0.000  0.046  0.021
       0.000  0.000  0.000  0.021  0.127
     SPIN  2
     eigenvalues:
       0.988  0.994  0.998  0.998  0.998
     eigenvectors (columns):
       1.000  0.000 -0.000  0.000 -0.000
       0.000 -0.000  0.561 -0.828 -0.000
       0.000 -0.000  0.828  0.561 -0.000
      -0.000  0.176 -0.000  0.000 -0.984
      -0.000  0.984  0.000  0.000  0.176
     occupation matrix ns (before diag.):
       0.988 -0.000 -0.000  0.000  0.000
      -0.000  0.998 -0.000  0.000  0.000
      -0.000 -0.000  0.998  0.000  0.000
       0.000  0.000  0.000  0.998 -0.001
       0.000  0.000  0.000 -0.001  0.994
     ------------------------ ATOM   16 ------------------------
     Tr[ns( 16)] (up, down, total) =   4.97560  0.36301  5.33861
     Atomic magnetic moment for atom  16 =   4.61259
     SPIN  1
     eigenvalues:
       0.988  0.994  0.998  0.998  0.998
     eigenvectors (columns):
       1.000  0.000 -0.000  0.000 -0.000
       0.000 -0.000  0.619 -0.785 -0.000
       0.000 -0.000  0.785  0.619 -0.000
      -0.000  0.176 -0.000  0.000 -0.984
      -0.000  0.984  0.000  0.000  0.176
     occupation matrix ns (before diag.):
       0.988 -0.000 -0.000  0.000  0.000
      -0.000  0.998 -0.000  0.000  0.000
      -0.000 -0.000  0.998  0.000  0.000
       0.000  0.000  0.000  0.998 -0.001
       0.000  0.000  0.000 -0.001  0.994
     SPIN  2
     eigenvalues:
       0.041  0.051  0.051  0.088  0.132
     eigenvectors (columns):
      -0.000 -0.000 -0.000 -1.000  0.000
      -0.000 -0.571  0.821  0.000  0.000
      -0.000 -0.821 -0.571  0.000  0.000
       0.972 -0.000  0.000  0.000  0.237
      -0.237  0.000  0.000  0.000  0.972
     occupation matrix ns (before diag.):
       0.088 -0.000 -0.000  0.000  0.000
      -0.000  0.051 -0.000  0.000  0.000
      -0.000 -0.000  0.051  0.000  0.000
       0.000  0.000  0.000  0.046  0.021
       0.000  0.000  0.000  0.021  0.127

     Number of occupied Hubbard levels =   42.0750

     HUBBARD ENERGY =    0.5088  (Ry)

     total cpu time spent up to now is       64.7 secs

     total energy              =   -3087.54886173 Ry
     estimated scf accuracy    <       5.03224628 Ry

     total magnetization       =     0.00 Bohr mag/cell
     absolute magnetization    =    38.57 Bohr mag/cell

     iteration #  3     ecut=    90.00 Ry     beta= 0.30
     Davidson diagonalization with overlap

---- Real-time Memory Report at c_bands before calling an iterative solver
          1238 MiB given to the printing process from OS
           754 MiB allocation reported by mallinfo(arena+hblkhd)
        673552 MiB available memory on the node where the printing process lives
------------------
     ethr =  1.53E-03,  avg # of iterations =  3.6

     =================== HUBBARD OCCUPATIONS ===================
     ------------------------ ATOM    9 ------------------------
     Tr[ns(  9)] (up, down, total) =   4.95152  0.27898  5.23050
     Atomic magnetic moment for atom   9 =   4.67254
     SPIN  1
     eigenvalues:
       0.979  0.985  0.995  0.995  0.996
     eigenvectors (columns):
      -1.000  0.000 -0.000 -0.000 -0.000
      -0.000 -0.000  0.643 -0.766 -0.000
      -0.000 -0.000  0.766  0.643 -0.000
      -0.000 -0.245 -0.000 -0.000 -0.970
       0.000  0.970 -0.000  0.000 -0.245
     occupation matrix ns (before diag.):
       0.979 -0.000 -0.000  0.000  0.000
      -0.000  0.995 -0.000  0.000  0.000
      -0.000 -0.000  0.995  0.000  0.000
       0.000  0.000  0.000  0.996  0.003
       0.000  0.000  0.000  0.003  0.986
     SPIN  2
     eigenvalues:
       0.037  0.040  0.040  0.062  0.100
     eigenvectors (columns):
      -0.000 -0.000  0.000  1.000  0.000
      -0.000 -0.552 -0.834 -0.000  0.000
      -0.000 -0.834  0.552 -0.000  0.000
       0.976 -0.000  0.000  0.000 -0.217
       0.217 -0.000 -0.000 -0.000  0.976
     occupation matrix ns (before diag.):
       0.062 -0.000 -0.000  0.000  0.000
      -0.000  0.040 -0.000  0.000  0.000
      -0.000 -0.000  0.040  0.000  0.000
       0.000  0.000  0.000  0.040 -0.013
       0.000  0.000  0.000 -0.013  0.097
     ------------------------ ATOM   10 ------------------------
     Tr[ns( 10)] (up, down, total) =   0.27842  4.95150  5.22992
     Atomic magnetic moment for atom  10 =  -4.67308
     SPIN  1
     eigenvalues:
       0.037  0.040  0.040  0.061  0.100
     eigenvectors (columns):
      -0.000 -0.000  0.000  1.000  0.000
      -0.000 -0.647 -0.762 -0.000  0.000
      -0.000 -0.762  0.647 -0.000  0.000
       0.976 -0.000  0.000  0.000 -0.218
       0.218 -0.000 -0.000 -0.000  0.976
     occupation matrix ns (before diag.):
       0.061 -0.000 -0.000  0.000  0.000
      -0.000  0.040 -0.000  0.000  0.000
      -0.000 -0.000  0.040  0.000  0.000
       0.000  0.000  0.000  0.040 -0.013
       0.000  0.000  0.000 -0.013  0.097
     SPIN  2
     eigenvalues:
       0.979  0.985  0.995  0.995  0.996
     eigenvectors (columns):
      -1.000  0.000 -0.000 -0.000 -0.000
      -0.000 -0.000  0.642 -0.767 -0.000
      -0.000 -0.000  0.767  0.642 -0.000
      -0.000 -0.245 -0.000 -0.000 -0.970
       0.000  0.970 -0.000  0.000 -0.245
     occupation matrix ns (before diag.):
       0.979 -0.000 -0.000  0.000  0.000
      -0.000  0.995 -0.000  0.000  0.000
      -0.000 -0.000  0.995  0.000  0.000
       0.000  0.000  0.000  0.996  0.003
       0.000  0.000  0.000  0.003  0.986
     ------------------------ ATOM   11 ------------------------
     Tr[ns( 11)] (up, down, total) =   4.95152  0.27898  5.23050
     Atomic magnetic moment for atom  11 =   4.67254
     SPIN  1
     eigenvalues:
       0.979  0.985  0.995  0.995  0.996
     eigenvectors (columns):
      -1.000  0.000 -0.000 -0.000 -0.000
      -0.000 -0.000  0.643 -0.766 -0.000
      -0.000 -0.000  0.766  0.643 -0.000
      -0.000 -0.245 -0.000 -0.000 -0.970
       0.000  0.970 -0.000  0.000 -0.245
     occupation matrix ns (before diag.):
       0.979 -0.000 -0.000  0.000  0.000
      -0.000  0.995 -0.000  0.000  0.000
      -0.000 -0.000  0.995  0.000  0.000
       0.000  0.000  0.000  0.996  0.003
       0.000  0.000  0.000  0.003  0.986
     SPIN  2
     eigenvalues:
       0.037  0.040  0.040  0.062  0.100
     eigenvectors (columns):
      -0.000 -0.000  0.000  1.000  0.000
      -0.000 -0.608 -0.794 -0.000  0.000
      -0.000 -0.794  0.608 -0.000  0.000
       0.976 -0.000  0.000  0.000 -0.217
       0.217 -0.000 -0.000 -0.000  0.976
     occupation matrix ns (before diag.):
       0.062 -0.000 -0.000  0.000  0.000
      -0.000  0.040 -0.000  0.000  0.000
      -0.000 -0.000  0.040  0.000  0.000
       0.000  0.000  0.000  0.040 -0.013
       0.000  0.000  0.000 -0.013  0.097
     ------------------------ ATOM   12 ------------------------
     Tr[ns( 12)] (up, down, total) =   0.27842  4.95150  5.22992
     Atomic magnetic moment for atom  12 =  -4.67308
     SPIN  1
     eigenvalues:
       0.037  0.040  0.040  0.061  0.100
     eigenvectors (columns):
      -0.000 -0.000  0.000  1.000  0.000
      -0.000 -0.564 -0.826 -0.000  0.000
      -0.000 -0.826  0.564 -0.000  0.000
       0.976 -0.000  0.000  0.000 -0.218
       0.218 -0.000 -0.000 -0.000  0.976
     occupation matrix ns (before diag.):
       0.061 -0.000 -0.000  0.000  0.000
      -0.000  0.040 -0.000  0.000  0.000
      -0.000 -0.000  0.040  0.000  0.000
       0.000  0.000  0.000  0.040 -0.013
       0.000  0.000  0.000 -0.013  0.097
     SPIN  2
     eigenvalues:
       0.979  0.985  0.995  0.995  0.996
     eigenvectors (columns):
      -1.000  0.000 -0.000 -0.000 -0.000
      -0.000 -0.000  0.557  0.830 -0.000
      -0.000 -0.000  0.830 -0.557 -0.000
      -0.000 -0.245 -0.000  0.000 -0.970
       0.000  0.970 -0.000 -0.000 -0.245
     occupation matrix ns (before diag.):
       0.979 -0.000 -0.000  0.000  0.000
      -0.000  0.995 -0.000  0.000  0.000
      -0.000 -0.000  0.995  0.000  0.000
       0.000  0.000  0.000  0.996  0.003
       0.000  0.000  0.000  0.003  0.986
     ------------------------ ATOM   13 ------------------------
     Tr[ns( 13)] (up, down, total) =   0.71841  4.97619  5.69460
     Atomic magnetic moment for atom  13 =  -4.25778
     SPIN  1
     eigenvalues:
       0.081  0.115  0.115  0.167  0.240
     eigenvectors (columns):
      -0.000 -0.000 -0.000 -1.000  0.000
      -0.000 -0.659  0.752  0.000  0.000
      -0.000 -0.752 -0.659  0.000  0.000
       0.970 -0.000  0.000  0.000  0.245
      -0.245  0.000  0.000  0.000  0.970
     occupation matrix ns (before diag.):
       0.167 -0.000 -0.000  0.000  0.000
      -0.000  0.115 -0.000  0.000  0.000
      -0.000 -0.000  0.115  0.000  0.000
       0.000  0.000  0.000  0.090  0.038
       0.000  0.000  0.000  0.038  0.231
     SPIN  2
     eigenvalues:
       0.990  0.993  0.997  0.997  0.998
     eigenvectors (columns):
       1.000  0.000 -0.000 -0.000 -0.000
       0.000 -0.000  0.661 -0.750 -0.000
       0.000 -0.000  0.750  0.661 -0.000
      -0.000  0.180 -0.000  0.000 -0.984
      -0.000  0.984  0.000  0.000  0.180
     occupation matrix ns (before diag.):
       0.990 -0.000 -0.000  0.000  0.000
      -0.000  0.997 -0.000  0.000  0.000
      -0.000 -0.000  0.997  0.000  0.000
       0.000  0.000  0.000  0.998 -0.001
       0.000  0.000  0.000 -0.001  0.993
     ------------------------ ATOM   14 ------------------------
     Tr[ns( 14)] (up, down, total) =   4.97618  0.71852  5.69470
     Atomic magnetic moment for atom  14 =   4.25766
     SPIN  1
     eigenvalues:
       0.990  0.993  0.997  0.997  0.998
     eigenvectors (columns):
       1.000  0.000 -0.000 -0.000 -0.000
       0.000 -0.000  0.570 -0.822 -0.000
       0.000 -0.000  0.822  0.570 -0.000
      -0.000  0.180 -0.000  0.000 -0.984
      -0.000  0.984  0.000  0.000  0.180
     occupation matrix ns (before diag.):
       0.990 -0.000 -0.000  0.000  0.000
      -0.000  0.997 -0.000  0.000  0.000
      -0.000 -0.000  0.997  0.000  0.000
       0.000  0.000  0.000  0.998 -0.001
       0.000  0.000  0.000 -0.001  0.993
     SPIN  2
     eigenvalues:
       0.081  0.115  0.115  0.168  0.240
     eigenvectors (columns):
      -0.000 -0.000 -0.000 -1.000  0.000
      -0.000 -0.506  0.862  0.000  0.000
      -0.000 -0.862 -0.506  0.000  0.000
       0.970 -0.000  0.000  0.000  0.245
      -0.245  0.000  0.000  0.000  0.970
     occupation matrix ns (before diag.):
       0.168 -0.000 -0.000  0.000  0.000
      -0.000  0.115 -0.000  0.000  0.000
      -0.000 -0.000  0.115  0.000  0.000
       0.000  0.000  0.000  0.090  0.038
       0.000  0.000  0.000  0.038  0.231
     ------------------------ ATOM   15 ------------------------
     Tr[ns( 15)] (up, down, total) =   0.71841  4.97619  5.69460
     Atomic magnetic moment for atom  15 =  -4.25778
     SPIN  1
     eigenvalues:
       0.081  0.115  0.115  0.167  0.240
     eigenvectors (columns):
      -0.000 -0.000 -0.000 -1.000  0.000
      -0.000 -0.532  0.846  0.000  0.000
      -0.000 -0.846 -0.532  0.000  0.000
       0.970 -0.000  0.000  0.000  0.245
      -0.245  0.000  0.000  0.000  0.970
     occupation matrix ns (before diag.):
       0.167 -0.000 -0.000  0.000  0.000
      -0.000  0.115 -0.000  0.000  0.000
      -0.000 -0.000  0.115  0.000  0.000
       0.000  0.000  0.000  0.090  0.038
       0.000  0.000  0.000  0.038  0.231
     SPIN  2
     eigenvalues:
       0.990  0.993  0.997  0.997  0.998
     eigenvectors (columns):
       1.000  0.000 -0.000  0.000 -0.000
       0.000 -0.000  0.623 -0.782 -0.000
       0.000 -0.000  0.782  0.623 -0.000
      -0.000  0.180 -0.000  0.000 -0.984
      -0.000  0.984  0.000  0.000  0.180
     occupation matrix ns (before diag.):
       0.990 -0.000 -0.000  0.000  0.000
      -0.000  0.997 -0.000  0.000  0.000
      -0.000 -0.000  0.997  0.000  0.000
       0.000  0.000  0.000  0.998 -0.001
       0.000  0.000  0.000 -0.001  0.993
     ------------------------ ATOM   16 ------------------------
     Tr[ns( 16)] (up, down, total) =   4.97618  0.71852  5.69470
     Atomic magnetic moment for atom  16 =   4.25766
     SPIN  1
     eigenvalues:
       0.990  0.993  0.997  0.997  0.998
     eigenvectors (columns):
       1.000  0.000 -0.000 -0.000 -0.000
       0.000 -0.000  0.531  0.847 -0.000
       0.000 -0.000  0.847 -0.531 -0.000
      -0.000  0.180 -0.000 -0.000 -0.984
      -0.000  0.984  0.000  0.000  0.180
     occupation matrix ns (before diag.):
       0.990 -0.000 -0.000  0.000  0.000
      -0.000  0.997 -0.000  0.000  0.000
      -0.000 -0.000  0.997  0.000  0.000
       0.000  0.000  0.000  0.998 -0.001
       0.000  0.000  0.000 -0.001  0.993
     SPIN  2
     eigenvalues:
       0.081  0.115  0.115  0.168  0.240
     eigenvectors (columns):
      -0.000 -0.000 -0.000 -1.000  0.000
      -0.000 -0.542  0.840  0.000  0.000
      -0.000 -0.840 -0.542  0.000  0.000
       0.970 -0.000  0.000  0.000  0.245
      -0.245  0.000  0.000  0.000  0.970
     occupation matrix ns (before diag.):
       0.168 -0.000 -0.000  0.000  0.000
      -0.000  0.115 -0.000  0.000  0.000
      -0.000 -0.000  0.115  0.000  0.000
       0.000  0.000  0.000  0.090  0.038
       0.000  0.000  0.000  0.038  0.231

     Number of occupied Hubbard levels =   43.6994

     HUBBARD ENERGY =    0.6729  (Ry)

     total cpu time spent up to now is       93.1 secs

     total energy              =   -3088.47496823 Ry
     estimated scf accuracy    <       0.32694580 Ry

     total magnetization       =     0.00 Bohr mag/cell
     absolute magnetization    =    38.09 Bohr mag/cell

     iteration #  4     ecut=    90.00 Ry     beta= 0.30
     Davidson diagonalization with overlap

---- Real-time Memory Report at c_bands before calling an iterative solver
          1250 MiB given to the printing process from OS
           766 MiB allocation reported by mallinfo(arena+hblkhd)
        673449 MiB available memory on the node where the printing process lives
------------------
     ethr =  9.97E-05,  avg # of iterations = 10.7

     =================== HUBBARD OCCUPATIONS ===================
     ------------------------ ATOM    9 ------------------------
     Tr[ns(  9)] (up, down, total) =   4.94901  0.26922  5.21823
     Atomic magnetic moment for atom   9 =   4.67979
     SPIN  1
     eigenvalues:
       0.978  0.984  0.995  0.995  0.996
     eigenvectors (columns):
      -1.000  0.000 -0.000 -0.000 -0.000
      -0.000 -0.000  0.482  0.876 -0.000
      -0.000 -0.000  0.876 -0.482 -0.000
      -0.000 -0.252 -0.000 -0.000 -0.968
       0.000  0.968 -0.000 -0.000 -0.252
     occupation matrix ns (before diag.):
       0.978 -0.000 -0.000  0.000  0.000
      -0.000  0.995 -0.000  0.000  0.000
      -0.000 -0.000  0.995  0.000  0.000
       0.000  0.000  0.000  0.996  0.003
       0.000  0.000  0.000  0.003  0.985
     SPIN  2
     eigenvalues:
       0.034  0.037  0.037  0.060  0.101
     eigenvectors (columns):
      -0.000 -0.000  0.000  1.000  0.000
      -0.000 -0.608 -0.794 -0.000  0.000
      -0.000 -0.794  0.608 -0.000  0.000
       0.977 -0.000  0.000  0.000 -0.212
       0.212 -0.000 -0.000 -0.000  0.977
     occupation matrix ns (before diag.):
       0.060 -0.000 -0.000  0.000  0.000
      -0.000  0.037 -0.000  0.000  0.000
      -0.000 -0.000  0.037  0.000  0.000
       0.000  0.000  0.000  0.037 -0.014
       0.000  0.000  0.000 -0.014  0.098
     ------------------------ ATOM   10 ------------------------
     Tr[ns( 10)] (up, down, total) =   0.26922  4.94903  5.21825
     Atomic magnetic moment for atom  10 =  -4.67981
     SPIN  1
     eigenvalues:
       0.034  0.037  0.037  0.060  0.101
     eigenvectors (columns):
      -0.000 -0.000  0.000  1.000  0.000
      -0.000 -0.566 -0.824 -0.000  0.000
      -0.000 -0.824  0.566 -0.000  0.000
       0.977 -0.000  0.000  0.000 -0.212
       0.212 -0.000 -0.000 -0.000  0.977
     occupation matrix ns (before diag.):
       0.060 -0.000 -0.000  0.000  0.000
      -0.000  0.037 -0.000  0.000  0.000
      -0.000 -0.000  0.037  0.000  0.000
       0.000  0.000  0.000  0.037 -0.014
       0.000  0.000  0.000 -0.014  0.098
     SPIN  2
     eigenvalues:
       0.978  0.984  0.995  0.995  0.996
     eigenvectors (columns):
      -1.000  0.000 -0.000 -0.000 -0.000
      -0.000 -0.000  0.482  0.876 -0.000
      -0.000 -0.000  0.876 -0.482 -0.000
      -0.000 -0.252 -0.000 -0.000 -0.968
       0.000  0.968 -0.000 -0.000 -0.252
     occupation matrix ns (before diag.):
       0.978 -0.000 -0.000  0.000  0.000
      -0.000  0.995 -0.000  0.000  0.000
      -0.000 -0.000  0.995  0.000  0.000
       0.000  0.000  0.000  0.996  0.003
       0.000  0.000  0.000  0.003  0.985
     ------------------------ ATOM   11 ------------------------
     Tr[ns( 11)] (up, down, total) =   4.94901  0.26922  5.21823
     Atomic magnetic moment for atom  11 =   4.67979
     SPIN  1
     eigenvalues:
       0.978  0.984  0.995  0.995  0.996
     eigenvectors (columns):
      -1.000  0.000 -0.000 -0.000 -0.000
      -0.000 -0.000  0.528  0.849 -0.000
      -0.000 -0.000  0.849 -0.528 -0.000
      -0.000 -0.252 -0.000 -0.000 -0.968
       0.000  0.968 -0.000 -0.000 -0.252
     occupation matrix ns (before diag.):
       0.978 -0.000 -0.000  0.000  0.000
      -0.000  0.995 -0.000  0.000  0.000
      -0.000 -0.000  0.995  0.000  0.000
       0.000  0.000  0.000  0.996  0.003
       0.000  0.000  0.000  0.003  0.985
     SPIN  2
     eigenvalues:
       0.034  0.037  0.037  0.060  0.101
     eigenvectors (columns):
      -0.000 -0.000  0.000  1.000  0.000
      -0.000 -0.683 -0.730 -0.000  0.000
      -0.000 -0.730  0.683 -0.000  0.000
       0.977 -0.000  0.000  0.000 -0.212
       0.212 -0.000 -0.000 -0.000  0.977
     occupation matrix ns (before diag.):
       0.060 -0.000 -0.000  0.000  0.000
      -0.000  0.037 -0.000  0.000  0.000
      -0.000 -0.000  0.037  0.000  0.000
       0.000  0.000  0.000  0.037 -0.014
       0.000  0.000  0.000 -0.014  0.098
     ------------------------ ATOM   12 ------------------------
     Tr[ns( 12)] (up, down, total) =   0.26922  4.94903  5.21825
     Atomic magnetic moment for atom  12 =  -4.67981
     SPIN  1
     eigenvalues:
       0.034  0.037  0.037  0.060  0.101
     eigenvectors (columns):
      -0.000 -0.000  0.000  1.000  0.000
      -0.000 -0.447 -0.895 -0.000  0.000
      -0.000 -0.895  0.447 -0.000  0.000
       0.977 -0.000 -0.000  0.000 -0.212
       0.212 -0.000 -0.000 -0.000  0.977
     occupation matrix ns (before diag.):
       0.060 -0.000 -0.000  0.000  0.000
      -0.000  0.037 -0.000  0.000  0.000
      -0.000 -0.000  0.037  0.000  0.000
       0.000  0.000  0.000  0.037 -0.014
       0.000  0.000  0.000 -0.014  0.098
     SPIN  2
     eigenvalues:
       0.978  0.984  0.995  0.995  0.996
     eigenvectors (columns):
      -1.000  0.000 -0.000 -0.000 -0.000
      -0.000 -0.000  0.540  0.842 -0.000
      -0.000 -0.000  0.842 -0.540 -0.000
      -0.000 -0.252 -0.000 -0.000 -0.968
       0.000  0.968 -0.000 -0.000 -0.252
     occupation matrix ns (before diag.):
       0.978 -0.000 -0.000  0.000  0.000
      -0.000  0.995 -0.000  0.000  0.000
      -0.000 -0.000  0.995  0.000  0.000
       0.000  0.000  0.000  0.996  0.003
       0.000  0.000  0.000  0.003  0.985
     ------------------------ ATOM   13 ------------------------
     Tr[ns( 13)] (up, down, total) =   0.72760  4.97627  5.70387
     Atomic magnetic moment for atom  13 =  -4.24868
     SPIN  1
     eigenvalues:
       0.078  0.115  0.115  0.170  0.250
     eigenvectors (columns):
      -0.000 -0.000 -0.000 -1.000  0.000
      -0.000 -0.535  0.845  0.000  0.000
      -0.000 -0.845 -0.535  0.000  0.000
       0.970 -0.000  0.000  0.000  0.245
      -0.245  0.000  0.000  0.000  0.970
     occupation matrix ns (before diag.):
       0.170 -0.000 -0.000  0.000  0.000
      -0.000  0.115 -0.000  0.000  0.000
      -0.000 -0.000  0.115  0.000  0.000
       0.000  0.000  0.000  0.089  0.041
       0.000  0.000  0.000  0.041  0.240
     SPIN  2
     eigenvalues:
       0.990  0.993  0.997  0.997  0.998
     eigenvectors (columns):
       1.000  0.000 -0.000 -0.000 -0.000
       0.000 -0.000  0.591 -0.807 -0.000
       0.000 -0.000  0.807  0.591 -0.000
      -0.000  0.181 -0.000  0.000 -0.983
      -0.000  0.983  0.000  0.000  0.181
     occupation matrix ns (before diag.):
       0.990 -0.000 -0.000  0.000  0.000
      -0.000  0.997 -0.000  0.000  0.000
      -0.000 -0.000  0.997  0.000  0.000
       0.000  0.000  0.000  0.998 -0.001
       0.000  0.000  0.000 -0.001  0.993
     ------------------------ ATOM   14 ------------------------
     Tr[ns( 14)] (up, down, total) =   4.97627  0.72765  5.70392
     Atomic magnetic moment for atom  14 =   4.24862
     SPIN  1
     eigenvalues:
       0.990  0.993  0.997  0.997  0.998
     eigenvectors (columns):
       1.000  0.000 -0.000  0.000 -0.000
       0.000 -0.000  0.495 -0.869 -0.000
       0.000 -0.000  0.869  0.495 -0.000
      -0.000  0.181 -0.000  0.000 -0.983
      -0.000  0.983  0.000 -0.000  0.181
     occupation matrix ns (before diag.):
       0.990 -0.000 -0.000  0.000  0.000
      -0.000  0.997 -0.000  0.000  0.000
      -0.000 -0.000  0.997  0.000  0.000
       0.000  0.000  0.000  0.998 -0.001
       0.000  0.000  0.000 -0.001  0.993
     SPIN  2
     eigenvalues:
       0.078  0.115  0.115  0.170  0.250
     eigenvectors (columns):
      -0.000 -0.000 -0.000 -1.000  0.000
      -0.000 -0.665  0.747  0.000  0.000
      -0.000 -0.747 -0.665  0.000  0.000
       0.970 -0.000  0.000  0.000  0.245
      -0.245  0.000  0.000  0.000  0.970
     occupation matrix ns (before diag.):
       0.170 -0.000 -0.000  0.000  0.000
      -0.000  0.115 -0.000  0.000  0.000
      -0.000 -0.000  0.115  0.000  0.000
       0.000  0.000  0.000  0.089  0.041
       0.000  0.000  0.000  0.041  0.240
     ------------------------ ATOM   15 ------------------------
     Tr[ns( 15)] (up, down, total) =   0.72760  4.97627  5.70387
     Atomic magnetic moment for atom  15 =  -4.24868
     SPIN  1
     eigenvalues:
       0.078  0.115  0.115  0.170  0.250
     eigenvectors (columns):
      -0.000 -0.000 -0.000 -1.000  0.000
      -0.000 -0.705  0.709  0.000  0.000
      -0.000 -0.709 -0.705  0.000  0.000
       0.970 -0.000  0.000  0.000  0.245
      -0.245  0.000  0.000  0.000  0.970
     occupation matrix ns (before diag.):
       0.170 -0.000 -0.000  0.000  0.000
      -0.000  0.115 -0.000  0.000  0.000
      -0.000 -0.000  0.115  0.000  0.000
       0.000  0.000  0.000  0.089  0.041
       0.000  0.000  0.000  0.041  0.240
     SPIN  2
     eigenvalues:
       0.990  0.993  0.997  0.997  0.998
     eigenvectors (columns):
       1.000  0.000 -0.000  0.000 -0.000
       0.000 -0.000  0.607 -0.794 -0.000
       0.000 -0.000  0.794  0.607 -0.000
      -0.000  0.181 -0.000  0.000 -0.983
      -0.000  0.983  0.000  0.000  0.181
     occupation matrix ns (before diag.):
       0.990 -0.000 -0.000  0.000  0.000
      -0.000  0.997 -0.000  0.000  0.000
      -0.000 -0.000  0.997  0.000  0.000
       0.000  0.000  0.000  0.998 -0.001
       0.000  0.000  0.000 -0.001  0.993
     ------------------------ ATOM   16 ------------------------
     Tr[ns( 16)] (up, down, total) =   4.97627  0.72765  5.70392
     Atomic magnetic moment for atom  16 =   4.24862
     SPIN  1
     eigenvalues:
       0.990  0.993  0.997  0.997  0.998
     eigenvectors (columns):
       1.000  0.000 -0.000  0.000 -0.000
       0.000 -0.000  0.507 -0.862 -0.000
       0.000 -0.000  0.862  0.507 -0.000
      -0.000  0.181 -0.000  0.000 -0.983
      -0.000  0.983  0.000 -0.000  0.181
     occupation matrix ns (before diag.):
       0.990 -0.000 -0.000  0.000  0.000
      -0.000  0.997 -0.000  0.000  0.000
      -0.000 -0.000  0.997  0.000  0.000
       0.000  0.000  0.000  0.998 -0.001
       0.000  0.000  0.000 -0.001  0.993
     SPIN  2
     eigenvalues:
       0.078  0.115  0.115  0.170  0.250
     eigenvectors (columns):
      -0.000 -0.000 -0.000 -1.000  0.000
      -0.000 -0.501  0.865  0.000  0.000
      -0.000 -0.865 -0.501  0.000  0.000
       0.970 -0.000  0.000  0.000  0.245
      -0.245  0.000  0.000  0.000  0.970
     occupation matrix ns (before diag.):
       0.170 -0.000 -0.000  0.000  0.000
      -0.000  0.115 -0.000  0.000  0.000
      -0.000 -0.000  0.115  0.000  0.000
       0.000  0.000  0.000  0.089  0.041
       0.000  0.000  0.000  0.041  0.240

     Number of occupied Hubbard levels =   43.6885

     HUBBARD ENERGY =    0.8819  (Ry)

     total cpu time spent up to now is      128.2 secs

     total energy              =   -3088.49016037 Ry
     estimated scf accuracy    <       0.12396368 Ry

     total magnetization       =    -0.00 Bohr mag/cell
     absolute magnetization    =    38.15 Bohr mag/cell

     iteration #  5     ecut=    90.00 Ry     beta= 0.30
     Davidson diagonalization with overlap

---- Real-time Memory Report at c_bands before calling an iterative solver
          1264 MiB given to the printing process from OS
           778 MiB allocation reported by mallinfo(arena+hblkhd)
        673450 MiB available memory on the node where the printing process lives
------------------
     ethr =  3.78E-05,  avg # of iterations =  2.4

     =================== HUBBARD OCCUPATIONS ===================
     ------------------------ ATOM    9 ------------------------
     Tr[ns(  9)] (up, down, total) =   4.94174  0.26434  5.20608
     Atomic magnetic moment for atom   9 =   4.67740
     SPIN  1
     eigenvalues:
       0.976  0.979  0.995  0.995  0.996
     eigenvectors (columns):
      -1.000  0.000 -0.000 -0.000 -0.000
      -0.000 -0.000  0.616 -0.788 -0.000
      -0.000 -0.000  0.788  0.616 -0.000
      -0.000 -0.267 -0.000 -0.000 -0.964
       0.000  0.964 -0.000  0.000 -0.267
     occupation matrix ns (before diag.):
       0.976 -0.000 -0.000  0.000  0.000
      -0.000  0.995 -0.000  0.000  0.000
      -0.000 -0.000  0.995  0.000  0.000
       0.000  0.000  0.000  0.995  0.004
       0.000  0.000  0.000  0.004  0.981
     SPIN  2
     eigenvalues:
       0.033  0.036  0.036  0.059  0.101
     eigenvectors (columns):
      -0.000 -0.000  0.000  1.000  0.000
      -0.000 -0.494 -0.869 -0.000  0.000
      -0.000 -0.869  0.494 -0.000  0.000
       0.978 -0.000 -0.000  0.000 -0.211
       0.211 -0.000 -0.000 -0.000  0.978
     occupation matrix ns (before diag.):
       0.059 -0.000 -0.000  0.000  0.000
      -0.000  0.036 -0.000  0.000  0.000
      -0.000 -0.000  0.036  0.000  0.000
       0.000  0.000  0.000  0.036 -0.014
       0.000  0.000  0.000 -0.014  0.098
     ------------------------ ATOM   10 ------------------------
     Tr[ns( 10)] (up, down, total) =   0.26421  4.94176  5.20597
     Atomic magnetic moment for atom  10 =  -4.67755
     SPIN  1
     eigenvalues:
       0.033  0.036  0.036  0.058  0.101
     eigenvectors (columns):
      -0.000 -0.000  0.000  1.000  0.000
      -0.000 -0.626 -0.780 -0.000  0.000
      -0.000 -0.780  0.626 -0.000  0.000
       0.978 -0.000  0.000  0.000 -0.210
       0.210 -0.000 -0.000 -0.000  0.978
     occupation matrix ns (before diag.):
       0.058 -0.000 -0.000  0.000  0.000
      -0.000  0.036 -0.000  0.000  0.000
      -0.000 -0.000  0.036  0.000  0.000
       0.000  0.000  0.000  0.036 -0.014
       0.000  0.000  0.000 -0.014  0.098
     SPIN  2
     eigenvalues:
       0.976  0.979  0.995  0.995  0.996
     eigenvectors (columns):
      -1.000  0.000 -0.000 -0.000 -0.000
      -0.000 -0.000  0.616 -0.788 -0.000
      -0.000 -0.000  0.788  0.616 -0.000
      -0.000 -0.267 -0.000 -0.000 -0.964
       0.000  0.964 -0.000  0.000 -0.267
     occupation matrix ns (before diag.):
       0.976 -0.000 -0.000  0.000  0.000
      -0.000  0.995 -0.000  0.000  0.000
      -0.000 -0.000  0.995  0.000  0.000
       0.000  0.000  0.000  0.995  0.004
       0.000  0.000  0.000  0.004  0.981
     ------------------------ ATOM   11 ------------------------
     Tr[ns( 11)] (up, down, total) =   4.94174  0.26434  5.20608
     Atomic magnetic moment for atom  11 =   4.67740
     SPIN  1
     eigenvalues:
       0.976  0.979  0.995  0.995  0.996
     eigenvectors (columns):
      -1.000  0.000 -0.000  0.000 -0.000
      -0.000 -0.000  0.616 -0.788 -0.000
      -0.000 -0.000  0.788  0.616 -0.000
      -0.000 -0.267 -0.000 -0.000 -0.964
       0.000  0.964 -0.000  0.000 -0.267
     occupation matrix ns (before diag.):
       0.976 -0.000 -0.000  0.000  0.000
      -0.000  0.995 -0.000  0.000  0.000
      -0.000 -0.000  0.995  0.000  0.000
       0.000  0.000  0.000  0.995  0.004
       0.000  0.000  0.000  0.004  0.981
     SPIN  2
     eigenvalues:
       0.033  0.036  0.036  0.059  0.101
     eigenvectors (columns):
      -0.000 -0.000  0.000  1.000  0.000
      -0.000 -0.588 -0.809 -0.000  0.000
      -0.000 -0.809  0.588 -0.000  0.000
       0.978 -0.000  0.000  0.000 -0.211
       0.211 -0.000 -0.000 -0.000  0.978
     occupation matrix ns (before diag.):
       0.059 -0.000 -0.000  0.000  0.000
      -0.000  0.036 -0.000  0.000  0.000
      -0.000 -0.000  0.036  0.000  0.000
       0.000  0.000  0.000  0.036 -0.014
       0.000  0.000  0.000 -0.014  0.098
     ------------------------ ATOM   12 ------------------------
     Tr[ns( 12)] (up, down, total) =   0.26421  4.94176  5.20597
     Atomic magnetic moment for atom  12 =  -4.67755
     SPIN  1
     eigenvalues:
       0.033  0.036  0.036  0.058  0.101
     eigenvectors (columns):
      -0.000 -0.000 -0.000  1.000  0.000
      -0.000 -0.406 -0.914 -0.000  0.000
      -0.000 -0.914  0.406 -0.000  0.000
       0.978 -0.000 -0.000  0.000 -0.210
       0.210 -0.000 -0.000 -0.000  0.978
     occupation matrix ns (before diag.):
       0.058 -0.000 -0.000  0.000  0.000
      -0.000  0.036 -0.000  0.000  0.000
      -0.000 -0.000  0.036  0.000  0.000
       0.000  0.000  0.000  0.036 -0.014
       0.000  0.000  0.000 -0.014  0.098
     SPIN  2
     eigenvalues:
       0.976  0.979  0.995  0.995  0.996
     eigenvectors (columns):
       1.000  0.000 -0.000 -0.000 -0.000
       0.000 -0.000  0.513  0.858 -0.000
       0.000 -0.000  0.858 -0.513 -0.000
       0.000 -0.267 -0.000 -0.000 -0.964
      -0.000  0.964 -0.000 -0.000 -0.267
     occupation matrix ns (before diag.):
       0.976 -0.000 -0.000  0.000  0.000
      -0.000  0.995 -0.000  0.000  0.000
      -0.000 -0.000  0.995  0.000  0.000
       0.000  0.000  0.000  0.995  0.004
       0.000  0.000  0.000  0.004  0.981
     ------------------------ ATOM   13 ------------------------
     Tr[ns( 13)] (up, down, total) =   0.85334  4.97604  5.82938
     Atomic magnetic moment for atom  13 =  -4.12269
     SPIN  1
     eigenvalues:
       0.085  0.136  0.136  0.200  0.297
     eigenvectors (columns):
      -0.000 -0.000 -0.000 -1.000  0.000
      -0.000 -0.624  0.782  0.000  0.000
      -0.000 -0.782 -0.624  0.000  0.000
       0.969 -0.000  0.000  0.000  0.248
      -0.248  0.000  0.000  0.000  0.969
     occupation matrix ns (before diag.):
       0.200 -0.000 -0.000  0.000  0.000
      -0.000  0.136 -0.000  0.000  0.000
      -0.000 -0.000  0.136  0.000  0.000
       0.000  0.000  0.000  0.098  0.051
       0.000  0.000  0.000  0.051  0.284
     SPIN  2
     eigenvalues:
       0.990  0.993  0.997  0.997  0.998
     eigenvectors (columns):
       1.000  0.000 -0.000 -0.000 -0.000
       0.000 -0.000  0.551  0.834 -0.000
       0.000 -0.000  0.834 -0.551 -0.000
      -0.000  0.179 -0.000 -0.000 -0.984
      -0.000  0.984  0.000  0.000  0.179
     occupation matrix ns (before diag.):
       0.990 -0.000 -0.000  0.000  0.000
      -0.000  0.997 -0.000  0.000  0.000
      -0.000 -0.000  0.997  0.000  0.000
       0.000  0.000  0.000  0.998 -0.001
       0.000  0.000  0.000 -0.001  0.993
     ------------------------ ATOM   14 ------------------------
     Tr[ns( 14)] (up, down, total) =   4.97603  0.85332  5.82936
     Atomic magnetic moment for atom  14 =   4.12271
     SPIN  1
     eigenvalues:
       0.990  0.993  0.997  0.997  0.998
     eigenvectors (columns):
       1.000  0.000 -0.000  0.000 -0.000
       0.000 -0.000  0.675 -0.738 -0.000
       0.000 -0.000  0.738  0.675 -0.000
      -0.000  0.179 -0.000  0.000 -0.984
      -0.000  0.984  0.000  0.000  0.179
     occupation matrix ns (before diag.):
       0.990 -0.000 -0.000  0.000  0.000
      -0.000  0.997 -0.000  0.000  0.000
      -0.000 -0.000  0.997  0.000  0.000
       0.000  0.000  0.000  0.998 -0.001
       0.000  0.000  0.000 -0.001  0.993
     SPIN  2
     eigenvalues:
       0.085  0.136  0.136  0.200  0.297
     eigenvectors (columns):
      -0.000 -0.000 -0.000 -1.000  0.000
      -0.000 -0.574  0.819  0.000  0.000
      -0.000 -0.819 -0.574  0.000  0.000
       0.969 -0.000  0.000  0.000  0.248
      -0.248  0.000  0.000  0.000  0.969
     occupation matrix ns (before diag.):
       0.200 -0.000 -0.000  0.000  0.000
      -0.000  0.136 -0.000  0.000  0.000
      -0.000 -0.000  0.136  0.000  0.000
       0.000  0.000  0.000  0.098  0.051
       0.000  0.000  0.000  0.051  0.284
     ------------------------ ATOM   15 ------------------------
     Tr[ns( 15)] (up, down, total) =   0.85334  4.97604  5.82938
     Atomic magnetic moment for atom  15 =  -4.12269
     SPIN  1
     eigenvalues:
       0.085  0.136  0.136  0.200  0.297
     eigenvectors (columns):
      -0.000 -0.000 -0.000 -1.000  0.000
      -0.000 -0.673  0.740  0.000  0.000
      -0.000 -0.740 -0.673  0.000  0.000
       0.969 -0.000  0.000  0.000  0.248
      -0.248  0.000  0.000  0.000  0.969
     occupation matrix ns (before diag.):
       0.200 -0.000 -0.000  0.000  0.000
      -0.000  0.136 -0.000  0.000  0.000
      -0.000 -0.000  0.136  0.000  0.000
       0.000  0.000  0.000  0.098  0.051
       0.000  0.000  0.000  0.051  0.284
     SPIN  2
     eigenvalues:
       0.990  0.993  0.997  0.997  0.998
     eigenvectors (columns):
       1.000  0.000 -0.000 -0.000 -0.000
       0.000 -0.000  0.701 -0.713 -0.000
       0.000 -0.000  0.713  0.701 -0.000
      -0.000  0.179 -0.000 -0.000 -0.984
      -0.000  0.984  0.000  0.000  0.179
     occupation matrix ns (before diag.):
       0.990 -0.000 -0.000  0.000  0.000
      -0.000  0.997 -0.000  0.000  0.000
      -0.000 -0.000  0.997  0.000  0.000
       0.000  0.000  0.000  0.998 -0.001
       0.000  0.000  0.000 -0.001  0.993
     ------------------------ ATOM   16 ------------------------
     Tr[ns( 16)] (up, down, total) =   4.97603  0.85332  5.82936
     Atomic magnetic moment for atom  16 =   4.12271
     SPIN  1
     eigenvalues:
       0.990  0.993  0.997  0.997  0.998
     eigenvectors (columns):
       1.000  0.000 -0.000  0.000 -0.000
       0.000 -0.000  0.719 -0.695 -0.000
       0.000 -0.000  0.695  0.719 -0.000
      -0.000  0.179 -0.000 -0.000 -0.984
      -0.000  0.984  0.000  0.000  0.179
     occupation matrix ns (before diag.):
       0.990 -0.000 -0.000  0.000  0.000
      -0.000  0.997 -0.000  0.000  0.000
      -0.000 -0.000  0.997  0.000  0.000
       0.000  0.000  0.000  0.998 -0.001
       0.000  0.000  0.000 -0.001  0.993
     SPIN  2
     eigenvalues:
       0.085  0.136  0.136  0.200  0.297
     eigenvectors (columns):
      -0.000 -0.000 -0.000 -1.000  0.000
      -0.000 -0.628  0.778  0.000  0.000
      -0.000 -0.778 -0.628  0.000  0.000
       0.969 -0.000  0.000  0.000  0.248
      -0.248  0.000  0.000  0.000  0.969
     occupation matrix ns (before diag.):
       0.200 -0.000 -0.000  0.000  0.000
      -0.000  0.136 -0.000  0.000  0.000
      -0.000 -0.000  0.136  0.000  0.000
       0.000  0.000  0.000  0.098  0.051
       0.000  0.000  0.000  0.051  0.284

     Number of occupied Hubbard levels =   44.1416

     HUBBARD ENERGY =    0.8878  (Ry)

     total cpu time spent up to now is      157.9 secs

     total energy              =   -3088.50937552 Ry
     estimated scf accuracy    <       0.03270268 Ry

     total magnetization       =     0.00 Bohr mag/cell
     absolute magnetization    =    38.14 Bohr mag/cell

     iteration #  6     ecut=    90.00 Ry     beta= 0.30
     Davidson diagonalization with overlap

---- Real-time Memory Report at c_bands before calling an iterative solver
          1275 MiB given to the printing process from OS
           789 MiB allocation reported by mallinfo(arena+hblkhd)
        673591 MiB available memory on the node where the printing process lives
------------------
     ethr =  9.97E-06,  avg # of iterations =  5.0

     =================== HUBBARD OCCUPATIONS ===================
     ------------------------ ATOM    9 ------------------------
     Tr[ns(  9)] (up, down, total) =   4.94100  0.26595  5.20695
     Atomic magnetic moment for atom   9 =   4.67505
     SPIN  1
     eigenvalues:
       0.976  0.979  0.995  0.995  0.996
     eigenvectors (columns):
       1.000  0.000 -0.000 -0.000 -0.000
       0.000 -0.000  0.557  0.831 -0.000
       0.000 -0.000  0.831 -0.557 -0.000
       0.000 -0.268 -0.000  0.000 -0.964
      -0.000  0.964 -0.000 -0.000 -0.268
     occupation matrix ns (before diag.):
       0.976 -0.000 -0.000  0.000  0.000
      -0.000  0.995 -0.000  0.000  0.000
      -0.000 -0.000  0.995  0.000  0.000
       0.000  0.000  0.000  0.995  0.004
       0.000  0.000  0.000  0.004  0.980
     SPIN  2
     eigenvalues:
       0.033  0.036  0.036  0.059  0.101
     eigenvectors (columns):
      -0.000 -0.000  0.000  1.000  0.000
      -0.000 -0.628 -0.779 -0.000  0.000
      -0.000 -0.779  0.628 -0.000  0.000
       0.978 -0.000  0.000  0.000 -0.210
       0.210 -0.000 -0.000 -0.000  0.978
     occupation matrix ns (before diag.):
       0.059 -0.000 -0.000  0.000  0.000
      -0.000  0.036 -0.000  0.000  0.000
      -0.000 -0.000  0.036  0.000  0.000
       0.000  0.000  0.000  0.036 -0.014
       0.000  0.000  0.000 -0.014  0.098
     ------------------------ ATOM   10 ------------------------
     Tr[ns( 10)] (up, down, total) =   0.26579  4.94102  5.20681
     Atomic magnetic moment for atom  10 =  -4.67523
     SPIN  1
     eigenvalues:
       0.033  0.036  0.036  0.059  0.101
     eigenvectors (columns):
      -0.000 -0.000  0.000  1.000  0.000
      -0.000 -0.545 -0.839 -0.000  0.000
      -0.000 -0.839  0.545 -0.000  0.000
       0.978 -0.000 -0.000  0.000 -0.210
       0.210 -0.000 -0.000 -0.000  0.978
     occupation matrix ns (before diag.):
       0.059 -0.000 -0.000  0.000  0.000
      -0.000  0.036 -0.000  0.000  0.000
      -0.000 -0.000  0.036  0.000  0.000
       0.000  0.000  0.000  0.036 -0.014
       0.000  0.000  0.000 -0.014  0.098
     SPIN  2
     eigenvalues:
       0.976  0.979  0.995  0.995  0.996
     eigenvectors (columns):
       1.000  0.000 -0.000 -0.000 -0.000
       0.000 -0.000  0.540  0.842 -0.000
       0.000 -0.000  0.842 -0.540 -0.000
       0.000 -0.268 -0.000 -0.000 -0.964
      -0.000  0.964 -0.000 -0.000 -0.268
     occupation matrix ns (before diag.):
       0.976 -0.000 -0.000  0.000  0.000
      -0.000  0.995 -0.000  0.000  0.000
      -0.000 -0.000  0.995  0.000  0.000
       0.000  0.000  0.000  0.995  0.004
       0.000  0.000  0.000  0.004  0.980
     ------------------------ ATOM   11 ------------------------
     Tr[ns( 11)] (up, down, total) =   4.94100  0.26595  5.20695
     Atomic magnetic moment for atom  11 =   4.67505
     SPIN  1
     eigenvalues:
       0.976  0.979  0.995  0.995  0.996
     eigenvectors (columns):
       1.000  0.000 -0.000 -0.000 -0.000
       0.000 -0.000  0.568  0.823 -0.000
       0.000 -0.000  0.823 -0.568 -0.000
       0.000 -0.268 -0.000  0.000 -0.964
      -0.000  0.964 -0.000 -0.000 -0.268
     occupation matrix ns (before diag.):
       0.976 -0.000 -0.000  0.000  0.000
      -0.000  0.995 -0.000  0.000  0.000
      -0.000 -0.000  0.995  0.000  0.000
       0.000  0.000  0.000  0.995  0.004
       0.000  0.000  0.000  0.004  0.980
     SPIN  2
     eigenvalues:
       0.033  0.036  0.036  0.059  0.101
     eigenvectors (columns):
      -0.000 -0.000  0.000  1.000  0.000
      -0.000 -0.527 -0.850 -0.000  0.000
      -0.000 -0.850  0.527 -0.000  0.000
       0.978 -0.000 -0.000  0.000 -0.210
       0.210 -0.000 -0.000 -0.000  0.978
     occupation matrix ns (before diag.):
       0.059 -0.000 -0.000  0.000  0.000
      -0.000  0.036 -0.000  0.000  0.000
      -0.000 -0.000  0.036  0.000  0.000
       0.000  0.000  0.000  0.036 -0.014
       0.000  0.000  0.000 -0.014  0.098
     ------------------------ ATOM   12 ------------------------
     Tr[ns( 12)] (up, down, total) =   0.26579  4.94102  5.20681
     Atomic magnetic moment for atom  12 =  -4.67523
     SPIN  1
     eigenvalues:
       0.033  0.036  0.036  0.059  0.101
     eigenvectors (columns):
      -0.000 -0.000  0.000  1.000  0.000
      -0.000 -0.668 -0.745 -0.000  0.000
      -0.000 -0.745  0.668 -0.000  0.000
       0.978 -0.000  0.000  0.000 -0.210
       0.210 -0.000 -0.000 -0.000  0.978
     occupation matrix ns (before diag.):
       0.059 -0.000 -0.000  0.000  0.000
      -0.000  0.036 -0.000  0.000  0.000
      -0.000 -0.000  0.036  0.000  0.000
       0.000  0.000  0.000  0.036 -0.014
       0.000  0.000  0.000 -0.014  0.098
     SPIN  2
     eigenvalues:
       0.976  0.979  0.995  0.995  0.996
     eigenvectors (columns):
       1.000  0.000 -0.000  0.000 -0.000
       0.000 -0.000  0.724  0.689 -0.000
       0.000 -0.000  0.689 -0.724 -0.000
       0.000 -0.268 -0.000  0.000 -0.964
      -0.000  0.964 -0.000  0.000 -0.268
     occupation matrix ns (before diag.):
       0.976 -0.000 -0.000  0.000  0.000
      -0.000  0.995 -0.000  0.000  0.000
      -0.000 -0.000  0.995  0.000  0.000
       0.000  0.000  0.000  0.995  0.004
       0.000  0.000  0.000  0.004  0.980
     ------------------------ ATOM   13 ------------------------
     Tr[ns( 13)] (up, down, total) =   0.87732  4.97593  5.85324
     Atomic magnetic moment for atom  13 =  -4.09861
     SPIN  1
     eigenvalues:
       0.087  0.140  0.140  0.205  0.305
     eigenvectors (columns):
      -0.000 -0.000 -0.000 -1.000  0.000
      -0.000 -0.680  0.734  0.000  0.000
      -0.000 -0.734 -0.680  0.000  0.000
       0.969 -0.000  0.000  0.000  0.248
      -0.248  0.000  0.000  0.000  0.969
     occupation matrix ns (before diag.):
       0.205 -0.000 -0.000  0.000  0.000
      -0.000  0.140 -0.000  0.000  0.000
      -0.000 -0.000  0.140  0.000  0.000
       0.000  0.000  0.000  0.100  0.052
       0.000  0.000  0.000  0.052  0.292
     SPIN  2
     eigenvalues:
       0.990  0.993  0.997  0.997  0.998
     eigenvectors (columns):
       1.000  0.000 -0.000 -0.000 -0.000
       0.000 -0.000  0.651 -0.759 -0.000
       0.000 -0.000  0.759  0.651 -0.000
      -0.000  0.179 -0.000  0.000 -0.984
      -0.000  0.984  0.000  0.000  0.179
     occupation matrix ns (before diag.):
       0.990 -0.000 -0.000  0.000  0.000
      -0.000  0.997 -0.000  0.000  0.000
      -0.000 -0.000  0.997  0.000  0.000
       0.000  0.000  0.000  0.998 -0.001
       0.000  0.000  0.000 -0.001  0.993
     ------------------------ ATOM   14 ------------------------
     Tr[ns( 14)] (up, down, total) =   4.97593  0.87729  5.85322
     Atomic magnetic moment for atom  14 =   4.09863
     SPIN  1
     eigenvalues:
       0.990  0.993  0.997  0.997  0.998
     eigenvectors (columns):
       1.000  0.000 -0.000  0.000 -0.000
       0.000 -0.000  0.690 -0.723 -0.000
       0.000 -0.000  0.723  0.690 -0.000
      -0.000  0.179 -0.000 -0.000 -0.984
      -0.000  0.984  0.000  0.000  0.179
     occupation matrix ns (before diag.):
       0.990 -0.000 -0.000  0.000  0.000
      -0.000  0.997 -0.000  0.000  0.000
      -0.000 -0.000  0.997  0.000  0.000
       0.000  0.000  0.000  0.998 -0.001
       0.000  0.000  0.000 -0.001  0.993
     SPIN  2
     eigenvalues:
       0.087  0.140  0.140  0.205  0.305
     eigenvectors (columns):
      -0.000 -0.000 -0.000 -1.000  0.000
      -0.000 -0.653  0.757  0.000  0.000
      -0.000 -0.757 -0.653  0.000  0.000
       0.969 -0.000  0.000  0.000  0.248
      -0.248  0.000  0.000  0.000  0.969
     occupation matrix ns (before diag.):
       0.205 -0.000 -0.000  0.000  0.000
      -0.000  0.140 -0.000  0.000  0.000
      -0.000 -0.000  0.140  0.000  0.000
       0.000  0.000  0.000  0.100  0.052
       0.000  0.000  0.000  0.052  0.292
     ------------------------ ATOM   15 ------------------------
     Tr[ns( 15)] (up, down, total) =   0.87732  4.97593  5.85324
     Atomic magnetic moment for atom  15 =  -4.09861
     SPIN  1
     eigenvalues:
       0.087  0.140  0.140  0.205  0.305
     eigenvectors (columns):
      -0.000 -0.000 -0.000 -1.000  0.000
      -0.000 -0.653  0.757  0.000  0.000
      -0.000 -0.757 -0.653  0.000  0.000
       0.969 -0.000  0.000  0.000  0.248
      -0.248  0.000  0.000  0.000  0.969
     occupation matrix ns (before diag.):
       0.205 -0.000 -0.000  0.000  0.000
      -0.000  0.140 -0.000  0.000  0.000
      -0.000 -0.000  0.140  0.000  0.000
       0.000  0.000  0.000  0.100  0.052
       0.000  0.000  0.000  0.052  0.292
     SPIN  2
     eigenvalues:
       0.990  0.993  0.997  0.997  0.998
     eigenvectors (columns):
       1.000  0.000 -0.000  0.000 -0.000
       0.000 -0.000  0.553  0.833 -0.000
       0.000 -0.000  0.833 -0.553 -0.000
      -0.000  0.179 -0.000 -0.000 -0.984
      -0.000  0.984  0.000  0.000  0.179
     occupation matrix ns (before diag.):
       0.990 -0.000 -0.000  0.000  0.000
      -0.000  0.997 -0.000  0.000  0.000
      -0.000 -0.000  0.997  0.000  0.000
       0.000  0.000  0.000  0.998 -0.001
       0.000  0.000  0.000 -0.001  0.993
     ------------------------ ATOM   16 ------------------------
     Tr[ns( 16)] (up, down, total) =   4.97593  0.87729  5.85322
     Atomic magnetic moment for atom  16 =   4.09863
     SPIN  1
     eigenvalues:
       0.990  0.993  0.997  0.997  0.998
     eigenvectors (columns):
       1.000  0.000 -0.000 -0.000 -0.000
       0.000 -0.000  0.654 -0.756 -0.000
       0.000 -0.000  0.756  0.654 -0.000
      -0.000  0.179 -0.000  0.000 -0.984
      -0.000  0.984  0.000  0.000  0.179
     occupation matrix ns (before diag.):
       0.990 -0.000 -0.000  0.000  0.000
      -0.000  0.997 -0.000  0.000  0.000
      -0.000 -0.000  0.997  0.000  0.000
       0.000  0.000  0.000  0.998 -0.001
       0.000  0.000  0.000 -0.001  0.993
     SPIN  2
     eigenvalues:
       0.087  0.140  0.140  0.205  0.305
     eigenvectors (columns):
      -0.000 -0.000 -0.000 -1.000  0.000
      -0.000 -0.675  0.738  0.000  0.000
      -0.000 -0.738 -0.675  0.000  0.000
       0.969 -0.000  0.000  0.000  0.248
      -0.248  0.000  0.000  0.000  0.969
     occupation matrix ns (before diag.):
       0.205 -0.000 -0.000  0.000  0.000
      -0.000  0.140 -0.000  0.000  0.000
      -0.000 -0.000  0.140  0.000  0.000
       0.000  0.000  0.000  0.100  0.052
       0.000  0.000  0.000  0.052  0.292

     Number of occupied Hubbard levels =   44.2404

     HUBBARD ENERGY =    0.8972  (Ry)

     total cpu time spent up to now is      185.0 secs

     total energy              =   -3088.50494096 Ry
     estimated scf accuracy    <       0.02661055 Ry

     total magnetization       =    -0.00 Bohr mag/cell
     absolute magnetization    =    38.15 Bohr mag/cell

     iteration #  7     ecut=    90.00 Ry     beta= 0.30
     Davidson diagonalization with overlap

---- Real-time Memory Report at c_bands before calling an iterative solver
          1287 MiB given to the printing process from OS
           801 MiB allocation reported by mallinfo(arena+hblkhd)
        673505 MiB available memory on the node where the printing process lives
------------------
     ethr =  8.11E-06,  avg # of iterations =  2.0

     =================== HUBBARD OCCUPATIONS ===================
     ------------------------ ATOM    9 ------------------------
     Tr[ns(  9)] (up, down, total) =   4.94381  0.26852  5.21233
     Atomic magnetic moment for atom   9 =   4.67529
     SPIN  1
     eigenvalues:
       0.977  0.981  0.995  0.995  0.996
     eigenvectors (columns):
      -1.000  0.000 -0.000 -0.000 -0.000
      -0.000 -0.000  0.622 -0.783 -0.000
      -0.000 -0.000  0.783  0.622 -0.000
      -0.000 -0.267 -0.000 -0.000 -0.964
       0.000  0.964 -0.000  0.000 -0.267
     occupation matrix ns (before diag.):
       0.977 -0.000 -0.000  0.000  0.000
      -0.000  0.995 -0.000  0.000  0.000
      -0.000 -0.000  0.995  0.000  0.000
       0.000  0.000  0.000  0.995  0.004
       0.000  0.000  0.000  0.004  0.982
     SPIN  2
     eigenvalues:
       0.034  0.037  0.037  0.060  0.101
     eigenvectors (columns):
      -0.000 -0.000  0.000  1.000  0.000
      -0.000 -0.601 -0.799 -0.000  0.000
      -0.000 -0.799  0.601 -0.000  0.000
       0.978 -0.000  0.000  0.000 -0.210
       0.210 -0.000 -0.000 -0.000  0.978
     occupation matrix ns (before diag.):
       0.060 -0.000 -0.000  0.000  0.000
      -0.000  0.037 -0.000  0.000  0.000
      -0.000 -0.000  0.037  0.000  0.000
       0.000  0.000  0.000  0.037 -0.014
       0.000  0.000  0.000 -0.014  0.098
     ------------------------ ATOM   10 ------------------------
     Tr[ns( 10)] (up, down, total) =   0.26839  4.94382  5.21221
     Atomic magnetic moment for atom  10 =  -4.67542
     SPIN  1
     eigenvalues:
       0.034  0.037  0.037  0.059  0.101
     eigenvectors (columns):
      -0.000 -0.000  0.000  1.000  0.000
      -0.000 -0.672 -0.741 -0.000  0.000
      -0.000 -0.741  0.672 -0.000  0.000
       0.978 -0.000  0.000  0.000 -0.210
       0.210 -0.000 -0.000 -0.000  0.978
     occupation matrix ns (before diag.):
       0.059 -0.000 -0.000  0.000  0.000
      -0.000  0.037 -0.000  0.000  0.000
      -0.000 -0.000  0.037  0.000  0.000
       0.000  0.000  0.000  0.037 -0.014
       0.000  0.000  0.000 -0.014  0.098
     SPIN  2
     eigenvalues:
       0.977  0.981  0.995  0.995  0.996
     eigenvectors (columns):
       1.000  0.000 -0.000 -0.000 -0.000
       0.000 -0.000  0.570  0.822 -0.000
       0.000 -0.000  0.822 -0.570 -0.000
       0.000 -0.267 -0.000  0.000 -0.964
      -0.000  0.964 -0.000 -0.000 -0.267
     occupation matrix ns (before diag.):
       0.977 -0.000 -0.000  0.000  0.000
      -0.000  0.995 -0.000  0.000  0.000
      -0.000 -0.000  0.995  0.000  0.000
       0.000  0.000  0.000  0.995  0.004
       0.000  0.000  0.000  0.004  0.982
     ------------------------ ATOM   11 ------------------------
     Tr[ns( 11)] (up, down, total) =   4.94381  0.26852  5.21233
     Atomic magnetic moment for atom  11 =   4.67529
     SPIN  1
     eigenvalues:
       0.977  0.981  0.995  0.995  0.996
     eigenvectors (columns):
      -1.000  0.000 -0.000 -0.000 -0.000
      -0.000 -0.000  0.622 -0.783 -0.000
      -0.000 -0.000  0.783  0.622 -0.000
      -0.000 -0.267 -0.000 -0.000 -0.964
       0.000  0.964 -0.000  0.000 -0.267
     occupation matrix ns (before diag.):
       0.977 -0.000 -0.000  0.000  0.000
      -0.000  0.995 -0.000  0.000  0.000
      -0.000 -0.000  0.995  0.000  0.000
       0.000  0.000  0.000  0.995  0.004
       0.000  0.000  0.000  0.004  0.982
     SPIN  2
     eigenvalues:
       0.034  0.037  0.037  0.060  0.101
     eigenvectors (columns):
      -0.000 -0.000  0.000  1.000  0.000
      -0.000 -0.589 -0.808 -0.000  0.000
      -0.000 -0.808  0.589 -0.000  0.000
       0.978 -0.000  0.000  0.000 -0.210
       0.210 -0.000 -0.000 -0.000  0.978
     occupation matrix ns (before diag.):
       0.060 -0.000 -0.000  0.000  0.000
      -0.000  0.037 -0.000  0.000  0.000
      -0.000 -0.000  0.037  0.000  0.000
       0.000  0.000  0.000  0.037 -0.014
       0.000  0.000  0.000 -0.014  0.098
     ------------------------ ATOM   12 ------------------------
     Tr[ns( 12)] (up, down, total) =   0.26839  4.94382  5.21221
     Atomic magnetic moment for atom  12 =  -4.67542
     SPIN  1
     eigenvalues:
       0.034  0.037  0.037  0.059  0.101
     eigenvectors (columns):
      -0.000 -0.000  0.000  1.000  0.000
      -0.000 -0.550 -0.835 -0.000  0.000
      -0.000 -0.835  0.550 -0.000  0.000
       0.978 -0.000 -0.000  0.000 -0.210
       0.210 -0.000 -0.000 -0.000  0.978
     occupation matrix ns (before diag.):
       0.059 -0.000 -0.000  0.000  0.000
      -0.000  0.037 -0.000  0.000  0.000
      -0.000 -0.000  0.037  0.000  0.000
       0.000  0.000  0.000  0.037 -0.014
       0.000  0.000  0.000 -0.014  0.098
     SPIN  2
     eigenvalues:
       0.977  0.981  0.995  0.995  0.996
     eigenvectors (columns):
       1.000  0.000 -0.000 -0.000 -0.000
       0.000 -0.000  0.581  0.814 -0.000
       0.000 -0.000  0.814 -0.581 -0.000
       0.000 -0.267 -0.000  0.000 -0.964
      -0.000  0.964 -0.000 -0.000 -0.267
     occupation matrix ns (before diag.):
       0.977 -0.000 -0.000  0.000  0.000
      -0.000  0.995 -0.000  0.000  0.000
      -0.000 -0.000  0.995  0.000  0.000
       0.000  0.000  0.000  0.995  0.004
       0.000  0.000  0.000  0.004  0.982
     ------------------------ ATOM   13 ------------------------
     Tr[ns( 13)] (up, down, total) =   0.84181  4.97598  5.81779
     Atomic magnetic moment for atom  13 =  -4.13417
     SPIN  1
     eigenvalues:
       0.081  0.132  0.132  0.198  0.299
     eigenvectors (columns):
      -0.000 -0.000 -0.000 -1.000  0.000
      -0.000 -0.532  0.847  0.000  0.000
      -0.000 -0.847 -0.532  0.000  0.000
       0.969 -0.000  0.000  0.000  0.247
      -0.247  0.000  0.000  0.000  0.969
     occupation matrix ns (before diag.):
       0.198 -0.000 -0.000  0.000  0.000
      -0.000  0.132 -0.000  0.000  0.000
      -0.000 -0.000  0.132  0.000  0.000
       0.000  0.000  0.000  0.094  0.052
       0.000  0.000  0.000  0.052  0.286
     SPIN  2
     eigenvalues:
       0.990  0.993  0.998  0.998  0.998
     eigenvectors (columns):
       1.000  0.000 -0.000 -0.000 -0.000
       0.000 -0.000  0.587 -0.809 -0.000
       0.000 -0.000  0.809  0.587 -0.000
      -0.000  0.179 -0.000  0.000 -0.984
      -0.000  0.984  0.000  0.000  0.179
     occupation matrix ns (before diag.):
       0.990 -0.000 -0.000  0.000  0.000
      -0.000  0.998 -0.000  0.000  0.000
      -0.000 -0.000  0.998  0.000  0.000
       0.000  0.000  0.000  0.998 -0.001
       0.000  0.000  0.000 -0.001  0.993
     ------------------------ ATOM   14 ------------------------
     Tr[ns( 14)] (up, down, total) =   4.97598  0.84179  5.81777
     Atomic magnetic moment for atom  14 =   4.13419
     SPIN  1
     eigenvalues:
       0.990  0.993  0.998  0.998  0.998
     eigenvectors (columns):
       1.000  0.000 -0.000  0.000 -0.000
       0.000 -0.000  0.551  0.834 -0.000
       0.000 -0.000  0.834 -0.551 -0.000
      -0.000  0.179 -0.000 -0.000 -0.984
      -0.000  0.984  0.000  0.000  0.179
     occupation matrix ns (before diag.):
       0.990 -0.000 -0.000  0.000  0.000
      -0.000  0.998 -0.000  0.000  0.000
      -0.000 -0.000  0.998  0.000  0.000
       0.000  0.000  0.000  0.998 -0.001
       0.000  0.000  0.000 -0.001  0.993
     SPIN  2
     eigenvalues:
       0.081  0.132  0.132  0.199  0.299
     eigenvectors (columns):
      -0.000 -0.000 -0.000 -1.000  0.000
      -0.000 -0.579  0.815  0.000  0.000
      -0.000 -0.815 -0.579  0.000  0.000
       0.969 -0.000  0.000  0.000  0.247
      -0.247  0.000  0.000  0.000  0.969
     occupation matrix ns (before diag.):
       0.199 -0.000 -0.000  0.000  0.000
      -0.000  0.132 -0.000  0.000  0.000
      -0.000 -0.000  0.132  0.000  0.000
       0.000  0.000  0.000  0.094  0.052
       0.000  0.000  0.000  0.052  0.286
     ------------------------ ATOM   15 ------------------------
     Tr[ns( 15)] (up, down, total) =   0.84181  4.97598  5.81779
     Atomic magnetic moment for atom  15 =  -4.13417
     SPIN  1
     eigenvalues:
       0.081  0.132  0.132  0.198  0.299
     eigenvectors (columns):
      -0.000 -0.000 -0.000 -1.000  0.000
      -0.000 -0.653  0.757  0.000  0.000
      -0.000 -0.757 -0.653  0.000  0.000
       0.969 -0.000  0.000  0.000  0.247
      -0.247  0.000  0.000  0.000  0.969
     occupation matrix ns (before diag.):
       0.198 -0.000 -0.000  0.000  0.000
      -0.000  0.132 -0.000  0.000  0.000
      -0.000 -0.000  0.132  0.000  0.000
       0.000  0.000  0.000  0.094  0.052
       0.000  0.000  0.000  0.052  0.286
     SPIN  2
     eigenvalues:
       0.990  0.993  0.998  0.998  0.998
     eigenvectors (columns):
       1.000  0.000 -0.000  0.000 -0.000
       0.000 -0.000  0.660 -0.751 -0.000
       0.000 -0.000  0.751  0.660 -0.000
      -0.000  0.179 -0.000  0.000 -0.984
      -0.000  0.984  0.000  0.000  0.179
     occupation matrix ns (before diag.):
       0.990 -0.000 -0.000  0.000  0.000
      -0.000  0.998 -0.000  0.000  0.000
      -0.000 -0.000  0.998  0.000  0.000
       0.000  0.000  0.000  0.998 -0.001
       0.000  0.000  0.000 -0.001  0.993
     ------------------------ ATOM   16 ------------------------
     Tr[ns( 16)] (up, down, total) =   4.97598  0.84179  5.81777
     Atomic magnetic moment for atom  16 =   4.13419
     SPIN  1
     eigenvalues:
       0.990  0.993  0.998  0.998  0.998
     eigenvectors (columns):
       1.000  0.000 -0.000  0.000 -0.000
       0.000 -0.000  0.440 -0.898 -0.000
       0.000 -0.000  0.898  0.440 -0.000
      -0.000  0.179 -0.000  0.000 -0.984
      -0.000  0.984  0.000 -0.000  0.179
     occupation matrix ns (before diag.):
       0.990 -0.000 -0.000  0.000  0.000
      -0.000  0.998 -0.000  0.000  0.000
      -0.000 -0.000  0.998  0.000  0.000
       0.000  0.000  0.000  0.998 -0.001
       0.000  0.000  0.000 -0.001  0.993
     SPIN  2
     eigenvalues:
       0.081  0.132  0.132  0.199  0.299
     eigenvectors (columns):
      -0.000 -0.000 -0.000 -1.000  0.000
      -0.000 -0.521  0.854  0.000  0.000
      -0.000 -0.854 -0.521  0.000  0.000
       0.969 -0.000  0.000  0.000  0.247
      -0.247  0.000  0.000  0.000  0.969
     occupation matrix ns (before diag.):
       0.199 -0.000 -0.000  0.000  0.000
      -0.000  0.132 -0.000  0.000  0.000
      -0.000 -0.000  0.132  0.000  0.000
       0.000  0.000  0.000  0.094  0.052
       0.000  0.000  0.000  0.052  0.286

     Number of occupied Hubbard levels =   44.1202

     HUBBARD ENERGY =    0.8936  (Ry)

     total cpu time spent up to now is      210.5 secs

     total energy              =   -3088.50775643 Ry
     estimated scf accuracy    <       0.00213377 Ry

     total magnetization       =     0.00 Bohr mag/cell
     absolute magnetization    =    38.22 Bohr mag/cell

     iteration #  8     ecut=    90.00 Ry     beta= 0.30
     Davidson diagonalization with overlap

---- Real-time Memory Report at c_bands before calling an iterative solver
          1299 MiB given to the printing process from OS
           813 MiB allocation reported by mallinfo(arena+hblkhd)
        673471 MiB available memory on the node where the printing process lives
------------------
     ethr =  6.51E-07,  avg # of iterations =  8.3

     =================== HUBBARD OCCUPATIONS ===================
     ------------------------ ATOM    9 ------------------------
     Tr[ns(  9)] (up, down, total) =   4.94435  0.26951  5.21385
     Atomic magnetic moment for atom   9 =   4.67484
     SPIN  1
     eigenvalues:
       0.977  0.981  0.995  0.995  0.997
     eigenvectors (columns):
       1.000  0.000 -0.000  0.000 -0.000
       0.000 -0.000  0.686  0.727 -0.000
       0.000 -0.000  0.727 -0.686 -0.000
       0.000 -0.267 -0.000  0.000 -0.964
      -0.000  0.964 -0.000  0.000 -0.267
     occupation matrix ns (before diag.):
       0.977 -0.000 -0.000  0.000  0.000
      -0.000  0.995 -0.000  0.000  0.000
      -0.000 -0.000  0.995  0.000  0.000
       0.000  0.000  0.000  0.995  0.004
       0.000  0.000  0.000  0.004  0.982
     SPIN  2
     eigenvalues:
       0.034  0.037  0.037  0.060  0.102
     eigenvectors (columns):
      -0.000 -0.000  0.000  1.000  0.000
      -0.000 -0.533 -0.846 -0.000  0.000
      -0.000 -0.846  0.533 -0.000  0.000
       0.978 -0.000 -0.000  0.000 -0.210
       0.210 -0.000 -0.000 -0.000  0.978
     occupation matrix ns (before diag.):
       0.060 -0.000 -0.000  0.000  0.000
      -0.000  0.037 -0.000  0.000  0.000
      -0.000 -0.000  0.037  0.000  0.000
       0.000  0.000  0.000  0.037 -0.014
       0.000  0.000  0.000 -0.014  0.099
     ------------------------ ATOM   10 ------------------------
     Tr[ns( 10)] (up, down, total) =   0.26952  4.94436  5.21387
     Atomic magnetic moment for atom  10 =  -4.67484
     SPIN  1
     eigenvalues:
       0.034  0.037  0.037  0.060  0.102
     eigenvectors (columns):
      -0.000 -0.000  0.000  1.000  0.000
      -0.000 -0.609 -0.793 -0.000  0.000
      -0.000 -0.793  0.609 -0.000  0.000
       0.978 -0.000  0.000  0.000 -0.210
       0.210 -0.000 -0.000 -0.000  0.978
     occupation matrix ns (before diag.):
       0.060 -0.000 -0.000  0.000  0.000
      -0.000  0.037 -0.000  0.000  0.000
      -0.000 -0.000  0.037  0.000  0.000
       0.000  0.000  0.000  0.037 -0.014
       0.000  0.000  0.000 -0.014  0.099
     SPIN  2
     eigenvalues:
       0.977  0.981  0.995  0.995  0.997
     eigenvectors (columns):
       1.000  0.000 -0.000  0.000 -0.000
       0.000 -0.000  0.743  0.670 -0.000
       0.000 -0.000  0.670 -0.743 -0.000
       0.000 -0.267 -0.000  0.000 -0.964
      -0.000  0.964 -0.000  0.000 -0.267
     occupation matrix ns (before diag.):
       0.977 -0.000 -0.000  0.000  0.000
      -0.000  0.995 -0.000  0.000  0.000
      -0.000 -0.000  0.995  0.000  0.000
       0.000  0.000  0.000  0.995  0.004
       0.000  0.000  0.000  0.004  0.982
     ------------------------ ATOM   11 ------------------------
     Tr[ns( 11)] (up, down, total) =   4.94435  0.26951  5.21385
     Atomic magnetic moment for atom  11 =   4.67484
     SPIN  1
     eigenvalues:
       0.977  0.981  0.995  0.995  0.997
     eigenvectors (columns):
       1.000  0.000 -0.000 -0.000 -0.000
       0.000 -0.000  0.543  0.840 -0.000
       0.000 -0.000  0.840 -0.543 -0.000
       0.000 -0.267 -0.000 -0.000 -0.964
      -0.000  0.964 -0.000 -0.000 -0.267
     occupation matrix ns (before diag.):
       0.977 -0.000 -0.000  0.000  0.000
      -0.000  0.995 -0.000  0.000  0.000
      -0.000 -0.000  0.995  0.000  0.000
       0.000  0.000  0.000  0.995  0.004
       0.000  0.000  0.000  0.004  0.982
     SPIN  2
     eigenvalues:
       0.034  0.037  0.037  0.060  0.102
     eigenvectors (columns):
      -0.000 -0.000  0.000  1.000  0.000
      -0.000 -0.519 -0.855 -0.000  0.000
      -0.000 -0.855  0.519 -0.000  0.000
       0.978 -0.000 -0.000  0.000 -0.210
       0.210 -0.000 -0.000 -0.000  0.978
     occupation matrix ns (before diag.):
       0.060 -0.000 -0.000  0.000  0.000
      -0.000  0.037 -0.000  0.000  0.000
      -0.000 -0.000  0.037  0.000  0.000
       0.000  0.000  0.000  0.037 -0.014
       0.000  0.000  0.000 -0.014  0.099
     ------------------------ ATOM   12 ------------------------
     Tr[ns( 12)] (up, down, total) =   0.26952  4.94436  5.21387
     Atomic magnetic moment for atom  12 =  -4.67484
     SPIN  1
     eigenvalues:
       0.034  0.037  0.037  0.060  0.102
     eigenvectors (columns):
      -0.000 -0.000  0.000  1.000  0.000
      -0.000 -0.584 -0.812 -0.000  0.000
      -0.000 -0.812  0.584 -0.000  0.000
       0.978 -0.000  0.000  0.000 -0.210
       0.210 -0.000 -0.000 -0.000  0.978
     occupation matrix ns (before diag.):
       0.060 -0.000 -0.000  0.000  0.000
      -0.000  0.037 -0.000  0.000  0.000
      -0.000 -0.000  0.037  0.000  0.000
       0.000  0.000  0.000  0.037 -0.014
       0.000  0.000  0.000 -0.014  0.099
     SPIN  2
     eigenvalues:
       0.977  0.981  0.995  0.995  0.997
     eigenvectors (columns):
       1.000  0.000 -0.000 -0.000 -0.000
       0.000 -0.000  0.484  0.875 -0.000
       0.000 -0.000  0.875 -0.484 -0.000
       0.000 -0.267 -0.000 -0.000 -0.964
      -0.000  0.964 -0.000 -0.000 -0.267
     occupation matrix ns (before diag.):
       0.977 -0.000 -0.000  0.000  0.000
      -0.000  0.995 -0.000  0.000  0.000
      -0.000 -0.000  0.995  0.000  0.000
       0.000  0.000  0.000  0.995  0.004
       0.000  0.000  0.000  0.004  0.982
     ------------------------ ATOM   13 ------------------------
     Tr[ns( 13)] (up, down, total) =   0.83361  4.97595  5.80956
     Atomic magnetic moment for atom  13 =  -4.14235
     SPIN  1
     eigenvalues:
       0.080  0.130  0.130  0.197  0.298
     eigenvectors (columns):
      -0.000 -0.000 -0.000 -1.000  0.000
      -0.000 -0.667  0.745  0.000  0.000
      -0.000 -0.745 -0.667  0.000  0.000
       0.969 -0.000  0.000  0.000  0.247
      -0.247  0.000  0.000  0.000  0.969
     occupation matrix ns (before diag.):
       0.197 -0.000 -0.000  0.000  0.000
      -0.000  0.130 -0.000  0.000  0.000
      -0.000 -0.000  0.130  0.000  0.000
       0.000  0.000  0.000  0.093  0.052
       0.000  0.000  0.000  0.052  0.284
     SPIN  2
     eigenvalues:
       0.990  0.993  0.998  0.998  0.998
     eigenvectors (columns):
       1.000  0.000 -0.000 -0.000 -0.000
       0.000 -0.000  0.582 -0.813 -0.000
       0.000 -0.000  0.813  0.582 -0.000
      -0.000  0.179 -0.000  0.000 -0.984
      -0.000  0.984  0.000  0.000  0.179
     occupation matrix ns (before diag.):
       0.990 -0.000 -0.000  0.000  0.000
      -0.000  0.998 -0.000  0.000  0.000
      -0.000 -0.000  0.998  0.000  0.000
       0.000  0.000  0.000  0.998 -0.001
       0.000  0.000  0.000 -0.001  0.993
     ------------------------ ATOM   14 ------------------------
     Tr[ns( 14)] (up, down, total) =   4.97596  0.83360  5.80955
     Atomic magnetic moment for atom  14 =   4.14236
     SPIN  1
     eigenvalues:
       0.990  0.993  0.998  0.998  0.998
     eigenvectors (columns):
       1.000  0.000 -0.000  0.000 -0.000
       0.000 -0.000  0.552  0.834 -0.000
       0.000 -0.000  0.834 -0.552 -0.000
      -0.000  0.179 -0.000 -0.000 -0.984
      -0.000  0.984  0.000  0.000  0.179
     occupation matrix ns (before diag.):
       0.990 -0.000 -0.000  0.000  0.000
      -0.000  0.998 -0.000  0.000  0.000
      -0.000 -0.000  0.998  0.000  0.000
       0.000  0.000  0.000  0.998 -0.001
       0.000  0.000  0.000 -0.001  0.993
     SPIN  2
     eigenvalues:
       0.080  0.130  0.130  0.197  0.298
     eigenvectors (columns):
      -0.000 -0.000 -0.000 -1.000  0.000
      -0.000 -0.677  0.736  0.000  0.000
      -0.000 -0.736 -0.677  0.000  0.000
       0.969 -0.000  0.000  0.000  0.247
      -0.247  0.000  0.000  0.000  0.969
     occupation matrix ns (before diag.):
       0.197 -0.000 -0.000  0.000  0.000
      -0.000  0.130 -0.000  0.000  0.000
      -0.000 -0.000  0.130  0.000  0.000
       0.000  0.000  0.000  0.093  0.052
       0.000  0.000  0.000  0.052  0.284
     ------------------------ ATOM   15 ------------------------
     Tr[ns( 15)] (up, down, total) =   0.83361  4.97595  5.80956
     Atomic magnetic moment for atom  15 =  -4.14235
     SPIN  1
     eigenvalues:
       0.080  0.130  0.130  0.197  0.298
     eigenvectors (columns):
      -0.000 -0.000  0.000 -1.000  0.000
      -0.000 -0.395  0.919  0.000  0.000
      -0.000 -0.919 -0.395  0.000  0.000
       0.969 -0.000  0.000  0.000  0.247
      -0.247  0.000  0.000  0.000  0.969
     occupation matrix ns (before diag.):
       0.197 -0.000 -0.000  0.000  0.000
      -0.000  0.130 -0.000  0.000  0.000
      -0.000 -0.000  0.130  0.000  0.000
       0.000  0.000  0.000  0.093  0.052
       0.000  0.000  0.000  0.052  0.284
     SPIN  2
     eigenvalues:
       0.990  0.993  0.998  0.998  0.998
     eigenvectors (columns):
       1.000  0.000 -0.000  0.000 -0.000
       0.000 -0.000  0.669 -0.744 -0.000
       0.000 -0.000  0.744  0.669 -0.000
      -0.000  0.179 -0.000  0.000 -0.984
      -0.000  0.984  0.000  0.000  0.179
     occupation matrix ns (before diag.):
       0.990 -0.000 -0.000  0.000  0.000
      -0.000  0.998 -0.000  0.000  0.000
      -0.000 -0.000  0.998  0.000  0.000
       0.000  0.000  0.000  0.998 -0.001
       0.000  0.000  0.000 -0.001  0.993
     ------------------------ ATOM   16 ------------------------
     Tr[ns( 16)] (up, down, total) =   4.97596  0.83360  5.80955
     Atomic magnetic moment for atom  16 =   4.14236
     SPIN  1
     eigenvalues:
       0.990  0.993  0.998  0.998  0.998
     eigenvectors (columns):
       1.000  0.000 -0.000  0.000 -0.000
       0.000 -0.000  0.476 -0.879 -0.000
       0.000 -0.000  0.879  0.476 -0.000
      -0.000  0.179 -0.000  0.000 -0.984
      -0.000  0.984  0.000 -0.000  0.179
     occupation matrix ns (before diag.):
       0.990 -0.000 -0.000  0.000  0.000
      -0.000  0.998 -0.000  0.000  0.000
      -0.000 -0.000  0.998  0.000  0.000
       0.000  0.000  0.000  0.998 -0.001
       0.000  0.000  0.000 -0.001  0.993
     SPIN  2
     eigenvalues:
       0.080  0.130  0.130  0.197  0.298
     eigenvectors (columns):
      -0.000 -0.000 -0.000 -1.000  0.000
      -0.000 -0.675  0.738  0.000  0.000
      -0.000 -0.738 -0.675  0.000  0.000
       0.969 -0.000  0.000  0.000  0.247
      -0.247  0.000  0.000  0.000  0.969
     occupation matrix ns (before diag.):
       0.197 -0.000 -0.000  0.000  0.000
      -0.000  0.130 -0.000  0.000  0.000
      -0.000 -0.000  0.130  0.000  0.000
       0.000  0.000  0.000  0.093  0.052
       0.000  0.000  0.000  0.052  0.284

     Number of occupied Hubbard levels =   44.0937

     HUBBARD ENERGY =    0.8799  (Ry)

     total cpu time spent up to now is      241.6 secs

     total energy              =   -3088.50750059 Ry
     estimated scf accuracy    <       0.00144563 Ry

     total magnetization       =    -0.00 Bohr mag/cell
     absolute magnetization    =    38.24 Bohr mag/cell

     iteration #  9     ecut=    90.00 Ry     beta= 0.30
     Davidson diagonalization with overlap

---- Real-time Memory Report at c_bands before calling an iterative solver
          1311 MiB given to the printing process from OS
           825 MiB allocation reported by mallinfo(arena+hblkhd)
        673340 MiB available memory on the node where the printing process lives
------------------
     ethr =  4.41E-07,  avg # of iterations =  4.3

     =================== HUBBARD OCCUPATIONS ===================
     ------------------------ ATOM    9 ------------------------
     Tr[ns(  9)] (up, down, total) =   4.94478  0.27183  5.21662
     Atomic magnetic moment for atom   9 =   4.67295
     SPIN  1
     eigenvalues:
       0.977  0.981  0.995  0.995  0.997
     eigenvectors (columns):
      -1.000  0.000 -0.000  0.000 -0.000
      -0.000 -0.000  0.624 -0.781 -0.000
      -0.000 -0.000  0.781  0.624 -0.000
      -0.000 -0.267 -0.000 -0.000 -0.964
       0.000  0.964 -0.000  0.000 -0.267
     occupation matrix ns (before diag.):
       0.977 -0.000 -0.000  0.000  0.000
      -0.000  0.995 -0.000  0.000  0.000
      -0.000 -0.000  0.995  0.000  0.000
       0.000  0.000  0.000  0.995  0.004
       0.000  0.000  0.000  0.004  0.982
     SPIN  2
     eigenvalues:
       0.034  0.037  0.037  0.061  0.102
     eigenvectors (columns):
      -0.000 -0.000  0.000  1.000  0.000
      -0.000 -0.547 -0.837 -0.000  0.000
      -0.000 -0.837  0.547 -0.000  0.000
       0.978 -0.000 -0.000  0.000 -0.209
       0.209 -0.000 -0.000 -0.000  0.978
     occupation matrix ns (before diag.):
       0.061 -0.000 -0.000  0.000  0.000
      -0.000  0.037 -0.000  0.000  0.000
      -0.000 -0.000  0.037  0.000  0.000
       0.000  0.000  0.000  0.037 -0.014
       0.000  0.000  0.000 -0.014  0.099
     ------------------------ ATOM   10 ------------------------
     Tr[ns( 10)] (up, down, total) =   0.27184  4.94479  5.21662
     Atomic magnetic moment for atom  10 =  -4.67295
     SPIN  1
     eigenvalues:
       0.034  0.037  0.037  0.061  0.102
     eigenvectors (columns):
      -0.000 -0.000  0.000  1.000  0.000
      -0.000 -0.540 -0.842 -0.000  0.000
      -0.000 -0.842  0.540 -0.000  0.000
       0.978 -0.000 -0.000  0.000 -0.209
       0.209 -0.000 -0.000 -0.000  0.978
     occupation matrix ns (before diag.):
       0.061 -0.000 -0.000  0.000  0.000
      -0.000  0.037 -0.000  0.000  0.000
      -0.000 -0.000  0.037  0.000  0.000
       0.000  0.000  0.000  0.037 -0.014
       0.000  0.000  0.000 -0.014  0.099
     SPIN  2
     eigenvalues:
       0.977  0.981  0.995  0.995  0.997
     eigenvectors (columns):
      -1.000  0.000 -0.000 -0.000 -0.000
      -0.000 -0.000  0.624 -0.781 -0.000
      -0.000 -0.000  0.781  0.624 -0.000
      -0.000 -0.267 -0.000 -0.000 -0.964
       0.000  0.964 -0.000  0.000 -0.267
     occupation matrix ns (before diag.):
       0.977 -0.000 -0.000  0.000  0.000
      -0.000  0.995 -0.000  0.000  0.000
      -0.000 -0.000  0.995  0.000  0.000
       0.000  0.000  0.000  0.995  0.004
       0.000  0.000  0.000  0.004  0.982
     ------------------------ ATOM   11 ------------------------
     Tr[ns( 11)] (up, down, total) =   4.94478  0.27183  5.21662
     Atomic magnetic moment for atom  11 =   4.67295
     SPIN  1
     eigenvalues:
       0.977  0.981  0.995  0.995  0.997
     eigenvectors (columns):
       1.000  0.000 -0.000  0.000 -0.000
       0.000 -0.000  0.735  0.678 -0.000
       0.000 -0.000  0.678 -0.735 -0.000
       0.000 -0.267 -0.000  0.000 -0.964
      -0.000  0.964 -0.000  0.000 -0.267
     occupation matrix ns (before diag.):
       0.977 -0.000 -0.000  0.000  0.000
      -0.000  0.995 -0.000  0.000  0.000
      -0.000 -0.000  0.995  0.000  0.000
       0.000  0.000  0.000  0.995  0.004
       0.000  0.000  0.000  0.004  0.982
     SPIN  2
     eigenvalues:
       0.034  0.037  0.037  0.061  0.102
     eigenvectors (columns):
      -0.000 -0.000  0.000  1.000  0.000
      -0.000 -0.724 -0.690 -0.000  0.000
      -0.000 -0.690  0.724 -0.000  0.000
       0.978 -0.000  0.000  0.000 -0.209
       0.209 -0.000 -0.000 -0.000  0.978
     occupation matrix ns (before diag.):
       0.061 -0.000 -0.000  0.000  0.000
      -0.000  0.037 -0.000  0.000  0.000
      -0.000 -0.000  0.037  0.000  0.000
       0.000  0.000  0.000  0.037 -0.014
       0.000  0.000  0.000 -0.014  0.099
     ------------------------ ATOM   12 ------------------------
     Tr[ns( 12)] (up, down, total) =   0.27184  4.94479  5.21662
     Atomic magnetic moment for atom  12 =  -4.67295
     SPIN  1
     eigenvalues:
       0.034  0.037  0.037  0.061  0.102
     eigenvectors (columns):
      -0.000 -0.000  0.000  1.000  0.000
      -0.000 -0.676 -0.736 -0.000  0.000
      -0.000 -0.736  0.676 -0.000  0.000
       0.978 -0.000  0.000  0.000 -0.209
       0.209 -0.000 -0.000 -0.000  0.978
     occupation matrix ns (before diag.):
       0.061 -0.000 -0.000  0.000  0.000
      -0.000  0.037 -0.000  0.000  0.000
      -0.000 -0.000  0.037  0.000  0.000
       0.000  0.000  0.000  0.037 -0.014
       0.000  0.000  0.000 -0.014  0.099
     SPIN  2
     eigenvalues:
       0.977  0.981  0.995  0.995  0.997
     eigenvectors (columns):
       1.000  0.000 -0.000 -0.000 -0.000
       0.000 -0.000  0.579  0.815 -0.000
       0.000 -0.000  0.815 -0.579 -0.000
       0.000 -0.267 -0.000  0.000 -0.964
      -0.000  0.964 -0.000 -0.000 -0.267
     occupation matrix ns (before diag.):
       0.977 -0.000 -0.000  0.000  0.000
      -0.000  0.995 -0.000  0.000  0.000
      -0.000 -0.000  0.995  0.000  0.000
       0.000  0.000  0.000  0.995  0.004
       0.000  0.000  0.000  0.004  0.982
     ------------------------ ATOM   13 ------------------------
     Tr[ns( 13)] (up, down, total) =   0.83150  4.97583  5.80733
     Atomic magnetic moment for atom  13 =  -4.14433
     SPIN  1
     eigenvalues:
       0.079  0.128  0.128  0.197  0.298
     eigenvectors (columns):
      -0.000 -0.000  0.000 -1.000  0.000
      -0.000 -0.483  0.875  0.000  0.000
      -0.000 -0.875 -0.483  0.000  0.000
       0.969 -0.000  0.000  0.000  0.246
      -0.246  0.000  0.000  0.000  0.969
     occupation matrix ns (before diag.):
       0.197 -0.000 -0.000  0.000  0.000
      -0.000  0.128 -0.000  0.000  0.000
      -0.000 -0.000  0.128  0.000  0.000
       0.000  0.000  0.000  0.093  0.052
       0.000  0.000  0.000  0.052  0.285
     SPIN  2
     eigenvalues:
       0.990  0.993  0.998  0.998  0.998
     eigenvectors (columns):
       1.000  0.000 -0.000  0.000 -0.000
       0.000 -0.000  0.553  0.833 -0.000
       0.000 -0.000  0.833 -0.553 -0.000
      -0.000  0.180 -0.000 -0.000 -0.984
      -0.000  0.984  0.000  0.000  0.180
     occupation matrix ns (before diag.):
       0.990 -0.000 -0.000  0.000  0.000
      -0.000  0.998 -0.000  0.000  0.000
      -0.000 -0.000  0.998  0.000  0.000
       0.000  0.000  0.000  0.998 -0.001
       0.000  0.000  0.000 -0.001  0.993
     ------------------------ ATOM   14 ------------------------
     Tr[ns( 14)] (up, down, total) =   4.97583  0.83153  5.80735
     Atomic magnetic moment for atom  14 =   4.14430
     SPIN  1
     eigenvalues:
       0.990  0.993  0.998  0.998  0.998
     eigenvectors (columns):
       1.000  0.000 -0.000  0.000 -0.000
       0.000 -0.000  0.642 -0.767 -0.000
       0.000 -0.000  0.767  0.642 -0.000
      -0.000  0.180 -0.000  0.000 -0.984
      -0.000  0.984  0.000  0.000  0.180
     occupation matrix ns (before diag.):
       0.990 -0.000 -0.000  0.000  0.000
      -0.000  0.998 -0.000  0.000  0.000
      -0.000 -0.000  0.998  0.000  0.000
       0.000  0.000  0.000  0.998 -0.001
       0.000  0.000  0.000 -0.001  0.993
     SPIN  2
     eigenvalues:
       0.079  0.128  0.128  0.197  0.298
     eigenvectors (columns):
      -0.000 -0.000 -0.000 -1.000  0.000
      -0.000 -0.621  0.784  0.000  0.000
      -0.000 -0.784 -0.621  0.000  0.000
       0.969 -0.000  0.000  0.000  0.246
      -0.246  0.000  0.000  0.000  0.969
     occupation matrix ns (before diag.):
       0.197 -0.000 -0.000  0.000  0.000
      -0.000  0.128 -0.000  0.000  0.000
      -0.000 -0.000  0.128  0.000  0.000
       0.000  0.000  0.000  0.093  0.052
       0.000  0.000  0.000  0.052  0.285
     ------------------------ ATOM   15 ------------------------
     Tr[ns( 15)] (up, down, total) =   0.83150  4.97583  5.80733
     Atomic magnetic moment for atom  15 =  -4.14433
     SPIN  1
     eigenvalues:
       0.079  0.128  0.128  0.197  0.298
     eigenvectors (columns):
      -0.000 -0.000 -0.000 -1.000  0.000
      -0.000 -0.565  0.825  0.000  0.000
      -0.000 -0.825 -0.565  0.000  0.000
       0.969 -0.000  0.000  0.000  0.246
      -0.246  0.000  0.000  0.000  0.969
     occupation matrix ns (before diag.):
       0.197 -0.000 -0.000  0.000  0.000
      -0.000  0.128 -0.000  0.000  0.000
      -0.000 -0.000  0.128  0.000  0.000
       0.000  0.000  0.000  0.093  0.052
       0.000  0.000  0.000  0.052  0.285
     SPIN  2
     eigenvalues:
       0.990  0.993  0.998  0.998  0.998
     eigenvectors (columns):
       1.000  0.000 -0.000 -0.000 -0.000
       0.000 -0.000  0.553  0.833 -0.000
       0.000 -0.000  0.833 -0.553 -0.000
      -0.000  0.180 -0.000 -0.000 -0.984
      -0.000  0.984  0.000  0.000  0.180
     occupation matrix ns (before diag.):
       0.990 -0.000 -0.000  0.000  0.000
      -0.000  0.998 -0.000  0.000  0.000
      -0.000 -0.000  0.998  0.000  0.000
       0.000  0.000  0.000  0.998 -0.001
       0.000  0.000  0.000 -0.001  0.993
     ------------------------ ATOM   16 ------------------------
     Tr[ns( 16)] (up, down, total) =   4.97583  0.83153  5.80735
     Atomic magnetic moment for atom  16 =   4.14430
     SPIN  1
     eigenvalues:
       0.990  0.993  0.998  0.998  0.998
     eigenvectors (columns):
       1.000  0.000 -0.000 -0.000 -0.000
       0.000 -0.000  0.553  0.833 -0.000
       0.000 -0.000  0.833 -0.553 -0.000
      -0.000  0.180 -0.000 -0.000 -0.984
      -0.000  0.984  0.000  0.000  0.180
     occupation matrix ns (before diag.):
       0.990 -0.000 -0.000  0.000  0.000
      -0.000  0.998 -0.000  0.000  0.000
      -0.000 -0.000  0.998  0.000  0.000
       0.000  0.000  0.000  0.998 -0.001
       0.000  0.000  0.000 -0.001  0.993
     SPIN  2
     eigenvalues:
       0.079  0.128  0.128  0.197  0.298
     eigenvectors (columns):
      -0.000 -0.000 -0.000 -1.000  0.000
      -0.000 -0.697  0.717  0.000  0.000
      -0.000 -0.717 -0.697  0.000  0.000
       0.969 -0.000  0.000  0.000  0.246
      -0.246  0.000  0.000  0.000  0.969
     occupation matrix ns (before diag.):
       0.197 -0.000 -0.000  0.000  0.000
      -0.000  0.128 -0.000  0.000  0.000
      -0.000 -0.000  0.128  0.000  0.000
       0.000  0.000  0.000  0.093  0.052
       0.000  0.000  0.000  0.052  0.285

     Number of occupied Hubbard levels =   44.0958

     HUBBARD ENERGY =    0.8801  (Ry)

     total cpu time spent up to now is      272.3 secs

     total energy              =   -3088.50787205 Ry
     estimated scf accuracy    <       0.00016046 Ry

     total magnetization       =     0.00 Bohr mag/cell
     absolute magnetization    =    38.25 Bohr mag/cell

     iteration # 10     ecut=    90.00 Ry     beta= 0.30
     Davidson diagonalization with overlap

---- Real-time Memory Report at c_bands before calling an iterative solver
          1323 MiB given to the printing process from OS
           836 MiB allocation reported by mallinfo(arena+hblkhd)
        673359 MiB available memory on the node where the printing process lives
------------------
     ethr =  4.89E-08,  avg # of iterations =  4.3

     =================== HUBBARD OCCUPATIONS ===================
     ------------------------ ATOM    9 ------------------------
     Tr[ns(  9)] (up, down, total) =   4.94492  0.27240  5.21732
     Atomic magnetic moment for atom   9 =   4.67253
     SPIN  1
     eigenvalues:
       0.977  0.981  0.995  0.995  0.997
     eigenvectors (columns):
       1.000  0.000 -0.000 -0.000 -0.000
       0.000 -0.000  0.576  0.818 -0.000
       0.000 -0.000  0.818 -0.576 -0.000
       0.000 -0.267 -0.000  0.000 -0.964
      -0.000  0.964 -0.000 -0.000 -0.267
     occupation matrix ns (before diag.):
       0.977 -0.000 -0.000  0.000  0.000
      -0.000  0.995 -0.000  0.000  0.000
      -0.000 -0.000  0.995  0.000  0.000
       0.000  0.000  0.000  0.995  0.004
       0.000  0.000  0.000  0.004  0.982
     SPIN  2
     eigenvalues:
       0.034  0.037  0.037  0.061  0.103
     eigenvectors (columns):
      -0.000  0.000 -0.000  1.000  0.000
      -0.000  0.480  0.878 -0.000  0.000
      -0.000  0.878 -0.480 -0.000  0.000
       0.978  0.000  0.000  0.000 -0.209
       0.209  0.000  0.000 -0.000  0.978
     occupation matrix ns (before diag.):
       0.061 -0.000 -0.000  0.000  0.000
      -0.000  0.037 -0.000  0.000  0.000
      -0.000 -0.000  0.037  0.000  0.000
       0.000  0.000  0.000  0.037 -0.014
       0.000  0.000  0.000 -0.014  0.100
     ------------------------ ATOM   10 ------------------------
     Tr[ns( 10)] (up, down, total) =   0.27236  4.94493  5.21729
     Atomic magnetic moment for atom  10 =  -4.67257
     SPIN  1
     eigenvalues:
       0.034  0.037  0.037  0.061  0.103
     eigenvectors (columns):
      -0.000 -0.000  0.000  1.000  0.000
      -0.000 -0.568 -0.823 -0.000  0.000
      -0.000 -0.823  0.568 -0.000  0.000
       0.978 -0.000  0.000  0.000 -0.209
       0.209 -0.000 -0.000 -0.000  0.978
     occupation matrix ns (before diag.):
       0.061 -0.000 -0.000  0.000  0.000
      -0.000  0.037 -0.000  0.000  0.000
      -0.000 -0.000  0.037  0.000  0.000
       0.000  0.000  0.000  0.037 -0.014
       0.000  0.000  0.000 -0.014  0.100
     SPIN  2
     eigenvalues:
       0.977  0.981  0.995  0.995  0.997
     eigenvectors (columns):
       1.000  0.000 -0.000 -0.000 -0.000
       0.000 -0.000  0.532  0.847 -0.000
       0.000 -0.000  0.847 -0.532 -0.000
       0.000 -0.267 -0.000 -0.000 -0.964
      -0.000  0.964 -0.000 -0.000 -0.267
     occupation matrix ns (before diag.):
       0.977 -0.000 -0.000  0.000  0.000
      -0.000  0.995 -0.000  0.000  0.000
      -0.000 -0.000  0.995  0.000  0.000
       0.000  0.000  0.000  0.995  0.004
       0.000  0.000  0.000  0.004  0.982
     ------------------------ ATOM   11 ------------------------
     Tr[ns( 11)] (up, down, total) =   4.94492  0.27240  5.21732
     Atomic magnetic moment for atom  11 =   4.67253
     SPIN  1
     eigenvalues:
       0.977  0.981  0.995  0.995  0.997
     eigenvectors (columns):
      -1.000  0.000 -0.000  0.000 -0.000
      -0.000 -0.000  0.625 -0.781 -0.000
      -0.000 -0.000  0.781  0.625 -0.000
      -0.000 -0.267 -0.000 -0.000 -0.964
       0.000  0.964 -0.000  0.000 -0.267
     occupation matrix ns (before diag.):
       0.977 -0.000 -0.000  0.000  0.000
      -0.000  0.995 -0.000  0.000  0.000
      -0.000 -0.000  0.995  0.000  0.000
       0.000  0.000  0.000  0.995  0.004
       0.000  0.000  0.000  0.004  0.982
     SPIN  2
     eigenvalues:
       0.034  0.037  0.037  0.061  0.103
     eigenvectors (columns):
      -0.000 -0.000  0.000  1.000  0.000
      -0.000 -0.650 -0.760 -0.000  0.000
      -0.000 -0.760  0.650 -0.000  0.000
       0.978 -0.000  0.000  0.000 -0.209
       0.209 -0.000 -0.000 -0.000  0.978
     occupation matrix ns (before diag.):
       0.061 -0.000 -0.000  0.000  0.000
      -0.000  0.037 -0.000  0.000  0.000
      -0.000 -0.000  0.037  0.000  0.000
       0.000  0.000  0.000  0.037 -0.014
       0.000  0.000  0.000 -0.014  0.100
     ------------------------ ATOM   12 ------------------------
     Tr[ns( 12)] (up, down, total) =   0.27236  4.94493  5.21729
     Atomic magnetic moment for atom  12 =  -4.67257
     SPIN  1
     eigenvalues:
       0.034  0.037  0.037  0.061  0.103
     eigenvectors (columns):
      -0.000 -0.000  0.000  1.000  0.000
      -0.000 -0.638 -0.770 -0.000  0.000
      -0.000 -0.770  0.638 -0.000  0.000
       0.978 -0.000  0.000  0.000 -0.209
       0.209 -0.000 -0.000 -0.000  0.978
     occupation matrix ns (before diag.):
       0.061 -0.000 -0.000  0.000  0.000
      -0.000  0.037 -0.000  0.000  0.000
      -0.000 -0.000  0.037  0.000  0.000
       0.000  0.000  0.000  0.037 -0.014
       0.000  0.000  0.000 -0.014  0.100
     SPIN  2
     eigenvalues:
       0.977  0.981  0.995  0.995  0.997
     eigenvectors (columns):
      -1.000  0.000 -0.000  0.000 -0.000
      -0.000 -0.000  0.625 -0.781 -0.000
      -0.000 -0.000  0.781  0.625 -0.000
      -0.000 -0.267 -0.000 -0.000 -0.964
       0.000  0.964 -0.000  0.000 -0.267
     occupation matrix ns (before diag.):
       0.977 -0.000 -0.000  0.000  0.000
      -0.000  0.995 -0.000  0.000  0.000
      -0.000 -0.000  0.995  0.000  0.000
       0.000  0.000  0.000  0.995  0.004
       0.000  0.000  0.000  0.004  0.982
     ------------------------ ATOM   13 ------------------------
     Tr[ns( 13)] (up, down, total) =   0.82793  4.97581  5.80373
     Atomic magnetic moment for atom  13 =  -4.14788
     SPIN  1
     eigenvalues:
       0.079  0.128  0.128  0.196  0.298
     eigenvectors (columns):
      -0.000 -0.000 -0.000 -1.000  0.000
      -0.000 -0.552  0.834  0.000  0.000
      -0.000 -0.834 -0.552  0.000  0.000
       0.969 -0.000  0.000  0.000  0.246
      -0.246  0.000  0.000  0.000  0.969
     occupation matrix ns (before diag.):
       0.196 -0.000 -0.000  0.000  0.000
      -0.000  0.128 -0.000  0.000  0.000
      -0.000 -0.000  0.128  0.000  0.000
       0.000  0.000  0.000  0.092  0.052
       0.000  0.000  0.000  0.052  0.284
     SPIN  2
     eigenvalues:
       0.990  0.993  0.998  0.998  0.998
     eigenvectors (columns):
       1.000  0.000 -0.000 -0.000 -0.000
       0.000 -0.000  0.553  0.833 -0.000
       0.000 -0.000  0.833 -0.553 -0.000
      -0.000  0.180 -0.000 -0.000 -0.984
      -0.000  0.984  0.000  0.000  0.180
     occupation matrix ns (before diag.):
       0.990 -0.000 -0.000  0.000  0.000
      -0.000  0.998 -0.000  0.000  0.000
      -0.000 -0.000  0.998  0.000  0.000
       0.000  0.000  0.000  0.998 -0.001
       0.000  0.000  0.000 -0.001  0.993
     ------------------------ ATOM   14 ------------------------
     Tr[ns( 14)] (up, down, total) =   4.97581  0.82794  5.80375
     Atomic magnetic moment for atom  14 =   4.14786
     SPIN  1
     eigenvalues:
       0.990  0.993  0.998  0.998  0.998
     eigenvectors (columns):
       1.000  0.000 -0.000  0.000 -0.000
       0.000 -0.000  0.510 -0.860 -0.000
       0.000 -0.000  0.860  0.510 -0.000
      -0.000  0.180 -0.000  0.000 -0.984
      -0.000  0.984  0.000 -0.000  0.180
     occupation matrix ns (before diag.):
       0.990 -0.000 -0.000  0.000  0.000
      -0.000  0.998 -0.000  0.000  0.000
      -0.000 -0.000  0.998  0.000  0.000
       0.000  0.000  0.000  0.998 -0.001
       0.000  0.000  0.000 -0.001  0.993
     SPIN  2
     eigenvalues:
       0.079  0.128  0.128  0.196  0.298
     eigenvectors (columns):
      -0.000 -0.000 -0.000 -1.000  0.000
      -0.000 -0.492  0.870  0.000  0.000
      -0.000 -0.870 -0.492  0.000  0.000
       0.969 -0.000  0.000  0.000  0.246
      -0.246  0.000  0.000  0.000  0.969
     occupation matrix ns (before diag.):
       0.196 -0.000 -0.000  0.000  0.000
      -0.000  0.128 -0.000  0.000  0.000
      -0.000 -0.000  0.128  0.000  0.000
       0.000  0.000  0.000  0.092  0.052
       0.000  0.000  0.000  0.052  0.284
     ------------------------ ATOM   15 ------------------------
     Tr[ns( 15)] (up, down, total) =   0.82793  4.97581  5.80373
     Atomic magnetic moment for atom  15 =  -4.14788
     SPIN  1
     eigenvalues:
       0.079  0.128  0.128  0.196  0.298
     eigenvectors (columns):
      -0.000 -0.000 -0.000 -1.000  0.000
      -0.000 -0.549  0.836  0.000  0.000
      -0.000 -0.836 -0.549  0.000  0.000
       0.969 -0.000  0.000  0.000  0.246
      -0.246  0.000  0.000  0.000  0.969
     occupation matrix ns (before diag.):
       0.196 -0.000 -0.000  0.000  0.000
      -0.000  0.128 -0.000  0.000  0.000
      -0.000 -0.000  0.128  0.000  0.000
       0.000  0.000  0.000  0.092  0.052
       0.000  0.000  0.000  0.052  0.284
     SPIN  2
     eigenvalues:
       0.990  0.993  0.998  0.998  0.998
     eigenvectors (columns):
       1.000  0.000 -0.000  0.000 -0.000
       0.000 -0.000  0.626 -0.780 -0.000
       0.000 -0.000  0.780  0.626 -0.000
      -0.000  0.180 -0.000  0.000 -0.984
      -0.000  0.984  0.000  0.000  0.180
     occupation matrix ns (before diag.):
       0.990 -0.000 -0.000  0.000  0.000
      -0.000  0.998 -0.000  0.000  0.000
      -0.000 -0.000  0.998  0.000  0.000
       0.000  0.000  0.000  0.998 -0.001
       0.000  0.000  0.000 -0.001  0.993
     ------------------------ ATOM   16 ------------------------
     Tr[ns( 16)] (up, down, total) =   4.97581  0.82794  5.80375
     Atomic magnetic moment for atom  16 =   4.14786
     SPIN  1
     eigenvalues:
       0.990  0.993  0.998  0.998  0.998
     eigenvectors (columns):
       1.000  0.000 -0.000  0.000 -0.000
       0.000 -0.000  0.592 -0.806 -0.000
       0.000 -0.000  0.806  0.592 -0.000
      -0.000  0.180 -0.000  0.000 -0.984
      -0.000  0.984  0.000  0.000  0.180
     occupation matrix ns (before diag.):
       0.990 -0.000 -0.000  0.000  0.000
      -0.000  0.998 -0.000  0.000  0.000
      -0.000 -0.000  0.998  0.000  0.000
       0.000  0.000  0.000  0.998 -0.001
       0.000  0.000  0.000 -0.001  0.993
     SPIN  2
     eigenvalues:
       0.079  0.128  0.128  0.196  0.298
     eigenvectors (columns):
      -0.000 -0.000 -0.000 -1.000  0.000
      -0.000 -0.690  0.724  0.000  0.000
      -0.000 -0.724 -0.690  0.000  0.000
       0.969 -0.000  0.000  0.000  0.246
      -0.246  0.000  0.000  0.000  0.969
     occupation matrix ns (before diag.):
       0.196 -0.000 -0.000  0.000  0.000
      -0.000  0.128 -0.000  0.000  0.000
      -0.000 -0.000  0.128  0.000  0.000
       0.000  0.000  0.000  0.092  0.052
       0.000  0.000  0.000  0.052  0.284

     Number of occupied Hubbard levels =   44.0842

     HUBBARD ENERGY =    0.8788  (Ry)

     total cpu time spent up to now is      299.6 secs

     total energy              =   -3088.50785607 Ry
     estimated scf accuracy    <       0.00019213 Ry

     total magnetization       =     0.00 Bohr mag/cell
     absolute magnetization    =    38.25 Bohr mag/cell

     iteration # 11     ecut=    90.00 Ry     beta= 0.30
     Davidson diagonalization with overlap

---- Real-time Memory Report at c_bands before calling an iterative solver
          1333 MiB given to the printing process from OS
           836 MiB allocation reported by mallinfo(arena+hblkhd)
        673595 MiB available memory on the node where the printing process lives
------------------
     ethr =  4.89E-08,  avg # of iterations =  2.0

     =================== HUBBARD OCCUPATIONS ===================
     ------------------------ ATOM    9 ------------------------
     Tr[ns(  9)] (up, down, total) =   4.94462  0.27208  5.21670
     Atomic magnetic moment for atom   9 =   4.67253
     SPIN  1
     eigenvalues:
       0.977  0.981  0.995  0.995  0.997
     eigenvectors (columns):
      -1.000  0.000 -0.000 -0.000 -0.000
      -0.000 -0.000  0.624 -0.781 -0.000
      -0.000 -0.000  0.781  0.624 -0.000
      -0.000 -0.267 -0.000 -0.000 -0.964
       0.000  0.964 -0.000  0.000 -0.267
     occupation matrix ns (before diag.):
       0.977 -0.000 -0.000  0.000  0.000
      -0.000  0.995 -0.000  0.000  0.000
      -0.000 -0.000  0.995  0.000  0.000
       0.000  0.000  0.000  0.995  0.004
       0.000  0.000  0.000  0.004  0.982
     SPIN  2
     eigenvalues:
       0.034  0.037  0.037  0.061  0.103
     eigenvectors (columns):
      -0.000 -0.000  0.000  1.000  0.000
      -0.000 -0.509 -0.861 -0.000  0.000
      -0.000 -0.861  0.509 -0.000  0.000
       0.978 -0.000 -0.000  0.000 -0.209
       0.209 -0.000 -0.000 -0.000  0.978
     occupation matrix ns (before diag.):
       0.061 -0.000 -0.000  0.000  0.000
      -0.000  0.037 -0.000  0.000  0.000
      -0.000 -0.000  0.037  0.000  0.000
       0.000  0.000  0.000  0.037 -0.014
       0.000  0.000  0.000 -0.014  0.100
     ------------------------ ATOM   10 ------------------------
     Tr[ns( 10)] (up, down, total) =   0.27205  4.94462  5.21667
     Atomic magnetic moment for atom  10 =  -4.67256
     SPIN  1
     eigenvalues:
       0.034  0.037  0.037  0.061  0.103
     eigenvectors (columns):
      -0.000 -0.000  0.000  1.000  0.000
      -0.000 -0.634 -0.773 -0.000  0.000
      -0.000 -0.773  0.634 -0.000  0.000
       0.978 -0.000  0.000  0.000 -0.209
       0.209 -0.000 -0.000 -0.000  0.978
     occupation matrix ns (before diag.):
       0.061 -0.000 -0.000  0.000  0.000
      -0.000  0.037 -0.000  0.000  0.000
      -0.000 -0.000  0.037  0.000  0.000
       0.000  0.000  0.000  0.037 -0.014
       0.000  0.000  0.000 -0.014  0.100
     SPIN  2
     eigenvalues:
       0.977  0.981  0.995  0.995  0.997
     eigenvectors (columns):
      -1.000  0.000 -0.000  0.000 -0.000
      -0.000 -0.000  0.624 -0.781 -0.000
      -0.000 -0.000  0.781  0.624 -0.000
      -0.000 -0.267 -0.000 -0.000 -0.964
       0.000  0.964 -0.000  0.000 -0.267
     occupation matrix ns (before diag.):
       0.977 -0.000 -0.000  0.000  0.000
      -0.000  0.995 -0.000  0.000  0.000
      -0.000 -0.000  0.995  0.000  0.000
       0.000  0.000  0.000  0.995  0.004
       0.000  0.000  0.000  0.004  0.982
     ------------------------ ATOM   11 ------------------------
     Tr[ns( 11)] (up, down, total) =   4.94462  0.27208  5.21670
     Atomic magnetic moment for atom  11 =   4.67253
     SPIN  1
     eigenvalues:
       0.977  0.981  0.995  0.995  0.997
     eigenvectors (columns):
      -1.000  0.000 -0.000 -0.000 -0.000
      -0.000 -0.000  0.624 -0.781 -0.000
      -0.000 -0.000  0.781  0.624 -0.000
      -0.000 -0.267 -0.000 -0.000 -0.964
       0.000  0.964 -0.000  0.000 -0.267
     occupation matrix ns (before diag.):
       0.977 -0.000 -0.000  0.000  0.000
      -0.000  0.995 -0.000  0.000  0.000
      -0.000 -0.000  0.995  0.000  0.000
       0.000  0.000  0.000  0.995  0.004
       0.000  0.000  0.000  0.004  0.982
     SPIN  2
     eigenvalues:
       0.034  0.037  0.037  0.061  0.103
     eigenvectors (columns):
      -0.000 -0.000  0.000  1.000  0.000
      -0.000 -0.515 -0.857 -0.000  0.000
      -0.000 -0.857  0.515 -0.000  0.000
       0.978 -0.000 -0.000  0.000 -0.209
       0.209 -0.000 -0.000 -0.000  0.978
     occupation matrix ns (before diag.):
       0.061 -0.000 -0.000  0.000  0.000
      -0.000  0.037 -0.000  0.000  0.000
      -0.000 -0.000  0.037  0.000  0.000
       0.000  0.000  0.000  0.037 -0.014
       0.000  0.000  0.000 -0.014  0.100
     ------------------------ ATOM   12 ------------------------
     Tr[ns( 12)] (up, down, total) =   0.27205  4.94462  5.21667
     Atomic magnetic moment for atom  12 =  -4.67256
     SPIN  1
     eigenvalues:
       0.034  0.037  0.037  0.061  0.103
     eigenvectors (columns):
      -0.000 -0.000  0.000  1.000  0.000
      -0.000 -0.718 -0.696 -0.000  0.000
      -0.000 -0.696  0.718 -0.000  0.000
       0.978 -0.000  0.000  0.000 -0.209
       0.209 -0.000 -0.000 -0.000  0.978
     occupation matrix ns (before diag.):
       0.061 -0.000 -0.000  0.000  0.000
      -0.000  0.037 -0.000  0.000  0.000
      -0.000 -0.000  0.037  0.000  0.000
       0.000  0.000  0.000  0.037 -0.014
       0.000  0.000  0.000 -0.014  0.100
     SPIN  2
     eigenvalues:
       0.977  0.981  0.995  0.995  0.997
     eigenvectors (columns):
      -1.000  0.000 -0.000  0.000 -0.000
      -0.000 -0.000  0.624 -0.781 -0.000
      -0.000 -0.000  0.781  0.624 -0.000
      -0.000 -0.267 -0.000 -0.000 -0.964
       0.000  0.964 -0.000  0.000 -0.267
     occupation matrix ns (before diag.):
       0.977 -0.000 -0.000  0.000  0.000
      -0.000  0.995 -0.000  0.000  0.000
      -0.000 -0.000  0.995  0.000  0.000
       0.000  0.000  0.000  0.995  0.004
       0.000  0.000  0.000  0.004  0.982
     ------------------------ ATOM   13 ------------------------
     Tr[ns( 13)] (up, down, total) =   0.83015  4.97583  5.80598
     Atomic magnetic moment for atom  13 =  -4.14568
     SPIN  1
     eigenvalues:
       0.079  0.128  0.128  0.197  0.298
     eigenvectors (columns):
      -0.000 -0.000 -0.000 -1.000  0.000
      -0.000 -0.606  0.796  0.000  0.000
      -0.000 -0.796 -0.606  0.000  0.000
       0.969 -0.000  0.000  0.000  0.246
      -0.246  0.000  0.000  0.000  0.969
     occupation matrix ns (before diag.):
       0.197 -0.000 -0.000  0.000  0.000
      -0.000  0.128 -0.000  0.000  0.000
      -0.000 -0.000  0.128  0.000  0.000
       0.000  0.000  0.000  0.093  0.052
       0.000  0.000  0.000  0.052  0.285
     SPIN  2
     eigenvalues:
       0.990  0.993  0.998  0.998  0.998
     eigenvectors (columns):
       1.000  0.000 -0.000  0.000 -0.000
       0.000 -0.000  0.525 -0.851 -0.000
       0.000 -0.000  0.851  0.525 -0.000
      -0.000  0.180 -0.000  0.000 -0.984
      -0.000  0.984  0.000 -0.000  0.180
     occupation matrix ns (before diag.):
       0.990 -0.000 -0.000  0.000  0.000
      -0.000  0.998 -0.000  0.000  0.000
      -0.000 -0.000  0.998  0.000  0.000
       0.000  0.000  0.000  0.998 -0.001
       0.000  0.000  0.000 -0.001  0.993
     ------------------------ ATOM   14 ------------------------
     Tr[ns( 14)] (up, down, total) =   4.97583  0.83014  5.80597
     Atomic magnetic moment for atom  14 =   4.14569
     SPIN  1
     eigenvalues:
       0.990  0.993  0.998  0.998  0.998
     eigenvectors (columns):
       1.000  0.000 -0.000 -0.000 -0.000
       0.000 -0.000  0.553  0.833 -0.000
       0.000 -0.000  0.833 -0.553 -0.000
      -0.000  0.180 -0.000 -0.000 -0.984
      -0.000  0.984  0.000  0.000  0.180
     occupation matrix ns (before diag.):
       0.990 -0.000 -0.000  0.000  0.000
      -0.000  0.998 -0.000  0.000  0.000
      -0.000 -0.000  0.998  0.000  0.000
       0.000  0.000  0.000  0.998 -0.001
       0.000  0.000  0.000 -0.001  0.993
     SPIN  2
     eigenvalues:
       0.079  0.128  0.128  0.197  0.298
     eigenvectors (columns):
      -0.000 -0.000 -0.000 -1.000  0.000
      -0.000 -0.480  0.877  0.000  0.000
      -0.000 -0.877 -0.480  0.000  0.000
       0.969 -0.000  0.000  0.000  0.246
      -0.246  0.000  0.000  0.000  0.969
     occupation matrix ns (before diag.):
       0.197 -0.000 -0.000  0.000  0.000
      -0.000  0.128 -0.000  0.000  0.000
      -0.000 -0.000  0.128  0.000  0.000
       0.000  0.000  0.000  0.093  0.052
       0.000  0.000  0.000  0.052  0.285
     ------------------------ ATOM   15 ------------------------
     Tr[ns( 15)] (up, down, total) =   0.83015  4.97583  5.80598
     Atomic magnetic moment for atom  15 =  -4.14568
     SPIN  1
     eigenvalues:
       0.079  0.128  0.128  0.197  0.298
     eigenvectors (columns):
      -0.000 -0.000 -0.000 -1.000  0.000
      -0.000 -0.476  0.880  0.000  0.000
      -0.000 -0.880 -0.476  0.000  0.000
       0.969 -0.000  0.000  0.000  0.246
      -0.246  0.000  0.000  0.000  0.969
     occupation matrix ns (before diag.):
       0.197 -0.000 -0.000  0.000  0.000
      -0.000  0.128 -0.000  0.000  0.000
      -0.000 -0.000  0.128  0.000  0.000
       0.000  0.000  0.000  0.093  0.052
       0.000  0.000  0.000  0.052  0.285
     SPIN  2
     eigenvalues:
       0.990  0.993  0.998  0.998  0.998
     eigenvectors (columns):
       1.000  0.000 -0.000  0.000 -0.000
       0.000 -0.000  0.646 -0.763 -0.000
       0.000 -0.000  0.763  0.646 -0.000
      -0.000  0.180 -0.000  0.000 -0.984
      -0.000  0.984  0.000  0.000  0.180
     occupation matrix ns (before diag.):
       0.990 -0.000 -0.000  0.000  0.000
      -0.000  0.998 -0.000  0.000  0.000
      -0.000 -0.000  0.998  0.000  0.000
       0.000  0.000  0.000  0.998 -0.001
       0.000  0.000  0.000 -0.001  0.993
     ------------------------ ATOM   16 ------------------------
     Tr[ns( 16)] (up, down, total) =   4.97583  0.83014  5.80597
     Atomic magnetic moment for atom  16 =   4.14569
     SPIN  1
     eigenvalues:
       0.990  0.993  0.998  0.998  0.998
     eigenvectors (columns):
       1.000  0.000 -0.000  0.000 -0.000
       0.000 -0.000  0.622 -0.783 -0.000
       0.000 -0.000  0.783  0.622 -0.000
      -0.000  0.180 -0.000  0.000 -0.984
      -0.000  0.984  0.000  0.000  0.180
     occupation matrix ns (before diag.):
       0.990 -0.000 -0.000  0.000  0.000
      -0.000  0.998 -0.000  0.000  0.000
      -0.000 -0.000  0.998  0.000  0.000
       0.000  0.000  0.000  0.998 -0.001
       0.000  0.000  0.000 -0.001  0.993
     SPIN  2
     eigenvalues:
       0.079  0.128  0.128  0.197  0.298
     eigenvectors (columns):
      -0.000 -0.000  0.000 -1.000  0.000
      -0.000 -0.394  0.919  0.000  0.000
      -0.000 -0.919 -0.394  0.000  0.000
       0.969 -0.000  0.000  0.000  0.246
      -0.246  0.000  0.000  0.000  0.969
     occupation matrix ns (before diag.):
       0.197 -0.000 -0.000  0.000  0.000
      -0.000  0.128 -0.000  0.000  0.000
      -0.000 -0.000  0.128  0.000  0.000
       0.000  0.000  0.000  0.093  0.052
       0.000  0.000  0.000  0.052  0.285

     Number of occupied Hubbard levels =   44.0906

     HUBBARD ENERGY =    0.8780  (Ry)

     total cpu time spent up to now is      326.3 secs

     total energy              =   -3088.50787444 Ry
     estimated scf accuracy    <       0.00002032 Ry

     total magnetization       =     0.00 Bohr mag/cell
     absolute magnetization    =    38.25 Bohr mag/cell

     iteration # 12     ecut=    90.00 Ry     beta= 0.30
     Davidson diagonalization with overlap

---- Real-time Memory Report at c_bands before calling an iterative solver
          1333 MiB given to the printing process from OS
           836 MiB allocation reported by mallinfo(arena+hblkhd)
        673472 MiB available memory on the node where the printing process lives
------------------
     ethr =  6.20E-09,  avg # of iterations =  2.5

     =================== HUBBARD OCCUPATIONS ===================
     ------------------------ ATOM    9 ------------------------
     Tr[ns(  9)] (up, down, total) =   4.94457  0.27211  5.21668
     Atomic magnetic moment for atom   9 =   4.67246
     SPIN  1
     eigenvalues:
       0.977  0.981  0.995  0.995  0.997
     eigenvectors (columns):
       1.000  0.000 -0.000  0.000 -0.000
       0.000 -0.000  0.679  0.734 -0.000
       0.000 -0.000  0.734 -0.679 -0.000
       0.000 -0.267 -0.000  0.000 -0.964
      -0.000  0.964 -0.000  0.000 -0.267
     occupation matrix ns (before diag.):
       0.977 -0.000 -0.000  0.000  0.000
      -0.000  0.995 -0.000  0.000  0.000
      -0.000 -0.000  0.995  0.000  0.000
       0.000  0.000  0.000  0.995  0.004
       0.000  0.000  0.000  0.004  0.982
     SPIN  2
     eigenvalues:
       0.034  0.037  0.037  0.061  0.103
     eigenvectors (columns):
      -0.000 -0.000  0.000  1.000  0.000
      -0.000 -0.547 -0.837 -0.000  0.000
      -0.000 -0.837  0.547 -0.000  0.000
       0.978 -0.000 -0.000  0.000 -0.209
       0.209 -0.000 -0.000 -0.000  0.978
     occupation matrix ns (before diag.):
       0.061 -0.000 -0.000  0.000  0.000
      -0.000  0.037 -0.000  0.000  0.000
      -0.000 -0.000  0.037  0.000  0.000
       0.000  0.000  0.000  0.037 -0.014
       0.000  0.000  0.000 -0.014  0.100
     ------------------------ ATOM   10 ------------------------
     Tr[ns( 10)] (up, down, total) =   0.27209  4.94457  5.21667
     Atomic magnetic moment for atom  10 =  -4.67248
     SPIN  1
     eigenvalues:
       0.034  0.037  0.037  0.061  0.103
     eigenvectors (columns):
      -0.000 -0.000  0.000  1.000  0.000
      -0.000 -0.559 -0.829 -0.000  0.000
      -0.000 -0.829  0.559 -0.000  0.000
       0.978 -0.000  0.000  0.000 -0.209
       0.209 -0.000 -0.000 -0.000  0.978
     occupation matrix ns (before diag.):
       0.061 -0.000 -0.000  0.000  0.000
      -0.000  0.037 -0.000  0.000  0.000
      -0.000 -0.000  0.037  0.000  0.000
       0.000  0.000  0.000  0.037 -0.014
       0.000  0.000  0.000 -0.014  0.100
     SPIN  2
     eigenvalues:
       0.977  0.981  0.995  0.995  0.997
     eigenvectors (columns):
      -1.000  0.000 -0.000  0.000 -0.000
      -0.000 -0.000  0.624 -0.781 -0.000
      -0.000 -0.000  0.781  0.624 -0.000
      -0.000 -0.267 -0.000 -0.000 -0.964
       0.000  0.964 -0.000  0.000 -0.267
     occupation matrix ns (before diag.):
       0.977 -0.000 -0.000  0.000  0.000
      -0.000  0.995 -0.000  0.000  0.000
      -0.000 -0.000  0.995  0.000  0.000
       0.000  0.000  0.000  0.995  0.004
       0.000  0.000  0.000  0.004  0.982
     ------------------------ ATOM   11 ------------------------
     Tr[ns( 11)] (up, down, total) =   4.94457  0.27211  5.21668
     Atomic magnetic moment for atom  11 =   4.67246
     SPIN  1
     eigenvalues:
       0.977  0.981  0.995  0.995  0.997
     eigenvectors (columns):
       1.000  0.000 -0.000 -0.000 -0.000
       0.000 -0.000  0.567  0.824 -0.000
       0.000 -0.000  0.824 -0.567 -0.000
       0.000 -0.267 -0.000  0.000 -0.964
      -0.000  0.964 -0.000 -0.000 -0.267
     occupation matrix ns (before diag.):
       0.977 -0.000 -0.000  0.000  0.000
      -0.000  0.995 -0.000  0.000  0.000
      -0.000 -0.000  0.995  0.000  0.000
       0.000  0.000  0.000  0.995  0.004
       0.000  0.000  0.000  0.004  0.982
     SPIN  2
     eigenvalues:
       0.034  0.037  0.037  0.061  0.103
     eigenvectors (columns):
      -0.000 -0.000  0.000  1.000  0.000
      -0.000 -0.725 -0.689 -0.000  0.000
      -0.000 -0.689  0.725 -0.000  0.000
       0.978 -0.000  0.000  0.000 -0.209
       0.209 -0.000 -0.000 -0.000  0.978
     occupation matrix ns (before diag.):
       0.061 -0.000 -0.000  0.000  0.000
      -0.000  0.037 -0.000  0.000  0.000
      -0.000 -0.000  0.037  0.000  0.000
       0.000  0.000  0.000  0.037 -0.014
       0.000  0.000  0.000 -0.014  0.100
     ------------------------ ATOM   12 ------------------------
     Tr[ns( 12)] (up, down, total) =   0.27209  4.94457  5.21667
     Atomic magnetic moment for atom  12 =  -4.67248
     SPIN  1
     eigenvalues:
       0.034  0.037  0.037  0.061  0.103
     eigenvectors (columns):
      -0.000 -0.000  0.000  1.000  0.000
      -0.000 -0.605 -0.796 -0.000  0.000
      -0.000 -0.796  0.605 -0.000  0.000
       0.978 -0.000  0.000  0.000 -0.209
       0.209 -0.000 -0.000 -0.000  0.978
     occupation matrix ns (before diag.):
       0.061 -0.000 -0.000  0.000  0.000
      -0.000  0.037 -0.000  0.000  0.000
      -0.000 -0.000  0.037  0.000  0.000
       0.000  0.000  0.000  0.037 -0.014
       0.000  0.000  0.000 -0.014  0.100
     SPIN  2
     eigenvalues:
       0.977  0.981  0.995  0.995  0.997
     eigenvectors (columns):
      -1.000  0.000 -0.000  0.000 -0.000
      -0.000 -0.000  0.624 -0.781 -0.000
      -0.000 -0.000  0.781  0.624 -0.000
      -0.000 -0.267 -0.000 -0.000 -0.964
       0.000  0.964 -0.000  0.000 -0.267
     occupation matrix ns (before diag.):
       0.977 -0.000 -0.000  0.000  0.000
      -0.000  0.995 -0.000  0.000  0.000
      -0.000 -0.000  0.995  0.000  0.000
       0.000  0.000  0.000  0.995  0.004
       0.000  0.000  0.000  0.004  0.982
     ------------------------ ATOM   13 ------------------------
     Tr[ns( 13)] (up, down, total) =   0.83090  4.97582  5.80672
     Atomic magnetic moment for atom  13 =  -4.14492
     SPIN  1
     eigenvalues:
       0.079  0.128  0.128  0.197  0.298
     eigenvectors (columns):
      -0.000 -0.000 -0.000 -1.000  0.000
      -0.000 -0.543  0.839  0.000  0.000
      -0.000 -0.839 -0.543  0.000  0.000
       0.969 -0.000  0.000  0.000  0.246
      -0.246  0.000  0.000  0.000  0.969
     occupation matrix ns (before diag.):
       0.197 -0.000 -0.000  0.000  0.000
      -0.000  0.128 -0.000  0.000  0.000
      -0.000 -0.000  0.128  0.000  0.000
       0.000  0.000  0.000  0.093  0.052
       0.000  0.000  0.000  0.052  0.285
     SPIN  2
     eigenvalues:
       0.990  0.993  0.997  0.997  0.998
     eigenvectors (columns):
       1.000  0.000 -0.000 -0.000 -0.000
       0.000 -0.000  0.595 -0.804 -0.000
       0.000 -0.000  0.804  0.595 -0.000
      -0.000  0.180 -0.000  0.000 -0.984
      -0.000  0.984  0.000  0.000  0.180
     occupation matrix ns (before diag.):
       0.990 -0.000 -0.000  0.000  0.000
      -0.000  0.997 -0.000  0.000  0.000
      -0.000 -0.000  0.997  0.000  0.000
       0.000  0.000  0.000  0.998 -0.001
       0.000  0.000  0.000 -0.001  0.993
     ------------------------ ATOM   14 ------------------------
     Tr[ns( 14)] (up, down, total) =   4.97582  0.83090  5.80672
     Atomic magnetic moment for atom  14 =   4.14493
     SPIN  1
     eigenvalues:
       0.990  0.993  0.997  0.997  0.998
     eigenvectors (columns):
       1.000  0.000 -0.000 -0.000 -0.000
       0.000 -0.000  0.553  0.833 -0.000
       0.000 -0.000  0.833 -0.553 -0.000
      -0.000  0.180 -0.000 -0.000 -0.984
      -0.000  0.984  0.000  0.000  0.180
     occupation matrix ns (before diag.):
       0.990 -0.000 -0.000  0.000  0.000
      -0.000  0.997 -0.000  0.000  0.000
      -0.000 -0.000  0.997  0.000  0.000
       0.000  0.000  0.000  0.998 -0.001
       0.000  0.000  0.000 -0.001  0.993
     SPIN  2
     eigenvalues:
       0.079  0.128  0.128  0.197  0.298
     eigenvectors (columns):
      -0.000 -0.000 -0.000 -1.000  0.000
      -0.000 -0.559  0.829  0.000  0.000
      -0.000 -0.829 -0.559  0.000  0.000
       0.969 -0.000  0.000  0.000  0.246
      -0.246  0.000  0.000  0.000  0.969
     occupation matrix ns (before diag.):
       0.197 -0.000 -0.000  0.000  0.000
      -0.000  0.128 -0.000  0.000  0.000
      -0.000 -0.000  0.128  0.000  0.000
       0.000  0.000  0.000  0.093  0.052
       0.000  0.000  0.000  0.052  0.285
     ------------------------ ATOM   15 ------------------------
     Tr[ns( 15)] (up, down, total) =   0.83090  4.97582  5.80672
     Atomic magnetic moment for atom  15 =  -4.14492
     SPIN  1
     eigenvalues:
       0.079  0.128  0.128  0.197  0.298
     eigenvectors (columns):
      -0.000 -0.000 -0.000 -1.000  0.000
      -0.000 -0.453  0.891  0.000  0.000
      -0.000 -0.891 -0.453  0.000  0.000
       0.969 -0.000  0.000  0.000  0.246
      -0.246  0.000  0.000  0.000  0.969
     occupation matrix ns (before diag.):
       0.197 -0.000 -0.000  0.000  0.000
      -0.000  0.128 -0.000  0.000  0.000
      -0.000 -0.000  0.128  0.000  0.000
       0.000  0.000  0.000  0.093  0.052
       0.000  0.000  0.000  0.052  0.285
     SPIN  2
     eigenvalues:
       0.990  0.993  0.997  0.997  0.998
     eigenvectors (columns):
       1.000  0.000 -0.000 -0.000 -0.000
       0.000 -0.000  0.656 -0.755 -0.000
       0.000 -0.000  0.755  0.656 -0.000
      -0.000  0.180 -0.000  0.000 -0.984
      -0.000  0.984  0.000  0.000  0.180
     occupation matrix ns (before diag.):
       0.990 -0.000 -0.000  0.000  0.000
      -0.000  0.997 -0.000  0.000  0.000
      -0.000 -0.000  0.997  0.000  0.000
       0.000  0.000  0.000  0.998 -0.001
       0.000  0.000  0.000 -0.001  0.993
     ------------------------ ATOM   16 ------------------------
     Tr[ns( 16)] (up, down, total) =   4.97582  0.83090  5.80672
     Atomic magnetic moment for atom  16 =   4.14493
     SPIN  1
     eigenvalues:
       0.990  0.993  0.997  0.997  0.998
     eigenvectors (columns):
       1.000  0.000 -0.000 -0.000 -0.000
       0.000 -0.000  0.587 -0.809 -0.000
       0.000 -0.000  0.809  0.587 -0.000
      -0.000  0.180 -0.000  0.000 -0.984
      -0.000  0.984  0.000  0.000  0.180
     occupation matrix ns (before diag.):
       0.990 -0.000 -0.000  0.000  0.000
      -0.000  0.997 -0.000  0.000  0.000
      -0.000 -0.000  0.997  0.000  0.000
       0.000  0.000  0.000  0.998 -0.001
       0.000  0.000  0.000 -0.001  0.993
     SPIN  2
     eigenvalues:
       0.079  0.128  0.128  0.197  0.298
     eigenvectors (columns):
      -0.000 -0.000 -0.000 -1.000  0.000
      -0.000 -0.581  0.814  0.000  0.000
      -0.000 -0.814 -0.581  0.000  0.000
       0.969 -0.000  0.000  0.000  0.246
      -0.246  0.000  0.000  0.000  0.969
     occupation matrix ns (before diag.):
       0.197 -0.000 -0.000  0.000  0.000
      -0.000  0.128 -0.000  0.000  0.000
      -0.000 -0.000  0.128  0.000  0.000
       0.000  0.000  0.000  0.093  0.052
       0.000  0.000  0.000  0.052  0.285

     Number of occupied Hubbard levels =   44.0936

     HUBBARD ENERGY =    0.8784  (Ry)

     total cpu time spent up to now is      352.9 secs

     total energy              =   -3088.50787433 Ry
     estimated scf accuracy    <       0.00001006 Ry

     total magnetization       =     0.00 Bohr mag/cell
     absolute magnetization    =    38.24 Bohr mag/cell

     iteration # 13     ecut=    90.00 Ry     beta= 0.30
     Davidson diagonalization with overlap

---- Real-time Memory Report at c_bands before calling an iterative solver
          1333 MiB given to the printing process from OS
           836 MiB allocation reported by mallinfo(arena+hblkhd)
        673445 MiB available memory on the node where the printing process lives
------------------
     ethr =  3.07E-09,  avg # of iterations =  2.6

     =================== HUBBARD OCCUPATIONS ===================
     ------------------------ ATOM    9 ------------------------
     Tr[ns(  9)] (up, down, total) =   4.94457  0.27209  5.21666
     Atomic magnetic moment for atom   9 =   4.67248
     SPIN  1
     eigenvalues:
       0.977  0.981  0.995  0.995  0.997
     eigenvectors (columns):
      -1.000  0.000 -0.000  0.000 -0.000
      -0.000 -0.000  0.624 -0.781 -0.000
      -0.000 -0.000  0.781  0.624 -0.000
      -0.000 -0.267 -0.000 -0.000 -0.964
       0.000  0.964 -0.000  0.000 -0.267
     occupation matrix ns (before diag.):
       0.977 -0.000 -0.000  0.000  0.000
      -0.000  0.995 -0.000  0.000  0.000
      -0.000 -0.000  0.995  0.000  0.000
       0.000  0.000  0.000  0.995  0.004
       0.000  0.000  0.000  0.004  0.982
     SPIN  2
     eigenvalues:
       0.034  0.037  0.037  0.061  0.103
     eigenvectors (columns):
      -0.000 -0.000 -0.000  1.000  0.000
      -0.000 -0.476 -0.879 -0.000  0.000
      -0.000 -0.879  0.476 -0.000  0.000
       0.978 -0.000 -0.000  0.000 -0.209
       0.209 -0.000 -0.000 -0.000  0.978
     occupation matrix ns (before diag.):
       0.061 -0.000 -0.000  0.000  0.000
      -0.000  0.037 -0.000  0.000  0.000
      -0.000 -0.000  0.037  0.000  0.000
       0.000  0.000  0.000  0.037 -0.014
       0.000  0.000  0.000 -0.014  0.100
     ------------------------ ATOM   10 ------------------------
     Tr[ns( 10)] (up, down, total) =   0.27208  4.94457  5.21665
     Atomic magnetic moment for atom  10 =  -4.67249
     SPIN  1
     eigenvalues:
       0.034  0.037  0.037  0.061  0.103
     eigenvectors (columns):
      -0.000 -0.000  0.000  1.000  0.000
      -0.000 -0.531 -0.847 -0.000  0.000
      -0.000 -0.847  0.531 -0.000  0.000
       0.978 -0.000 -0.000  0.000 -0.209
       0.209 -0.000 -0.000 -0.000  0.978
     occupation matrix ns (before diag.):
       0.061 -0.000 -0.000  0.000  0.000
      -0.000  0.037 -0.000  0.000  0.000
      -0.000 -0.000  0.037  0.000  0.000
       0.000  0.000  0.000  0.037 -0.014
       0.000  0.000  0.000 -0.014  0.100
     SPIN  2
     eigenvalues:
       0.977  0.981  0.995  0.995  0.997
     eigenvectors (columns):
      -1.000  0.000 -0.000 -0.000 -0.000
      -0.000 -0.000  0.624 -0.781 -0.000
      -0.000 -0.000  0.781  0.624 -0.000
      -0.000 -0.267 -0.000 -0.000 -0.964
       0.000  0.964 -0.000  0.000 -0.267
     occupation matrix ns (before diag.):
       0.977 -0.000 -0.000  0.000  0.000
      -0.000  0.995 -0.000  0.000  0.000
      -0.000 -0.000  0.995  0.000  0.000
       0.000  0.000  0.000  0.995  0.004
       0.000  0.000  0.000  0.004  0.982
     ------------------------ ATOM   11 ------------------------
     Tr[ns( 11)] (up, down, total) =   4.94457  0.27209  5.21666
     Atomic magnetic moment for atom  11 =   4.67248
     SPIN  1
     eigenvalues:
       0.977  0.981  0.995  0.995  0.997
     eigenvectors (columns):
       1.000  0.000 -0.000  0.000 -0.000
       0.000 -0.000  0.691  0.723 -0.000
       0.000 -0.000  0.723 -0.691 -0.000
       0.000 -0.267 -0.000  0.000 -0.964
      -0.000  0.964 -0.000  0.000 -0.267
     occupation matrix ns (before diag.):
       0.977 -0.000 -0.000  0.000  0.000
      -0.000  0.995 -0.000  0.000  0.000
      -0.000 -0.000  0.995  0.000  0.000
       0.000  0.000  0.000  0.995  0.004
       0.000  0.000  0.000  0.004  0.982
     SPIN  2
     eigenvalues:
       0.034  0.037  0.037  0.061  0.103
     eigenvectors (columns):
      -0.000 -0.000  0.000  1.000  0.000
      -0.000 -0.534 -0.845 -0.000  0.000
      -0.000 -0.845  0.534 -0.000  0.000
       0.978 -0.000 -0.000  0.000 -0.209
       0.209 -0.000 -0.000 -0.000  0.978
     occupation matrix ns (before diag.):
       0.061 -0.000 -0.000  0.000  0.000
      -0.000  0.037 -0.000  0.000  0.000
      -0.000 -0.000  0.037  0.000  0.000
       0.000  0.000  0.000  0.037 -0.014
       0.000  0.000  0.000 -0.014  0.100
     ------------------------ ATOM   12 ------------------------
     Tr[ns( 12)] (up, down, total) =   0.27208  4.94457  5.21665
     Atomic magnetic moment for atom  12 =  -4.67249
     SPIN  1
     eigenvalues:
       0.034  0.037  0.037  0.061  0.103
     eigenvectors (columns):
      -0.000 -0.000  0.000  1.000  0.000
      -0.000 -0.485 -0.874 -0.000  0.000
      -0.000 -0.874  0.485 -0.000  0.000
       0.978 -0.000 -0.000  0.000 -0.209
       0.209 -0.000 -0.000 -0.000  0.978
     occupation matrix ns (before diag.):
       0.061 -0.000 -0.000  0.000  0.000
      -0.000  0.037 -0.000  0.000  0.000
      -0.000 -0.000  0.037  0.000  0.000
       0.000  0.000  0.000  0.037 -0.014
       0.000  0.000  0.000 -0.014  0.100
     SPIN  2
     eigenvalues:
       0.977  0.981  0.995  0.995  0.997
     eigenvectors (columns):
      -1.000  0.000 -0.000  0.000 -0.000
      -0.000 -0.000  0.624 -0.781 -0.000
      -0.000 -0.000  0.781  0.624 -0.000
      -0.000 -0.267 -0.000 -0.000 -0.964
       0.000  0.964 -0.000  0.000 -0.267
     occupation matrix ns (before diag.):
       0.977 -0.000 -0.000  0.000  0.000
      -0.000  0.995 -0.000  0.000  0.000
      -0.000 -0.000  0.995  0.000  0.000
       0.000  0.000  0.000  0.995  0.004
       0.000  0.000  0.000  0.004  0.982
     ------------------------ ATOM   13 ------------------------
     Tr[ns( 13)] (up, down, total) =   0.83073  4.97583  5.80656
     Atomic magnetic moment for atom  13 =  -4.14510
     SPIN  1
     eigenvalues:
       0.079  0.128  0.128  0.197  0.298
     eigenvectors (columns):
      -0.000 -0.000 -0.000 -1.000  0.000
      -0.000 -0.613  0.790  0.000  0.000
      -0.000 -0.790 -0.613  0.000  0.000
       0.969 -0.000  0.000  0.000  0.246
      -0.246  0.000  0.000  0.000  0.969
     occupation matrix ns (before diag.):
       0.197 -0.000 -0.000  0.000  0.000
      -0.000  0.128 -0.000  0.000  0.000
      -0.000 -0.000  0.128  0.000  0.000
       0.000  0.000  0.000  0.093  0.052
       0.000  0.000  0.000  0.052  0.285
     SPIN  2
     eigenvalues:
       0.990  0.993  0.997  0.997  0.998
     eigenvectors (columns):
       1.000  0.000 -0.000 -0.000 -0.000
       0.000 -0.000  0.553  0.833 -0.000
       0.000 -0.000  0.833 -0.553 -0.000
      -0.000  0.180 -0.000 -0.000 -0.984
      -0.000  0.984  0.000  0.000  0.180
     occupation matrix ns (before diag.):
       0.990 -0.000 -0.000  0.000  0.000
      -0.000  0.997 -0.000  0.000  0.000
      -0.000 -0.000  0.997  0.000  0.000
       0.000  0.000  0.000  0.998 -0.001
       0.000  0.000  0.000 -0.001  0.993
     ------------------------ ATOM   14 ------------------------
     Tr[ns( 14)] (up, down, total) =   4.97583  0.83073  5.80656
     Atomic magnetic moment for atom  14 =   4.14510
     SPIN  1
     eigenvalues:
       0.990  0.993  0.997  0.997  0.998
     eigenvectors (columns):
       1.000  0.000 -0.000  0.000 -0.000
       0.000 -0.000  0.646 -0.764 -0.000
       0.000 -0.000  0.764  0.646 -0.000
      -0.000  0.180 -0.000  0.000 -0.984
      -0.000  0.984  0.000  0.000  0.180
     occupation matrix ns (before diag.):
       0.990 -0.000 -0.000  0.000  0.000
      -0.000  0.997 -0.000  0.000  0.000
      -0.000 -0.000  0.997  0.000  0.000
       0.000  0.000  0.000  0.998 -0.001
       0.000  0.000  0.000 -0.001  0.993
     SPIN  2
     eigenvalues:
       0.079  0.128  0.128  0.197  0.298
     eigenvectors (columns):
      -0.000 -0.000 -0.000 -1.000  0.000
      -0.000 -0.500  0.866  0.000  0.000
      -0.000 -0.866 -0.500  0.000  0.000
       0.969 -0.000  0.000  0.000  0.246
      -0.246  0.000  0.000  0.000  0.969
     occupation matrix ns (before diag.):
       0.197 -0.000 -0.000  0.000  0.000
      -0.000  0.128 -0.000  0.000  0.000
      -0.000 -0.000  0.128  0.000  0.000
       0.000  0.000  0.000  0.093  0.052
       0.000  0.000  0.000  0.052  0.285
     ------------------------ ATOM   15 ------------------------
     Tr[ns( 15)] (up, down, total) =   0.83073  4.97583  5.80656
     Atomic magnetic moment for atom  15 =  -4.14510
     SPIN  1
     eigenvalues:
       0.079  0.128  0.128  0.197  0.298
     eigenvectors (columns):
      -0.000 -0.000 -0.000 -1.000  0.000
      -0.000 -0.448  0.894  0.000  0.000
      -0.000 -0.894 -0.448  0.000  0.000
       0.969 -0.000  0.000  0.000  0.246
      -0.246  0.000  0.000  0.000  0.969
     occupation matrix ns (before diag.):
       0.197 -0.000 -0.000  0.000  0.000
      -0.000  0.128 -0.000  0.000  0.000
      -0.000 -0.000  0.128  0.000  0.000
       0.000  0.000  0.000  0.093  0.052
       0.000  0.000  0.000  0.052  0.285
     SPIN  2
     eigenvalues:
       0.990  0.993  0.997  0.997  0.998
     eigenvectors (columns):
       1.000  0.000 -0.000 -0.000 -0.000
       0.000 -0.000  0.602 -0.799 -0.000
       0.000 -0.000  0.799  0.602 -0.000
      -0.000  0.180 -0.000  0.000 -0.984
      -0.000  0.984  0.000  0.000  0.180
     occupation matrix ns (before diag.):
       0.990 -0.000 -0.000  0.000  0.000
      -0.000  0.997 -0.000  0.000  0.000
      -0.000 -0.000  0.997  0.000  0.000
       0.000  0.000  0.000  0.998 -0.001
       0.000  0.000  0.000 -0.001  0.993
     ------------------------ ATOM   16 ------------------------
     Tr[ns( 16)] (up, down, total) =   4.97583  0.83073  5.80656
     Atomic magnetic moment for atom  16 =   4.14510
     SPIN  1
     eigenvalues:
       0.990  0.993  0.997  0.997  0.998
     eigenvectors (columns):
       1.000  0.000 -0.000 -0.000 -0.000
       0.000 -0.000  0.594 -0.805 -0.000
       0.000 -0.000  0.805  0.594 -0.000
      -0.000  0.180 -0.000  0.000 -0.984
      -0.000  0.984  0.000  0.000  0.180
     occupation matrix ns (before diag.):
       0.990 -0.000 -0.000  0.000  0.000
      -0.000  0.997 -0.000  0.000  0.000
      -0.000 -0.000  0.997  0.000  0.000
       0.000  0.000  0.000  0.998 -0.001
       0.000  0.000  0.000 -0.001  0.993
     SPIN  2
     eigenvalues:
       0.079  0.128  0.128  0.197  0.298
     eigenvectors (columns):
      -0.000 -0.000 -0.000 -1.000  0.000
      -0.000 -0.643  0.766  0.000  0.000
      -0.000 -0.766 -0.643  0.000  0.000
       0.969 -0.000  0.000  0.000  0.246
      -0.246  0.000  0.000  0.000  0.969
     occupation matrix ns (before diag.):
       0.197 -0.000 -0.000  0.000  0.000
      -0.000  0.128 -0.000  0.000  0.000
      -0.000 -0.000  0.128  0.000  0.000
       0.000  0.000  0.000  0.093  0.052
       0.000  0.000  0.000  0.052  0.285

     Number of occupied Hubbard levels =   44.0928

     HUBBARD ENERGY =    0.8786  (Ry)

     total cpu time spent up to now is      379.3 secs

     total energy              =   -3088.50787492 Ry
     estimated scf accuracy    <       0.00000186 Ry

     total magnetization       =     0.00 Bohr mag/cell
     absolute magnetization    =    38.25 Bohr mag/cell

     iteration # 14     ecut=    90.00 Ry     beta= 0.30
     Davidson diagonalization with overlap

---- Real-time Memory Report at c_bands before calling an iterative solver
          1333 MiB given to the printing process from OS
           836 MiB allocation reported by mallinfo(arena+hblkhd)
        673526 MiB available memory on the node where the printing process lives
------------------
     ethr =  5.68E-10,  avg # of iterations =  5.8

     =================== HUBBARD OCCUPATIONS ===================
     ------------------------ ATOM    9 ------------------------
     Tr[ns(  9)] (up, down, total) =   4.94456  0.27202  5.21658
     Atomic magnetic moment for atom   9 =   4.67254
     SPIN  1
     eigenvalues:
       0.977  0.981  0.995  0.995  0.997
     eigenvectors (columns):
      -1.000  0.000 -0.000 -0.000 -0.000
      -0.000 -0.000  0.624 -0.781 -0.000
      -0.000 -0.000  0.781  0.624 -0.000
      -0.000 -0.267 -0.000 -0.000 -0.964
       0.000  0.964 -0.000  0.000 -0.267
     occupation matrix ns (before diag.):
       0.977 -0.000 -0.000  0.000  0.000
      -0.000  0.995 -0.000  0.000  0.000
      -0.000 -0.000  0.995  0.000  0.000
       0.000  0.000  0.000  0.995  0.004
       0.000  0.000  0.000  0.004  0.982
     SPIN  2
     eigenvalues:
       0.034  0.037  0.037  0.061  0.103
     eigenvectors (columns):
      -0.000 -0.000  0.000  1.000  0.000
      -0.000 -0.664 -0.748 -0.000  0.000
      -0.000 -0.748  0.664 -0.000  0.000
       0.978 -0.000  0.000  0.000 -0.209
       0.209 -0.000 -0.000 -0.000  0.978
     occupation matrix ns (before diag.):
       0.061 -0.000 -0.000  0.000  0.000
      -0.000  0.037 -0.000  0.000  0.000
      -0.000 -0.000  0.037  0.000  0.000
       0.000  0.000  0.000  0.037 -0.014
       0.000  0.000  0.000 -0.014  0.100
     ------------------------ ATOM   10 ------------------------
     Tr[ns( 10)] (up, down, total) =   0.27202  4.94456  5.21658
     Atomic magnetic moment for atom  10 =  -4.67254
     SPIN  1
     eigenvalues:
       0.034  0.037  0.037  0.061  0.103
     eigenvectors (columns):
      -0.000 -0.000  0.000  1.000  0.000
      -0.000 -0.537 -0.843 -0.000  0.000
      -0.000 -0.843  0.537 -0.000  0.000
       0.978 -0.000 -0.000  0.000 -0.209
       0.209 -0.000 -0.000 -0.000  0.978
     occupation matrix ns (before diag.):
       0.061 -0.000 -0.000  0.000  0.000
      -0.000  0.037 -0.000  0.000  0.000
      -0.000 -0.000  0.037  0.000  0.000
       0.000  0.000  0.000  0.037 -0.014
       0.000  0.000  0.000 -0.014  0.100
     SPIN  2
     eigenvalues:
       0.977  0.981  0.995  0.995  0.997
     eigenvectors (columns):
       1.000  0.000 -0.000 -0.000 -0.000
       0.000 -0.000  0.546  0.838 -0.000
       0.000 -0.000  0.838 -0.546 -0.000
       0.000 -0.267 -0.000  0.000 -0.964
      -0.000  0.964 -0.000 -0.000 -0.267
     occupation matrix ns (before diag.):
       0.977 -0.000 -0.000  0.000  0.000
      -0.000  0.995 -0.000  0.000  0.000
      -0.000 -0.000  0.995  0.000  0.000
       0.000  0.000  0.000  0.995  0.004
       0.000  0.000  0.000  0.004  0.982
     ------------------------ ATOM   11 ------------------------
     Tr[ns( 11)] (up, down, total) =   4.94456  0.27202  5.21658
     Atomic magnetic moment for atom  11 =   4.67254
     SPIN  1
     eigenvalues:
       0.977  0.981  0.995  0.995  0.997
     eigenvectors (columns):
       1.000  0.000 -0.000 -0.000 -0.000
       0.000 -0.000  0.653  0.757 -0.000
       0.000 -0.000  0.757 -0.653 -0.000
       0.000 -0.267 -0.000  0.000 -0.964
      -0.000  0.964 -0.000  0.000 -0.267
     occupation matrix ns (before diag.):
       0.977 -0.000 -0.000  0.000  0.000
      -0.000  0.995 -0.000  0.000  0.000
      -0.000 -0.000  0.995  0.000  0.000
       0.000  0.000  0.000  0.995  0.004
       0.000  0.000  0.000  0.004  0.982
     SPIN  2
     eigenvalues:
       0.034  0.037  0.037  0.061  0.103
     eigenvectors (columns):
      -0.000 -0.000  0.000  1.000  0.000
      -0.000 -0.591 -0.807 -0.000  0.000
      -0.000 -0.807  0.591 -0.000  0.000
       0.978 -0.000  0.000  0.000 -0.209
       0.209 -0.000 -0.000 -0.000  0.978
     occupation matrix ns (before diag.):
       0.061 -0.000 -0.000  0.000  0.000
      -0.000  0.037 -0.000  0.000  0.000
      -0.000 -0.000  0.037  0.000  0.000
       0.000  0.000  0.000  0.037 -0.014
       0.000  0.000  0.000 -0.014  0.100
     ------------------------ ATOM   12 ------------------------
     Tr[ns( 12)] (up, down, total) =   0.27202  4.94456  5.21658
     Atomic magnetic moment for atom  12 =  -4.67254
     SPIN  1
     eigenvalues:
       0.034  0.037  0.037  0.061  0.103
     eigenvectors (columns):
      -0.000 -0.000 -0.000  1.000  0.000
      -0.000 -0.500 -0.866 -0.000  0.000
      -0.000 -0.866  0.500 -0.000  0.000
       0.978 -0.000 -0.000  0.000 -0.209
       0.209 -0.000 -0.000 -0.000  0.978
     occupation matrix ns (before diag.):
       0.061 -0.000 -0.000  0.000  0.000
      -0.000  0.037 -0.000  0.000  0.000
      -0.000 -0.000  0.037  0.000  0.000
       0.000  0.000  0.000  0.037 -0.014
       0.000  0.000  0.000 -0.014  0.100
     SPIN  2
     eigenvalues:
       0.977  0.981  0.995  0.995  0.997
     eigenvectors (columns):
      -1.000  0.000 -0.000  0.000 -0.000
      -0.000 -0.000  0.624 -0.781 -0.000
      -0.000 -0.000  0.781  0.624 -0.000
      -0.000 -0.267 -0.000 -0.000 -0.964
       0.000  0.964 -0.000  0.000 -0.267
     occupation matrix ns (before diag.):
       0.977 -0.000 -0.000  0.000  0.000
      -0.000  0.995 -0.000  0.000  0.000
      -0.000 -0.000  0.995  0.000  0.000
       0.000  0.000  0.000  0.995  0.004
       0.000  0.000  0.000  0.004  0.982
     ------------------------ ATOM   13 ------------------------
     Tr[ns( 13)] (up, down, total) =   0.83066  4.97583  5.80649
     Atomic magnetic moment for atom  13 =  -4.14518
     SPIN  1
     eigenvalues:
       0.079  0.128  0.128  0.197  0.298
     eigenvectors (columns):
      -0.000 -0.000 -0.000 -1.000  0.000
      -0.000 -0.722  0.692  0.000  0.000
      -0.000 -0.692 -0.722  0.000  0.000
       0.969 -0.000  0.000  0.000  0.246
      -0.246  0.000  0.000  0.000  0.969
     occupation matrix ns (before diag.):
       0.197 -0.000 -0.000  0.000  0.000
      -0.000  0.128 -0.000  0.000  0.000
      -0.000 -0.000  0.128  0.000  0.000
       0.000  0.000  0.000  0.093  0.052
       0.000  0.000  0.000  0.052  0.285
     SPIN  2
     eigenvalues:
       0.990  0.993  0.997  0.997  0.998
     eigenvectors (columns):
       1.000  0.000 -0.000 -0.000 -0.000
       0.000 -0.000  0.609 -0.793 -0.000
       0.000 -0.000  0.793  0.609 -0.000
      -0.000  0.180 -0.000  0.000 -0.984
      -0.000  0.984  0.000  0.000  0.180
     occupation matrix ns (before diag.):
       0.990 -0.000 -0.000  0.000  0.000
      -0.000  0.997 -0.000  0.000  0.000
      -0.000 -0.000  0.997  0.000  0.000
       0.000  0.000  0.000  0.998 -0.001
       0.000  0.000  0.000 -0.001  0.993
     ------------------------ ATOM   14 ------------------------
     Tr[ns( 14)] (up, down, total) =   4.97583  0.83065  5.80649
     Atomic magnetic moment for atom  14 =   4.14518
     SPIN  1
     eigenvalues:
       0.990  0.993  0.997  0.997  0.998
     eigenvectors (columns):
       1.000  0.000 -0.000 -0.000 -0.000
       0.000 -0.000  0.602 -0.798 -0.000
       0.000 -0.000  0.798  0.602 -0.000
      -0.000  0.180 -0.000  0.000 -0.984
      -0.000  0.984  0.000  0.000  0.180
     occupation matrix ns (before diag.):
       0.990 -0.000 -0.000  0.000  0.000
      -0.000  0.997 -0.000  0.000  0.000
      -0.000 -0.000  0.997  0.000  0.000
       0.000  0.000  0.000  0.998 -0.001
       0.000  0.000  0.000 -0.001  0.993
     SPIN  2
     eigenvalues:
       0.079  0.128  0.128  0.197  0.298
     eigenvectors (columns):
      -0.000 -0.000 -0.000 -1.000  0.000
      -0.000 -0.650  0.760  0.000  0.000
      -0.000 -0.760 -0.650  0.000  0.000
       0.969 -0.000  0.000  0.000  0.246
      -0.246  0.000  0.000  0.000  0.969
     occupation matrix ns (before diag.):
       0.197 -0.000 -0.000  0.000  0.000
      -0.000  0.128 -0.000  0.000  0.000
      -0.000 -0.000  0.128  0.000  0.000
       0.000  0.000  0.000  0.093  0.052
       0.000  0.000  0.000  0.052  0.285
     ------------------------ ATOM   15 ------------------------
     Tr[ns( 15)] (up, down, total) =   0.83066  4.97583  5.80649
     Atomic magnetic moment for atom  15 =  -4.14518
     SPIN  1
     eigenvalues:
       0.079  0.128  0.128  0.197  0.298
     eigenvectors (columns):
      -0.000 -0.000 -0.000 -1.000  0.000
      -0.000 -0.490  0.872  0.000  0.000
      -0.000 -0.872 -0.490  0.000  0.000
       0.969 -0.000  0.000  0.000  0.246
      -0.246  0.000  0.000  0.000  0.969
     occupation matrix ns (before diag.):
       0.197 -0.000 -0.000  0.000  0.000
      -0.000  0.128 -0.000  0.000  0.000
      -0.000 -0.000  0.128  0.000  0.000
       0.000  0.000  0.000  0.093  0.052
       0.000  0.000  0.000  0.052  0.285
     SPIN  2
     eigenvalues:
       0.990  0.993  0.997  0.997  0.998
     eigenvectors (columns):
       1.000  0.000 -0.000 -0.000 -0.000
       0.000 -0.000  0.588 -0.809 -0.000
       0.000 -0.000  0.809  0.588 -0.000
      -0.000  0.180 -0.000  0.000 -0.984
      -0.000  0.984  0.000  0.000  0.180
     occupation matrix ns (before diag.):
       0.990 -0.000 -0.000  0.000  0.000
      -0.000  0.997 -0.000  0.000  0.000
      -0.000 -0.000  0.997  0.000  0.000
       0.000  0.000  0.000  0.998 -0.001
       0.000  0.000  0.000 -0.001  0.993
     ------------------------ ATOM   16 ------------------------
     Tr[ns( 16)] (up, down, total) =   4.97583  0.83065  5.80649
     Atomic magnetic moment for atom  16 =   4.14518
     SPIN  1
     eigenvalues:
       0.990  0.993  0.997  0.997  0.998
     eigenvectors (columns):
       1.000  0.000 -0.000  0.000 -0.000
       0.000 -0.000  0.583 -0.813 -0.000
       0.000 -0.000  0.813  0.583 -0.000
      -0.000  0.180 -0.000  0.000 -0.984
      -0.000  0.984  0.000  0.000  0.180
     occupation matrix ns (before diag.):
       0.990 -0.000 -0.000  0.000  0.000
      -0.000  0.997 -0.000  0.000  0.000
      -0.000 -0.000  0.997  0.000  0.000
       0.000  0.000  0.000  0.998 -0.001
       0.000  0.000  0.000 -0.001  0.993
     SPIN  2
     eigenvalues:
       0.079  0.128  0.128  0.197  0.298
     eigenvectors (columns):
      -0.000 -0.000 -0.000 -1.000  0.000
      -0.000 -0.544  0.839  0.000  0.000
      -0.000 -0.839 -0.544  0.000  0.000
       0.969 -0.000  0.000  0.000  0.246
      -0.246  0.000  0.000  0.000  0.969
     occupation matrix ns (before diag.):
       0.197 -0.000 -0.000  0.000  0.000
      -0.000  0.128 -0.000  0.000  0.000
      -0.000 -0.000  0.128  0.000  0.000
       0.000  0.000  0.000  0.093  0.052
       0.000  0.000  0.000  0.052  0.285

     Number of occupied Hubbard levels =   44.0923

     HUBBARD ENERGY =    0.8787  (Ry)

     total cpu time spent up to now is      412.3 secs

     total energy              =   -3088.50787523 Ry
     estimated scf accuracy    <       0.00000151 Ry

     total magnetization       =    -0.00 Bohr mag/cell
     absolute magnetization    =    38.25 Bohr mag/cell

     iteration # 15     ecut=    90.00 Ry     beta= 0.30
     Davidson diagonalization with overlap

---- Real-time Memory Report at c_bands before calling an iterative solver
          1333 MiB given to the printing process from OS
           836 MiB allocation reported by mallinfo(arena+hblkhd)
        673540 MiB available memory on the node where the printing process lives
------------------
     ethr =  4.61E-10,  avg # of iterations =  2.0

     =================== HUBBARD OCCUPATIONS ===================
     ------------------------ ATOM    9 ------------------------
     Tr[ns(  9)] (up, down, total) =   4.94457  0.27205  5.21662
     Atomic magnetic moment for atom   9 =   4.67252
     SPIN  1
     eigenvalues:
       0.977  0.981  0.995  0.995  0.997
     eigenvectors (columns):
      -1.000  0.000 -0.000  0.000 -0.000
      -0.000 -0.000  0.624 -0.781 -0.000
      -0.000 -0.000  0.781  0.624 -0.000
      -0.000 -0.267 -0.000 -0.000 -0.964
       0.000  0.964 -0.000  0.000 -0.267
     occupation matrix ns (before diag.):
       0.977 -0.000 -0.000  0.000  0.000
      -0.000  0.995 -0.000  0.000  0.000
      -0.000 -0.000  0.995  0.000  0.000
       0.000  0.000  0.000  0.995  0.004
       0.000  0.000  0.000  0.004  0.982
     SPIN  2
     eigenvalues:
       0.034  0.037  0.037  0.061  0.103
     eigenvectors (columns):
      -0.000 -0.000  0.000  1.000  0.000
      -0.000 -0.614 -0.789 -0.000  0.000
      -0.000 -0.789  0.614 -0.000  0.000
       0.978 -0.000  0.000  0.000 -0.209
       0.209 -0.000 -0.000 -0.000  0.978
     occupation matrix ns (before diag.):
       0.061 -0.000 -0.000  0.000  0.000
      -0.000  0.037 -0.000  0.000  0.000
      -0.000 -0.000  0.037  0.000  0.000
       0.000  0.000  0.000  0.037 -0.014
       0.000  0.000  0.000 -0.014  0.100
     ------------------------ ATOM   10 ------------------------
     Tr[ns( 10)] (up, down, total) =   0.27205  4.94457  5.21662
     Atomic magnetic moment for atom  10 =  -4.67252
     SPIN  1
     eigenvalues:
       0.034  0.037  0.037  0.061  0.103
     eigenvectors (columns):
      -0.000 -0.000  0.000  1.000  0.000
      -0.000 -0.578 -0.816 -0.000  0.000
      -0.000 -0.816  0.578 -0.000  0.000
       0.978 -0.000  0.000  0.000 -0.209
       0.209 -0.000 -0.000 -0.000  0.978
     occupation matrix ns (before diag.):
       0.061 -0.000 -0.000  0.000  0.000
      -0.000  0.037 -0.000  0.000  0.000
      -0.000 -0.000  0.037  0.000  0.000
       0.000  0.000  0.000  0.037 -0.014
       0.000  0.000  0.000 -0.014  0.100
     SPIN  2
     eigenvalues:
       0.977  0.981  0.995  0.995  0.997
     eigenvectors (columns):
       1.000  0.000 -0.000 -0.000 -0.000
       0.000 -0.000  0.533  0.846 -0.000
       0.000 -0.000  0.846 -0.533 -0.000
       0.000 -0.267 -0.000 -0.000 -0.964
      -0.000  0.964 -0.000 -0.000 -0.267
     occupation matrix ns (before diag.):
       0.977 -0.000 -0.000  0.000  0.000
      -0.000  0.995 -0.000  0.000  0.000
      -0.000 -0.000  0.995  0.000  0.000
       0.000  0.000  0.000  0.995  0.004
       0.000  0.000  0.000  0.004  0.982
     ------------------------ ATOM   11 ------------------------
     Tr[ns( 11)] (up, down, total) =   4.94457  0.27205  5.21662
     Atomic magnetic moment for atom  11 =   4.67252
     SPIN  1
     eigenvalues:
       0.977  0.981  0.995  0.995  0.997
     eigenvectors (columns):
       1.000  0.000 -0.000 -0.000 -0.000
       0.000 -0.000  0.493  0.870 -0.000
       0.000 -0.000  0.870 -0.493 -0.000
       0.000 -0.267 -0.000 -0.000 -0.964
      -0.000  0.964 -0.000 -0.000 -0.267
     occupation matrix ns (before diag.):
       0.977 -0.000 -0.000  0.000  0.000
      -0.000  0.995 -0.000  0.000  0.000
      -0.000 -0.000  0.995  0.000  0.000
       0.000  0.000  0.000  0.995  0.004
       0.000  0.000  0.000  0.004  0.982
     SPIN  2
     eigenvalues:
       0.034  0.037  0.037  0.061  0.103
     eigenvectors (columns):
      -0.000 -0.000  0.000  1.000  0.000
      -0.000 -0.590 -0.808 -0.000  0.000
      -0.000 -0.808  0.590 -0.000  0.000
       0.978 -0.000  0.000  0.000 -0.209
       0.209 -0.000 -0.000 -0.000  0.978
     occupation matrix ns (before diag.):
       0.061 -0.000 -0.000  0.000  0.000
      -0.000  0.037 -0.000  0.000  0.000
      -0.000 -0.000  0.037  0.000  0.000
       0.000  0.000  0.000  0.037 -0.014
       0.000  0.000  0.000 -0.014  0.100
     ------------------------ ATOM   12 ------------------------
     Tr[ns( 12)] (up, down, total) =   0.27205  4.94457  5.21662
     Atomic magnetic moment for atom  12 =  -4.67252
     SPIN  1
     eigenvalues:
       0.034  0.037  0.037  0.061  0.103
     eigenvectors (columns):
      -0.000 -0.000  0.000  1.000  0.000
      -0.000 -0.637 -0.771 -0.000  0.000
      -0.000 -0.771  0.637 -0.000  0.000
       0.978 -0.000  0.000  0.000 -0.209
       0.209 -0.000 -0.000 -0.000  0.978
     occupation matrix ns (before diag.):
       0.061 -0.000 -0.000  0.000  0.000
      -0.000  0.037 -0.000  0.000  0.000
      -0.000 -0.000  0.037  0.000  0.000
       0.000  0.000  0.000  0.037 -0.014
       0.000  0.000  0.000 -0.014  0.100
     SPIN  2
     eigenvalues:
       0.977  0.981  0.995  0.995  0.997
     eigenvectors (columns):
       1.000  0.000 -0.000 -0.000 -0.000
       0.000 -0.000  0.553  0.833 -0.000
       0.000 -0.000  0.833 -0.553 -0.000
       0.000 -0.267 -0.000  0.000 -0.964
      -0.000  0.964 -0.000 -0.000 -0.267
     occupation matrix ns (before diag.):
       0.977 -0.000 -0.000  0.000  0.000
      -0.000  0.995 -0.000  0.000  0.000
      -0.000 -0.000  0.995  0.000  0.000
       0.000  0.000  0.000  0.995  0.004
       0.000  0.000  0.000  0.004  0.982
     ------------------------ ATOM   13 ------------------------
     Tr[ns( 13)] (up, down, total) =   0.83073  4.97583  5.80656
     Atomic magnetic moment for atom  13 =  -4.14510
     SPIN  1
     eigenvalues:
       0.079  0.128  0.128  0.197  0.298
     eigenvectors (columns):
      -0.000 -0.000 -0.000 -1.000  0.000
      -0.000 -0.594  0.805  0.000  0.000
      -0.000 -0.805 -0.594  0.000  0.000
       0.969 -0.000  0.000  0.000  0.246
      -0.246  0.000  0.000  0.000  0.969
     occupation matrix ns (before diag.):
       0.197 -0.000 -0.000  0.000  0.000
      -0.000  0.128 -0.000  0.000  0.000
      -0.000 -0.000  0.128  0.000  0.000
       0.000  0.000  0.000  0.093  0.052
       0.000  0.000  0.000  0.052  0.285
     SPIN  2
     eigenvalues:
       0.990  0.993  0.997  0.997  0.998
     eigenvectors (columns):
       1.000  0.000 -0.000  0.000 -0.000
       0.000 -0.000  0.462 -0.887 -0.000
       0.000 -0.000  0.887  0.462 -0.000
      -0.000  0.180 -0.000  0.000 -0.984
      -0.000  0.984  0.000 -0.000  0.180
     occupation matrix ns (before diag.):
       0.990 -0.000 -0.000  0.000  0.000
      -0.000  0.997 -0.000  0.000  0.000
      -0.000 -0.000  0.997  0.000  0.000
       0.000  0.000  0.000  0.998 -0.001
       0.000  0.000  0.000 -0.001  0.993
     ------------------------ ATOM   14 ------------------------
     Tr[ns( 14)] (up, down, total) =   4.97583  0.83073  5.80656
     Atomic magnetic moment for atom  14 =   4.14510
     SPIN  1
     eigenvalues:
       0.990  0.993  0.997  0.997  0.998
     eigenvectors (columns):
       1.000  0.000 -0.000  0.000 -0.000
       0.000 -0.000  0.519 -0.855 -0.000
       0.000 -0.000  0.855  0.519 -0.000
      -0.000  0.180 -0.000  0.000 -0.984
      -0.000  0.984  0.000 -0.000  0.180
     occupation matrix ns (before diag.):
       0.990 -0.000 -0.000  0.000  0.000
      -0.000  0.997 -0.000  0.000  0.000
      -0.000 -0.000  0.997  0.000  0.000
       0.000  0.000  0.000  0.998 -0.001
       0.000  0.000  0.000 -0.001  0.993
     SPIN  2
     eigenvalues:
       0.079  0.128  0.128  0.197  0.298
     eigenvectors (columns):
      -0.000 -0.000 -0.000 -1.000  0.000
      -0.000 -0.552  0.834  0.000  0.000
      -0.000 -0.834 -0.552  0.000  0.000
       0.969 -0.000  0.000  0.000  0.246
      -0.246  0.000  0.000  0.000  0.969
     occupation matrix ns (before diag.):
       0.197 -0.000 -0.000  0.000  0.000
      -0.000  0.128 -0.000  0.000  0.000
      -0.000 -0.000  0.128  0.000  0.000
       0.000  0.000  0.000  0.093  0.052
       0.000  0.000  0.000  0.052  0.285
     ------------------------ ATOM   15 ------------------------
     Tr[ns( 15)] (up, down, total) =   0.83073  4.97583  5.80656
     Atomic magnetic moment for atom  15 =  -4.14510
     SPIN  1
     eigenvalues:
       0.079  0.128  0.128  0.197  0.298
     eigenvectors (columns):
      -0.000 -0.000 -0.000 -1.000  0.000
      -0.000 -0.480  0.877  0.000  0.000
      -0.000 -0.877 -0.480  0.000  0.000
       0.969 -0.000  0.000  0.000  0.246
      -0.246  0.000  0.000  0.000  0.969
     occupation matrix ns (before diag.):
       0.197 -0.000 -0.000  0.000  0.000
      -0.000  0.128 -0.000  0.000  0.000
      -0.000 -0.000  0.128  0.000  0.000
       0.000  0.000  0.000  0.093  0.052
       0.000  0.000  0.000  0.052  0.285
     SPIN  2
     eigenvalues:
       0.990  0.993  0.997  0.997  0.998
     eigenvectors (columns):
       1.000  0.000 -0.000 -0.000 -0.000
       0.000 -0.000  0.702 -0.712 -0.000
       0.000 -0.000  0.712  0.702 -0.000
      -0.000  0.180 -0.000 -0.000 -0.984
      -0.000  0.984  0.000  0.000  0.180
     occupation matrix ns (before diag.):
       0.990 -0.000 -0.000  0.000  0.000
      -0.000  0.997 -0.000  0.000  0.000
      -0.000 -0.000  0.997  0.000  0.000
       0.000  0.000  0.000  0.998 -0.001
       0.000  0.000  0.000 -0.001  0.993
     ------------------------ ATOM   16 ------------------------
     Tr[ns( 16)] (up, down, total) =   4.97583  0.83073  5.80656
     Atomic magnetic moment for atom  16 =   4.14510
     SPIN  1
     eigenvalues:
       0.990  0.993  0.997  0.997  0.998
     eigenvectors (columns):
       1.000  0.000 -0.000  0.000 -0.000
       0.000 -0.000  0.463 -0.886 -0.000
       0.000 -0.000  0.886  0.463 -0.000
      -0.000  0.180 -0.000  0.000 -0.984
      -0.000  0.984  0.000 -0.000  0.180
     occupation matrix ns (before diag.):
       0.990 -0.000 -0.000  0.000  0.000
      -0.000  0.997 -0.000  0.000  0.000
      -0.000 -0.000  0.997  0.000  0.000
       0.000  0.000  0.000  0.998 -0.001
       0.000  0.000  0.000 -0.001  0.993
     SPIN  2
     eigenvalues:
       0.079  0.128  0.128  0.197  0.298
     eigenvectors (columns):
      -0.000 -0.000 -0.000 -1.000  0.000
      -0.000 -0.636  0.772  0.000  0.000
      -0.000 -0.772 -0.636  0.000  0.000
       0.969 -0.000  0.000  0.000  0.246
      -0.246  0.000  0.000  0.000  0.969
     occupation matrix ns (before diag.):
       0.197 -0.000 -0.000  0.000  0.000
      -0.000  0.128 -0.000  0.000  0.000
      -0.000 -0.000  0.128  0.000  0.000
       0.000  0.000  0.000  0.093  0.052
       0.000  0.000  0.000  0.052  0.285

     Number of occupied Hubbard levels =   44.0927

     HUBBARD ENERGY =    0.8787  (Ry)

     Magnetic moment per site  (integrated on atomic sphere of radius R)
     atom   1 (R=0.206)  charge=  6.8289  magn=  0.0000
     atom   2 (R=0.206)  charge=  6.8289  magn=  0.0000
     atom   3 (R=0.206)  charge=  6.8289  magn=  0.0000
     atom   4 (R=0.206)  charge=  6.8289  magn=  0.0000
     atom   5 (R=0.166)  charge=  7.2888  magn= -0.0014
     atom   6 (R=0.166)  charge=  7.2888  magn=  0.0014
     atom   7 (R=0.166)  charge=  7.2888  magn= -0.0014
     atom   8 (R=0.166)  charge=  7.2888  magn=  0.0014
     atom   9 (R=0.151)  charge= 12.2748  magn=  4.0916
     atom  10 (R=0.151)  charge= 12.2748  magn= -4.0916
     atom  11 (R=0.151)  charge= 12.2748  magn=  4.0916
     atom  12 (R=0.151)  charge= 12.2748  magn= -4.0916
     atom  13 (R=0.140)  charge= 12.7882  magn= -3.8327
     atom  14 (R=0.140)  charge= 12.7882  magn=  3.8327
     atom  15 (R=0.140)  charge= 12.7882  magn= -3.8327
     atom  16 (R=0.140)  charge= 12.7882  magn=  3.8327
     atom  17 (R=0.140)  charge=  5.3042  magn= -0.1491
     atom  18 (R=0.140)  charge=  5.3042  magn=  0.1491
     atom  19 (R=0.140)  charge=  5.3042  magn= -0.1491
     atom  20 (R=0.140)  charge=  5.3042  magn=  0.1491
     atom  21 (R=0.140)  charge=  5.2997  magn= -0.0820
     atom  22 (R=0.140)  charge=  5.2997  magn=  0.0820
     atom  23 (R=0.140)  charge=  5.2997  magn= -0.0820
     atom  24 (R=0.140)  charge=  5.2997  magn=  0.0820
     atom  25 (R=0.140)  charge=  5.2997  magn= -0.0820
     atom  26 (R=0.140)  charge=  5.2997  magn=  0.0820
     atom  27 (R=0.140)  charge=  5.2997  magn= -0.0820
     atom  28 (R=0.140)  charge=  5.2997  magn=  0.0820
     atom  29 (R=0.140)  charge=  5.2997  magn= -0.0820
     atom  30 (R=0.140)  charge=  5.2997  magn=  0.0820
     atom  31 (R=0.140)  charge=  5.2997  magn= -0.0820
     atom  32 (R=0.140)  charge=  5.2997  magn=  0.0820
     atom  33 (R=0.140)  charge=  5.2997  magn= -0.0820
     atom  34 (R=0.140)  charge=  5.2997  magn=  0.0820
     atom  35 (R=0.140)  charge=  5.2997  magn= -0.0820
     atom  36 (R=0.140)  charge=  5.2997  magn=  0.0820

     total cpu time spent up to now is      437.7 secs

     End of self-consistent calculation

 ------ SPIN UP ------------


          k = 0.0000 0.0000 0.0000 ( 48099 PWs)   bands (ev):

   -80.9961 -80.9960 -76.3456 -76.3455 -69.6780 -69.6780 -65.0517 -65.0517
   -47.2447 -47.2446 -47.0427 -47.0427 -47.0427 -47.0427 -42.3695 -42.3695
   -42.1856 -42.1856 -42.1856 -42.1856 -38.7170 -38.7170 -38.5529 -38.5529
   -38.5529 -38.5529 -33.8286 -33.8286 -33.6395 -33.6395 -33.6395 -33.6395
   -30.3195 -30.3177 -30.3038 -30.3030 -15.9197 -15.9190 -15.7864 -15.7858
   -10.7406 -10.7406 -10.7357 -10.7291 -10.7291 -10.7158 -10.4599 -10.4509
   -10.3976 -10.3976 -10.3940 -10.3940  -7.1022  -6.9595  -6.7436  -6.7182
    -6.3791  -6.2702  -6.2324  -6.2020  -6.2020  -6.1586  -6.0763  -6.0478
    -6.0478  -6.0091  -5.9447  -5.8875  -5.8875  -5.8501  -5.7417  -5.7417
    -1.5362  -1.5362  -1.5353  -1.5353  -1.1103  -1.1084  -1.0948  -1.0756
    -0.9368  -0.9368  -0.9362  -0.9362   2.2183   2.3176   2.3348   2.3348
     2.3370   2.3422   2.3422   2.3730   2.6578   2.7106   4.5979   4.6211
     4.7436   5.0256   5.2222   5.2372   5.2568   5.3250   5.3250   5.3595
     5.3595   5.3618   5.7582   5.9275   6.3841   6.5165   6.5165   6.7012
     6.7012   6.7540   6.9196   6.9431   6.9431   7.0024   7.1262   7.1262
     7.3029   7.3164   7.5214   7.5453   7.7737   7.9111   8.0168   8.0168
     8.1206   8.1206   8.1772   8.2313   8.3268   8.3268   8.4897   8.5170
     8.5170   8.7552   8.7552   8.8518   9.0031   9.0031   9.0155   9.0155
     9.1177   9.1177   9.1768   9.1768   9.2568   9.2608   9.3739   9.3786
     9.3786   9.4169   9.4169   9.4732   9.5120   9.5589   9.5589   9.7566
     9.7861   9.9605   9.9973  10.2886  12.4850  12.9742  13.0405  13.0405
    13.0773  13.0773  13.3717  13.3984  13.6644  13.7215  13.8161  13.9548
    14.0217  14.0610  14.1297  14.6570  15.0024  15.2455  15.2969  15.2969
    15.3885  15.4318  15.4318  15.7168  15.7302  15.8322  15.9562  16.0046
    16.0720  16.1406  16.1406  16.1931  16.1931

     occupation numbers 
     1.0000   1.0000   1.0000   1.0000   1.0000   1.0000   1.0000   1.0000
     1.0000   1.0000   1.0000   1.0000   1.0000   1.0000   1.0000   1.0000
     1.0000   1.0000   1.0000   1.0000   1.0000   1.0000   1.0000   1.0000
     1.0000   1.0000   1.0000   1.0000   1.0000   1.0000   1.0000   1.0000
     1.0000   1.0000   1.0000   1.0000   1.0000   1.0000   1.0000   1.0000
     1.0000   1.0000   1.0000   1.0000   1.0000   1.0000   1.0000   1.0000
     1.0000   1.0000   1.0000   1.0000   1.0000   1.0000   1.0000   1.0000
     1.0000   1.0000   1.0000   1.0000   1.0000   1.0000   1.0000   1.0000
     1.0000   1.0000   1.0000   1.0000   1.0000   1.0000   1.0000   1.0000
     1.0000   1.0000   1.0000   1.0000   1.0000   1.0000   1.0000   1.0000
     1.0000   1.0000   1.0000   1.0000   1.0000   1.0000   1.0000   1.0000
     1.0000   1.0000   1.0000   1.0000   1.0000   1.0000   1.0000   1.0000
     1.0000   1.0000   1.0000   1.0000   1.0000   1.0000   1.0000   1.0000
     1.0000   1.0000   1.0000   1.0000   1.0000   1.0000   1.0000   1.0000
     1.0000   1.0000   1.0000   1.0000   1.0000   1.0000   1.0000   1.0000
     1.0000   1.0000   1.0000   1.0000   1.0000   1.0000   1.0000   1.0000
     1.0000   1.0000   1.0000   1.0000   1.0000   1.0000   1.0000   1.0000
     1.0000   1.0000   1.0000   1.0000   1.0000   1.0000   1.0000   1.0000
     1.0000   1.0000   1.0000   1.0000   1.0000   1.0000   1.0000   1.0000
     1.0000   1.0000   1.0000   1.0000   1.0000   1.0000   1.0000   1.0000
     1.0000   1.0000   1.0000   1.0000   0.0000   0.0000   0.0000   0.0000
     0.0000   0.0000   0.0000   0.0000   0.0000   0.0000   0.0000   0.0000
     0.0000   0.0000   0.0000   0.0000   0.0000   0.0000   0.0000   0.0000
     0.0000   0.0000   0.0000   0.0000   0.0000   0.0000   0.0000   0.0000
     0.0000   0.0000   0.0000   0.0000   0.0000

          k = 0.0000 0.0000-0.1842 ( 47896 PWs)   bands (ev):

   -80.9961 -80.9960 -76.3456 -76.3455 -69.6780 -69.6780 -65.0517 -65.0517
   -47.2446 -47.2446 -47.0427 -47.0427 -47.0427 -47.0427 -42.3695 -42.3695
   -42.1856 -42.1856 -42.1856 -42.1856 -38.7170 -38.7170 -38.5529 -38.5529
   -38.5529 -38.5529 -33.8286 -33.8286 -33.6395 -33.6395 -33.6395 -33.6395
   -30.3195 -30.3177 -30.3038 -30.3030 -15.9194 -15.9194 -15.7862 -15.7860
   -10.7406 -10.7406 -10.7345 -10.7291 -10.7291 -10.7170 -10.4595 -10.4513
   -10.3976 -10.3976 -10.3940 -10.3940  -7.0991  -6.9619  -6.7399  -6.7232
    -6.3584  -6.3382  -6.2015  -6.2015  -6.1650  -6.1586  -6.0763  -6.0494
    -6.0494  -6.0286  -5.9445  -5.8857  -5.8857  -5.8502  -5.7424  -5.7424
    -1.5357  -1.5357  -1.5357  -1.5357  -1.1032  -1.1019  -1.0925  -1.0915
    -0.9365  -0.9365  -0.9364  -0.9364   2.2178   2.3183   2.3347   2.3347
     2.3373   2.3423   2.3423   2.3723   2.6578   2.7106   4.5712   4.6181
     4.9198   4.9911   5.0277   5.2371   5.2571   5.3253   5.3253   5.3593
     5.3593   5.3594   5.8132   5.9764   6.5212   6.5212   6.5815   6.6641
     6.6949   6.6949   6.9163   6.9440   6.9440   6.9469   7.0419   7.1253
     7.1253   7.3349   7.4410   7.6204   7.9321   8.0251   8.0533   8.0533
     8.0873   8.0873   8.1320   8.2328   8.3163   8.3163   8.5024   8.5024
     8.5034   8.8475   8.8475   8.8522   8.8687   8.8687   9.0735   9.0735
     9.1382   9.1382   9.1459   9.2289   9.2289   9.2785   9.2930   9.2930
     9.4317   9.4325   9.4342   9.4342   9.5307   9.5619   9.5619   9.7430
     9.7861   9.9588  10.0005  10.2864  12.4517  13.0439  13.0439  13.0741
    13.0741  13.0890  13.3718  13.3983  13.7626  13.7904  13.8337  13.8408
    13.8436  14.0217  14.1203  14.8414  14.8675  15.2072  15.3368  15.3368
    15.3715  15.3716  15.3867  15.7054  15.7130  15.9183  15.9543  15.9608
    16.0114  16.0770  16.1324  16.1324  16.2099

     occupation numbers 
     1.0000   1.0000   1.0000   1.0000   1.0000   1.0000   1.0000   1.0000
     1.0000   1.0000   1.0000   1.0000   1.0000   1.0000   1.0000   1.0000
     1.0000   1.0000   1.0000   1.0000   1.0000   1.0000   1.0000   1.0000
     1.0000   1.0000   1.0000   1.0000   1.0000   1.0000   1.0000   1.0000
     1.0000   1.0000   1.0000   1.0000   1.0000   1.0000   1.0000   1.0000
     1.0000   1.0000   1.0000   1.0000   1.0000   1.0000   1.0000   1.0000
     1.0000   1.0000   1.0000   1.0000   1.0000   1.0000   1.0000   1.0000
     1.0000   1.0000   1.0000   1.0000   1.0000   1.0000   1.0000   1.0000
     1.0000   1.0000   1.0000   1.0000   1.0000   1.0000   1.0000   1.0000
     1.0000   1.0000   1.0000   1.0000   1.0000   1.0000   1.0000   1.0000
     1.0000   1.0000   1.0000   1.0000   1.0000   1.0000   1.0000   1.0000
     1.0000   1.0000   1.0000   1.0000   1.0000   1.0000   1.0000   1.0000
     1.0000   1.0000   1.0000   1.0000   1.0000   1.0000   1.0000   1.0000
     1.0000   1.0000   1.0000   1.0000   1.0000   1.0000   1.0000   1.0000
     1.0000   1.0000   1.0000   1.0000   1.0000   1.0000   1.0000   1.0000
     1.0000   1.0000   1.0000   1.0000   1.0000   1.0000   1.0000   1.0000
     1.0000   1.0000   1.0000   1.0000   1.0000   1.0000   1.0000   1.0000
     1.0000   1.0000   1.0000   1.0000   1.0000   1.0000   1.0000   1.0000
     1.0000   1.0000   1.0000   1.0000   1.0000   1.0000   1.0000   1.0000
     1.0000   1.0000   1.0000   1.0000   1.0000   1.0000   1.0000   1.0000
     1.0000   1.0000   1.0000   1.0000   0.0000   0.0000   0.0000   0.0000
     0.0000   0.0000   0.0000   0.0000   0.0000   0.0000   0.0000   0.0000
     0.0000   0.0000   0.0000   0.0000   0.0000   0.0000   0.0000   0.0000
     0.0000   0.0000   0.0000   0.0000   0.0000   0.0000   0.0000   0.0000
     0.0000   0.0000   0.0000   0.0000   0.0000

          k = 0.0000 0.2500 0.0000 ( 48036 PWs)   bands (ev):

   -80.9961 -80.9960 -76.3456 -76.3455 -69.6780 -69.6780 -65.0517 -65.0517
   -47.2446 -47.2446 -47.0427 -47.0427 -47.0427 -47.0427 -42.3695 -42.3695
   -42.1856 -42.1856 -42.1856 -42.1856 -38.7170 -38.7170 -38.5529 -38.5529
   -38.5529 -38.5529 -33.8286 -33.8286 -33.6395 -33.6395 -33.6395 -33.6395
   -30.3171 -30.3155 -30.3060 -30.3052 -15.8984 -15.8977 -15.8040 -15.8034
   -10.7033 -10.6984 -10.6924 -10.6872 -10.6853 -10.6713 -10.5011 -10.4909
   -10.4600 -10.4539 -10.4500 -10.4451  -6.9579  -6.8246  -6.8032  -6.7483
    -6.4414  -6.3244  -6.2809  -6.2163  -6.1717  -6.1543  -6.0850  -6.0519
    -6.0480  -6.0260  -5.9762  -5.9651  -5.9054  -5.8817  -5.8454  -5.7341
    -1.4558  -1.4532  -1.2803  -1.2751  -1.0999  -1.0981  -1.0919  -1.0761
    -1.0295  -1.0268  -0.8342  -0.8316   2.2555   2.2991   2.3031   2.3307
     2.3379   2.3405   2.3510   2.3691   2.6433   2.6748   4.8012   4.8235
     4.8756   5.1487   5.1541   5.1857   5.1900   5.3312   5.3338   5.3790
     5.3796   5.5281   5.7794   6.1881   6.3754   6.4322   6.5291   6.6064
     6.7954   6.8291   6.8328   6.9733   7.0615   7.0966   7.1355   7.2659
     7.3342   7.3795   7.4082   7.5629   7.6341   7.7562   7.8529   7.8844
     7.9700   7.9884   8.0855   8.1393   8.2434   8.3317   8.4326   8.4695
     8.4957   8.5098   8.6560   8.6883   8.6951   8.7840   8.8724   8.8830
     8.9177   8.9523   9.0390   9.0583   9.0992   9.1342   9.1559   9.1684
     9.2880   9.3275   9.3284   9.3744   9.4285   9.4471   9.5517   9.6794
     9.8141   9.9405  10.1779  10.3452  12.6507  12.9895  13.0350  13.0977
    13.0990  13.1129  13.3844  13.4190  13.8445  13.8956  14.0620  14.1100
    14.2844  14.3397  14.4660  15.0436  15.2527  15.2766  15.4593  15.4742
    15.5984  15.6330  15.6567  15.7485  15.9186  15.9889  16.0869  16.1125
    16.1225  16.1886  16.1943  16.3041  16.3341

     occupation numbers 
     1.0000   1.0000   1.0000   1.0000   1.0000   1.0000   1.0000   1.0000
     1.0000   1.0000   1.0000   1.0000   1.0000   1.0000   1.0000   1.0000
     1.0000   1.0000   1.0000   1.0000   1.0000   1.0000   1.0000   1.0000
     1.0000   1.0000   1.0000   1.0000   1.0000   1.0000   1.0000   1.0000
     1.0000   1.0000   1.0000   1.0000   1.0000   1.0000   1.0000   1.0000
     1.0000   1.0000   1.0000   1.0000   1.0000   1.0000   1.0000   1.0000
     1.0000   1.0000   1.0000   1.0000   1.0000   1.0000   1.0000   1.0000
     1.0000   1.0000   1.0000   1.0000   1.0000   1.0000   1.0000   1.0000
     1.0000   1.0000   1.0000   1.0000   1.0000   1.0000   1.0000   1.0000
     1.0000   1.0000   1.0000   1.0000   1.0000   1.0000   1.0000   1.0000
     1.0000   1.0000   1.0000   1.0000   1.0000   1.0000   1.0000   1.0000
     1.0000   1.0000   1.0000   1.0000   1.0000   1.0000   1.0000   1.0000
     1.0000   1.0000   1.0000   1.0000   1.0000   1.0000   1.0000   1.0000
     1.0000   1.0000   1.0000   1.0000   1.0000   1.0000   1.0000   1.0000
     1.0000   1.0000   1.0000   1.0000   1.0000   1.0000   1.0000   1.0000
     1.0000   1.0000   1.0000   1.0000   1.0000   1.0000   1.0000   1.0000
     1.0000   1.0000   1.0000   1.0000   1.0000   1.0000   1.0000   1.0000
     1.0000   1.0000   1.0000   1.0000   1.0000   1.0000   1.0000   1.0000
     1.0000   1.0000   1.0000   1.0000   1.0000   1.0000   1.0000   1.0000
     1.0000   1.0000   1.0000   1.0000   1.0000   1.0000   1.0000   1.0000
     1.0000   1.0000   1.0000   1.0000   0.0000   0.0000   0.0000   0.0000
     0.0000   0.0000   0.0000   0.0000   0.0000   0.0000   0.0000   0.0000
     0.0000   0.0000   0.0000   0.0000   0.0000   0.0000   0.0000   0.0000
     0.0000   0.0000   0.0000   0.0000   0.0000   0.0000   0.0000   0.0000
     0.0000   0.0000   0.0000   0.0000   0.0000

          k = 0.0000 0.2500-0.1842 ( 48002 PWs)   bands (ev):

   -80.9961 -80.9960 -76.3456 -76.3455 -69.6780 -69.6780 -65.0517 -65.0517
   -47.2446 -47.2446 -47.0427 -47.0427 -47.0427 -47.0427 -42.3695 -42.3695
   -42.1856 -42.1856 -42.1856 -42.1856 -38.7170 -38.7170 -38.5529 -38.5529
   -38.5529 -38.5529 -33.8286 -33.8286 -33.6395 -33.6395 -33.6395 -33.6395
   -30.3171 -30.3155 -30.3060 -30.3052 -15.8980 -15.8980 -15.8038 -15.8036
   -10.7030 -10.6982 -10.6923 -10.6866 -10.6857 -10.6719 -10.5007 -10.4913
   -10.4600 -10.4539 -10.4500 -10.4451  -6.9578  -6.8330  -6.7779  -6.7636
    -6.4282  -6.3779  -6.2313  -6.2216  -6.1844  -6.1436  -6.0849  -6.0543
    -6.0347  -6.0292  -5.9844  -5.9688  -5.9052  -5.8806  -5.8460  -5.7345
    -1.4546  -1.4545  -1.2778  -1.2776  -1.0965  -1.0957  -1.0872  -1.0866
    -1.0283  -1.0281  -0.8331  -0.8326   2.2550   2.2993   2.3032   2.3310
     2.3378   2.3406   2.3511   2.3688   2.6433   2.6748   4.7732   4.8001
     5.0484   5.0942   5.1563   5.1856   5.1903   5.2385   5.3344   5.3615
     5.3951   5.4163   6.0490   6.1045   6.3610   6.4246   6.5404   6.6138
     6.7945   6.8636   6.8742   6.9759   6.9777   7.0905   7.1027   7.1404
     7.2654   7.4135   7.4580   7.5821   7.7395   7.7621   7.8939   7.9144
     7.9413   7.9450   8.0755   8.1441   8.2780   8.2803   8.3689   8.4429
     8.5052   8.5630   8.6225   8.7553   8.7741   8.8122   8.8357   8.8535
     8.9232   8.9291   9.0167   9.0559   9.1110   9.1178   9.1750   9.2417
     9.2502   9.2862   9.3456   9.3631   9.4284   9.4709   9.4797   9.7092
     9.8140   9.9408  10.1778  10.3454  12.6326  13.0120  13.0340  13.0958
    13.0997  13.1284  13.3852  13.4185  13.8440  13.8963  14.0557  14.1499
    14.2567  14.3659  14.3753  15.1705  15.2416  15.2561  15.3460  15.4932
    15.5075  15.5736  15.6084  15.8202  15.9128  16.0189  16.0362  16.0942
    16.1820  16.1875  16.2905  16.3260  16.3809

     occupation numbers 
     1.0000   1.0000   1.0000   1.0000   1.0000   1.0000   1.0000   1.0000
     1.0000   1.0000   1.0000   1.0000   1.0000   1.0000   1.0000   1.0000
     1.0000   1.0000   1.0000   1.0000   1.0000   1.0000   1.0000   1.0000
     1.0000   1.0000   1.0000   1.0000   1.0000   1.0000   1.0000   1.0000
     1.0000   1.0000   1.0000   1.0000   1.0000   1.0000   1.0000   1.0000
     1.0000   1.0000   1.0000   1.0000   1.0000   1.0000   1.0000   1.0000
     1.0000   1.0000   1.0000   1.0000   1.0000   1.0000   1.0000   1.0000
     1.0000   1.0000   1.0000   1.0000   1.0000   1.0000   1.0000   1.0000
     1.0000   1.0000   1.0000   1.0000   1.0000   1.0000   1.0000   1.0000
     1.0000   1.0000   1.0000   1.0000   1.0000   1.0000   1.0000   1.0000
     1.0000   1.0000   1.0000   1.0000   1.0000   1.0000   1.0000   1.0000
     1.0000   1.0000   1.0000   1.0000   1.0000   1.0000   1.0000   1.0000
     1.0000   1.0000   1.0000   1.0000   1.0000   1.0000   1.0000   1.0000
     1.0000   1.0000   1.0000   1.0000   1.0000   1.0000   1.0000   1.0000
     1.0000   1.0000   1.0000   1.0000   1.0000   1.0000   1.0000   1.0000
     1.0000   1.0000   1.0000   1.0000   1.0000   1.0000   1.0000   1.0000
     1.0000   1.0000   1.0000   1.0000   1.0000   1.0000   1.0000   1.0000
     1.0000   1.0000   1.0000   1.0000   1.0000   1.0000   1.0000   1.0000
     1.0000   1.0000   1.0000   1.0000   1.0000   1.0000   1.0000   1.0000
     1.0000   1.0000   1.0000   1.0000   1.0000   1.0000   1.0000   1.0000
     1.0000   1.0000   1.0000   1.0000   0.0000   0.0000   0.0000   0.0000
     0.0000   0.0000   0.0000   0.0000   0.0000   0.0000   0.0000   0.0000
     0.0000   0.0000   0.0000   0.0000   0.0000   0.0000   0.0000   0.0000
     0.0000   0.0000   0.0000   0.0000   0.0000   0.0000   0.0000   0.0000
     0.0000   0.0000   0.0000   0.0000   0.0000

          k = 0.0000-0.5000 0.0000 ( 48052 PWs)   bands (ev):

   -80.9961 -80.9961 -76.3455 -76.3455 -69.6780 -69.6780 -65.0517 -65.0517
   -47.2446 -47.2446 -47.0427 -47.0427 -47.0427 -47.0427 -42.3695 -42.3695
   -42.1856 -42.1856 -42.1856 -42.1856 -38.7170 -38.7170 -38.5529 -38.5529
   -38.5529 -38.5529 -33.8286 -33.8286 -33.6396 -33.6396 -33.6395 -33.6395
   -30.3115 -30.3115 -30.3104 -30.3104 -15.8499 -15.8499 -15.8481 -15.8481
   -10.6023 -10.6023 -10.5918 -10.5918 -10.5897 -10.5897 -10.5783 -10.5783
   -10.5712 -10.5712 -10.5623 -10.5623  -6.8696  -6.8696  -6.5674  -6.5674
    -6.5152  -6.5152  -6.2915  -6.2915  -6.2051  -6.2051  -6.1282  -6.1282
    -6.0328  -6.0328  -5.9772  -5.9772  -5.9662  -5.9662  -5.7838  -5.7838
    -1.2774  -1.2774  -1.2180  -1.2180  -1.0912  -1.0912  -1.0837  -1.0837
    -0.8817  -0.8817  -0.8494  -0.8494   2.2541   2.2541   2.3309   2.3309
     2.3454   2.3454   2.3549   2.3549   2.6338   2.6338   4.9894   4.9894
     5.0610   5.0610   5.1424   5.1424   5.2978   5.2978   5.3536   5.3536
     5.7404   5.7404   6.0043   6.0043   6.2325   6.2325   6.4795   6.4795
     6.8074   6.8074   7.0592   7.0592   7.2699   7.2699   7.3724   7.3724
     7.3870   7.3870   7.4262   7.4262   7.6698   7.6698   7.7569   7.7569
     7.7812   7.7812   7.9306   7.9306   8.0061   8.0061   8.2189   8.2189
     8.4101   8.4101   8.4775   8.4775   8.6540   8.6540   8.7000   8.7000
     8.7747   8.7747   8.8411   8.8411   9.0201   9.0201   9.0677   9.0677
     9.2716   9.2716   9.2960   9.2960   9.3832   9.3832   9.6456   9.6456
     9.9050   9.9050  10.3317  10.3317  12.9192  12.9192  13.0626  13.0626
    13.1758  13.1758  13.4088  13.4088  13.6800  13.6800  14.5088  14.5088
    15.0380  15.0380  15.2011  15.2011  15.5977  15.5977  15.6565  15.6565
    15.7587  15.7587  15.8046  15.8046  15.8912  15.8912  16.0359  16.0362
    16.1934  16.1936  16.2247  16.2250  16.3891

     occupation numbers 
     1.0000   1.0000   1.0000   1.0000   1.0000   1.0000   1.0000   1.0000
     1.0000   1.0000   1.0000   1.0000   1.0000   1.0000   1.0000   1.0000
     1.0000   1.0000   1.0000   1.0000   1.0000   1.0000   1.0000   1.0000
     1.0000   1.0000   1.0000   1.0000   1.0000   1.0000   1.0000   1.0000
     1.0000   1.0000   1.0000   1.0000   1.0000   1.0000   1.0000   1.0000
     1.0000   1.0000   1.0000   1.0000   1.0000   1.0000   1.0000   1.0000
     1.0000   1.0000   1.0000   1.0000   1.0000   1.0000   1.0000   1.0000
     1.0000   1.0000   1.0000   1.0000   1.0000   1.0000   1.0000   1.0000
     1.0000   1.0000   1.0000   1.0000   1.0000   1.0000   1.0000   1.0000
     1.0000   1.0000   1.0000   1.0000   1.0000   1.0000   1.0000   1.0000
     1.0000   1.0000   1.0000   1.0000   1.0000   1.0000   1.0000   1.0000
     1.0000   1.0000   1.0000   1.0000   1.0000   1.0000   1.0000   1.0000
     1.0000   1.0000   1.0000   1.0000   1.0000   1.0000   1.0000   1.0000
     1.0000   1.0000   1.0000   1.0000   1.0000   1.0000   1.0000   1.0000
     1.0000   1.0000   1.0000   1.0000   1.0000   1.0000   1.0000   1.0000
     1.0000   1.0000   1.0000   1.0000   1.0000   1.0000   1.0000   1.0000
     1.0000   1.0000   1.0000   1.0000   1.0000   1.0000   1.0000   1.0000
     1.0000   1.0000   1.0000   1.0000   1.0000   1.0000   1.0000   1.0000
     1.0000   1.0000   1.0000   1.0000   1.0000   1.0000   1.0000   1.0000
     1.0000   1.0000   1.0000   1.0000   1.0000   1.0000   1.0000   1.0000
     1.0000   1.0000   1.0000   1.0000   0.0000   0.0000   0.0000   0.0000
     0.0000   0.0000   0.0000   0.0000   0.0000   0.0000   0.0000   0.0000
     0.0000   0.0000   0.0000   0.0000   0.0000   0.0000   0.0000   0.0000
     0.0000   0.0000   0.0000   0.0000   0.0000   0.0000   0.0000   0.0000
     0.0000   0.0000   0.0000   0.0000   0.0000

          k = 0.0000-0.5000-0.1842 ( 48060 PWs)   bands (ev):

   -80.9961 -80.9961 -76.3455 -76.3455 -69.6780 -69.6780 -65.0517 -65.0517
   -47.2446 -47.2446 -47.0427 -47.0427 -47.0427 -47.0427 -42.3695 -42.3695
   -42.1856 -42.1856 -42.1856 -42.1856 -38.7170 -38.7170 -38.5529 -38.5529
   -38.5529 -38.5529 -33.8286 -33.8286 -33.6396 -33.6396 -33.6395 -33.6395
   -30.3116 -30.3116 -30.3104 -30.3104 -15.8498 -15.8498 -15.8482 -15.8482
   -10.6019 -10.6019 -10.5921 -10.5921 -10.5897 -10.5897 -10.5783 -10.5783
   -10.5712 -10.5712 -10.5624 -10.5624  -6.8697  -6.8697  -6.5778  -6.5778
    -6.4948  -6.4948  -6.3158  -6.3158  -6.1961  -6.1961  -6.1180  -6.1180
    -6.0364  -6.0364  -5.9782  -5.9782  -5.9664  -5.9664  -5.7840  -5.7840
    -1.2773  -1.2773  -1.2180  -1.2180  -1.0905  -1.0905  -1.0845  -1.0845
    -0.8812  -0.8812  -0.8498  -0.8498   2.2540   2.2540   2.3309   2.3309
     2.3454   2.3454   2.3550   2.3550   2.6338   2.6338   4.9800   4.9800
     5.0772   5.0772   5.1424   5.1424   5.2946   5.2946   5.3531   5.3531
     5.7108   5.7108   6.0985   6.0985   6.1786   6.1786   6.4103   6.4103
     6.9387   6.9387   7.0206   7.0206   7.2729   7.2729   7.3522   7.3522
     7.3902   7.3902   7.4215   7.4215   7.6380   7.6380   7.6986   7.6986
     7.8172   7.8172   7.9404   7.9404   8.0096   8.0096   8.2214   8.2214
     8.4385   8.4385   8.5058   8.5058   8.6109   8.6109   8.6548   8.6548
     8.8318   8.8318   8.8661   8.8661   8.9828   8.9828   9.1221   9.1221
     9.2093   9.2093   9.2986   9.2986   9.3915   9.3915   9.6490   9.6490
     9.9050   9.9050  10.3312  10.3312  12.9232  12.9232  13.0572  13.0572
    13.1770  13.1770  13.4088  13.4088  13.6801  13.6801  14.5091  14.5091
    15.0219  15.0219  15.2537  15.2537  15.5725  15.5725  15.6725  15.6725
    15.7668  15.7668  15.7951  15.7951  15.8677  15.8677  15.9552  15.9553
    16.1549  16.1549  16.2200  16.2200  16.5002

     occupation numbers 
     1.0000   1.0000   1.0000   1.0000   1.0000   1.0000   1.0000   1.0000
     1.0000   1.0000   1.0000   1.0000   1.0000   1.0000   1.0000   1.0000
     1.0000   1.0000   1.0000   1.0000   1.0000   1.0000   1.0000   1.0000
     1.0000   1.0000   1.0000   1.0000   1.0000   1.0000   1.0000   1.0000
     1.0000   1.0000   1.0000   1.0000   1.0000   1.0000   1.0000   1.0000
     1.0000   1.0000   1.0000   1.0000   1.0000   1.0000   1.0000   1.0000
     1.0000   1.0000   1.0000   1.0000   1.0000   1.0000   1.0000   1.0000
     1.0000   1.0000   1.0000   1.0000   1.0000   1.0000   1.0000   1.0000
     1.0000   1.0000   1.0000   1.0000   1.0000   1.0000   1.0000   1.0000
     1.0000   1.0000   1.0000   1.0000   1.0000   1.0000   1.0000   1.0000
     1.0000   1.0000   1.0000   1.0000   1.0000   1.0000   1.0000   1.0000
     1.0000   1.0000   1.0000   1.0000   1.0000   1.0000   1.0000   1.0000
     1.0000   1.0000   1.0000   1.0000   1.0000   1.0000   1.0000   1.0000
     1.0000   1.0000   1.0000   1.0000   1.0000   1.0000   1.0000   1.0000
     1.0000   1.0000   1.0000   1.0000   1.0000   1.0000   1.0000   1.0000
     1.0000   1.0000   1.0000   1.0000   1.0000   1.0000   1.0000   1.0000
     1.0000   1.0000   1.0000   1.0000   1.0000   1.0000   1.0000   1.0000
     1.0000   1.0000   1.0000   1.0000   1.0000   1.0000   1.0000   1.0000
     1.0000   1.0000   1.0000   1.0000   1.0000   1.0000   1.0000   1.0000
     1.0000   1.0000   1.0000   1.0000   1.0000   1.0000   1.0000   1.0000
     1.0000   1.0000   1.0000   1.0000   0.0000   0.0000   0.0000   0.0000
     0.0000   0.0000   0.0000   0.0000   0.0000   0.0000   0.0000   0.0000
     0.0000   0.0000   0.0000   0.0000   0.0000   0.0000   0.0000   0.0000
     0.0000   0.0000   0.0000   0.0000   0.0000   0.0000   0.0000   0.0000
     0.0000   0.0000   0.0000   0.0000   0.0000

          k = 0.2500 0.2500 0.0000 ( 47957 PWs)   bands (ev):

   -80.9961 -80.9960 -76.3456 -76.3455 -69.6780 -69.6780 -65.0517 -65.0517
   -47.2446 -47.2446 -47.0427 -47.0427 -47.0427 -47.0427 -42.3695 -42.3695
   -42.1856 -42.1856 -42.1856 -42.1856 -38.7170 -38.7170 -38.5529 -38.5529
   -38.5529 -38.5529 -33.8286 -33.8286 -33.6396 -33.6396 -33.6395 -33.6395
   -30.3155 -30.3141 -30.3076 -30.3068 -15.8825 -15.8818 -15.8157 -15.8151
   -10.7561 -10.7444 -10.6632 -10.6459 -10.5965 -10.5876 -10.5725 -10.5641
   -10.5233 -10.5118 -10.3924 -10.3886  -6.9107  -6.8636  -6.7622  -6.7081
    -6.5238  -6.4180  -6.3190  -6.2727  -6.2087  -6.1293  -6.1029  -6.0975
    -6.0418  -6.0326  -6.0278  -5.9220  -5.9047  -5.8533  -5.8494  -5.7581
    -1.2437  -1.2423  -1.1882  -1.1813  -1.0937  -1.0918  -1.0868  -1.0735
    -0.9381  -0.9324  -0.8575  -0.8568   2.2701   2.2927   2.3046   2.3124
     2.3193   2.3443   2.3570   2.3674   2.6046   2.6159   4.8147   4.8848
     4.9746   4.9858   5.2143   5.2502   5.2942   5.3086   5.3220   5.4301
     5.4518   5.6461   5.9183   6.3214   6.3675   6.4987   6.7051   6.7072
     6.7735   6.8718   6.8790   6.9648   6.9931   7.1860   7.1923   7.2587
     7.3466   7.3957   7.4407   7.5433   7.5851   7.6237   7.6755   7.8243
     7.8689   7.9259   8.0236   8.0929   8.1428   8.2190   8.2998   8.3107
     8.3938   8.4862   8.4884   8.5573   8.6132   8.6250   8.6545   8.7507
     8.7542   8.8603   8.8620   8.9471   9.0222   9.0479   9.1313   9.1382
     9.1541   9.2009   9.2271   9.2516   9.3630   9.5229   9.5510   9.6677
     9.7065   9.7088  10.0502  10.1829  12.7303  12.9387  13.0429  13.0889
    13.0924  13.1347  13.4220  13.4734  13.5919  13.6446  14.2873  14.4240
    14.6792  14.8199  14.8607  15.2747  15.3445  15.3915  15.5276  15.6619
    15.6767  15.7094  15.8745  15.9949  16.0405  16.0409  16.0935  16.2323
    16.2410  16.3617  16.4386  16.4422  16.5380

     occupation numbers 
     1.0000   1.0000   1.0000   1.0000   1.0000   1.0000   1.0000   1.0000
     1.0000   1.0000   1.0000   1.0000   1.0000   1.0000   1.0000   1.0000
     1.0000   1.0000   1.0000   1.0000   1.0000   1.0000   1.0000   1.0000
     1.0000   1.0000   1.0000   1.0000   1.0000   1.0000   1.0000   1.0000
     1.0000   1.0000   1.0000   1.0000   1.0000   1.0000   1.0000   1.0000
     1.0000   1.0000   1.0000   1.0000   1.0000   1.0000   1.0000   1.0000
     1.0000   1.0000   1.0000   1.0000   1.0000   1.0000   1.0000   1.0000
     1.0000   1.0000   1.0000   1.0000   1.0000   1.0000   1.0000   1.0000
     1.0000   1.0000   1.0000   1.0000   1.0000   1.0000   1.0000   1.0000
     1.0000   1.0000   1.0000   1.0000   1.0000   1.0000   1.0000   1.0000
     1.0000   1.0000   1.0000   1.0000   1.0000   1.0000   1.0000   1.0000
     1.0000   1.0000   1.0000   1.0000   1.0000   1.0000   1.0000   1.0000
     1.0000   1.0000   1.0000   1.0000   1.0000   1.0000   1.0000   1.0000
     1.0000   1.0000   1.0000   1.0000   1.0000   1.0000   1.0000   1.0000
     1.0000   1.0000   1.0000   1.0000   1.0000   1.0000   1.0000   1.0000
     1.0000   1.0000   1.0000   1.0000   1.0000   1.0000   1.0000   1.0000
     1.0000   1.0000   1.0000   1.0000   1.0000   1.0000   1.0000   1.0000
     1.0000   1.0000   1.0000   1.0000   1.0000   1.0000   1.0000   1.0000
     1.0000   1.0000   1.0000   1.0000   1.0000   1.0000   1.0000   1.0000
     1.0000   1.0000   1.0000   1.0000   1.0000   1.0000   1.0000   1.0000
     1.0000   1.0000   1.0000   1.0000   0.0000   0.0000   0.0000   0.0000
     0.0000   0.0000   0.0000   0.0000   0.0000   0.0000   0.0000   0.0000
     0.0000   0.0000   0.0000   0.0000   0.0000   0.0000   0.0000   0.0000
     0.0000   0.0000   0.0000   0.0000   0.0000   0.0000   0.0000   0.0000
     0.0000   0.0000   0.0000   0.0000   0.0000

          k = 0.2500 0.2500-0.1842 ( 48026 PWs)   bands (ev):

   -80.9961 -80.9960 -76.3456 -76.3455 -69.6780 -69.6780 -65.0517 -65.0517
   -47.2446 -47.2446 -47.0427 -47.0427 -47.0427 -47.0427 -42.3695 -42.3695
   -42.1856 -42.1856 -42.1856 -42.1856 -38.7170 -38.7170 -38.5529 -38.5529
   -38.5529 -38.5529 -33.8286 -33.8286 -33.6396 -33.6396 -33.6395 -33.6395
   -30.3155 -30.3141 -30.3076 -30.3068 -15.8822 -15.8821 -15.8155 -15.8153
   -10.7561 -10.7444 -10.6623 -10.6468 -10.5964 -10.5876 -10.5725 -10.5641
   -10.5228 -10.5123 -10.3924 -10.3886  -6.9095  -6.8683  -6.7549  -6.7067
    -6.5188  -6.4472  -6.2956  -6.2755  -6.2072  -6.1310  -6.1198  -6.0808
    -6.0456  -6.0331  -6.0214  -5.9224  -5.9059  -5.8531  -5.8503  -5.7591
    -1.2432  -1.2429  -1.1848  -1.1847  -1.0921  -1.0912  -1.0814  -1.0812
    -0.9354  -0.9350  -0.8572  -0.8572   2.2697   2.2927   2.3046   2.3126
     2.3196   2.3444   2.3570   2.3672   2.6046   2.6159   4.8161   4.8795
     4.9352   5.0663   5.2225   5.2517   5.2913   5.3091   5.3151   5.4109
     5.4476   5.5205   6.1605   6.2546   6.4257   6.4261   6.6424   6.6493
     6.7876   6.8272   6.9999   7.0043   7.0986   7.1030   7.1436   7.1599
     7.2937   7.4106   7.4262   7.5630   7.6052   7.6525   7.7598   7.7915
     7.9341   7.9464   8.0509   8.0703   8.1076   8.1731   8.2754   8.3055
     8.3714   8.4771   8.5367   8.5405   8.5758   8.6304   8.6788   8.7589
     8.7844   8.7870   8.9523   8.9645   9.0321   9.0770   9.0856   9.1128
     9.1766   9.1939   9.2231   9.2337   9.3626   9.5134   9.5512   9.6275
     9.7054   9.7523  10.0487  10.1824  12.7218  12.9509  13.0456  13.0857
    13.0875  13.1406  13.4223  13.4731  13.5934  13.6462  14.2825  14.4219
    14.6767  14.8112  14.8628  15.3240  15.3742  15.4732  15.5117  15.6505
    15.6915  15.7383  15.7444  15.8098  15.9012  16.0429  16.0447  16.1893
    16.3881  16.4089  16.4591  16.5770  16.6494

     occupation numbers 
     1.0000   1.0000   1.0000   1.0000   1.0000   1.0000   1.0000   1.0000
     1.0000   1.0000   1.0000   1.0000   1.0000   1.0000   1.0000   1.0000
     1.0000   1.0000   1.0000   1.0000   1.0000   1.0000   1.0000   1.0000
     1.0000   1.0000   1.0000   1.0000   1.0000   1.0000   1.0000   1.0000
     1.0000   1.0000   1.0000   1.0000   1.0000   1.0000   1.0000   1.0000
     1.0000   1.0000   1.0000   1.0000   1.0000   1.0000   1.0000   1.0000
     1.0000   1.0000   1.0000   1.0000   1.0000   1.0000   1.0000   1.0000
     1.0000   1.0000   1.0000   1.0000   1.0000   1.0000   1.0000   1.0000
     1.0000   1.0000   1.0000   1.0000   1.0000   1.0000   1.0000   1.0000
     1.0000   1.0000   1.0000   1.0000   1.0000   1.0000   1.0000   1.0000
     1.0000   1.0000   1.0000   1.0000   1.0000   1.0000   1.0000   1.0000
     1.0000   1.0000   1.0000   1.0000   1.0000   1.0000   1.0000   1.0000
     1.0000   1.0000   1.0000   1.0000   1.0000   1.0000   1.0000   1.0000
     1.0000   1.0000   1.0000   1.0000   1.0000   1.0000   1.0000   1.0000
     1.0000   1.0000   1.0000   1.0000   1.0000   1.0000   1.0000   1.0000
     1.0000   1.0000   1.0000   1.0000   1.0000   1.0000   1.0000   1.0000
     1.0000   1.0000   1.0000   1.0000   1.0000   1.0000   1.0000   1.0000
     1.0000   1.0000   1.0000   1.0000   1.0000   1.0000   1.0000   1.0000
     1.0000   1.0000   1.0000   1.0000   1.0000   1.0000   1.0000   1.0000
     1.0000   1.0000   1.0000   1.0000   1.0000   1.0000   1.0000   1.0000
     1.0000   1.0000   1.0000   1.0000   0.0000   0.0000   0.0000   0.0000
     0.0000   0.0000   0.0000   0.0000   0.0000   0.0000   0.0000   0.0000
     0.0000   0.0000   0.0000   0.0000   0.0000   0.0000   0.0000   0.0000
     0.0000   0.0000   0.0000   0.0000   0.0000   0.0000   0.0000   0.0000
     0.0000   0.0000   0.0000   0.0000   0.0000

          k = 0.2500-0.5000 0.0000 ( 47996 PWs)   bands (ev):

   -80.9961 -80.9960 -76.3456 -76.3456 -69.6780 -69.6780 -65.0517 -65.0517
   -47.2446 -47.2446 -47.0427 -47.0427 -47.0427 -47.0427 -42.3695 -42.3695
   -42.1856 -42.1856 -42.1856 -42.1856 -38.7170 -38.7170 -38.5529 -38.5529
   -38.5529 -38.5529 -33.8286 -33.8286 -33.6396 -33.6396 -33.6395 -33.6395
   -30.3115 -30.3115 -30.3105 -30.3105 -15.8472 -15.8472 -15.8461 -15.8461
   -10.7180 -10.7174 -10.7070 -10.7060 -10.5911 -10.5902 -10.5769 -10.5758
   -10.4465 -10.4447 -10.4403 -10.4403  -6.9277  -6.9275  -6.6216  -6.6204
    -6.5045  -6.4908  -6.3592  -6.3440  -6.2768  -6.2585  -6.1493  -6.1392
    -6.0952  -6.0506  -5.9520  -5.9249  -5.9032  -5.8458  -5.8091  -5.7611
    -1.1046  -1.1007  -1.0892  -1.0860  -1.0736  -1.0733  -1.0380  -1.0374
    -0.8625  -0.8624  -0.8315  -0.8313   2.2600   2.2603   2.3010   2.3057
     2.3514   2.3519   2.3559   2.3589   2.5601   2.5629   4.7923   4.7925
     5.0747   5.0842   5.2229   5.2356   5.3012   5.3036   5.3837   5.4053
     5.7543   5.7767   6.2408   6.2454   6.3433   6.3664   6.6531   6.6749
     6.9076   6.9202   6.9976   7.1020   7.1633   7.1743   7.3105   7.3117
     7.3446   7.3641   7.4619   7.5041   7.5758   7.6612   7.6977   7.7217
     7.7808   7.7985   7.8620   7.9404   8.0080   8.0617   8.0764   8.1429
     8.2424   8.3087   8.3935   8.4120   8.4751   8.5203   8.5555   8.5773
     8.6254   8.6565   8.7145   8.7757   8.8874   8.9107   8.9985   9.0476
     9.0711   9.1310   9.2487   9.2518   9.3607   9.4505   9.4926   9.5099
     9.7882   9.7937  10.0113  10.0680  12.8409  12.8596  13.0706  13.0748
    13.1208  13.1297  13.3937  13.3957  13.4988  13.5100  14.6871  14.7155
    15.2759  15.2829  15.3213  15.3370  15.6154  15.6340  15.6541  15.7322
    15.8539  15.8653  15.9423  15.9429  15.9888  16.0183  16.0882  16.1515
    16.2685  16.2785  16.4366  16.4535  16.5653

     occupation numbers 
     1.0000   1.0000   1.0000   1.0000   1.0000   1.0000   1.0000   1.0000
     1.0000   1.0000   1.0000   1.0000   1.0000   1.0000   1.0000   1.0000
     1.0000   1.0000   1.0000   1.0000   1.0000   1.0000   1.0000   1.0000
     1.0000   1.0000   1.0000   1.0000   1.0000   1.0000   1.0000   1.0000
     1.0000   1.0000   1.0000   1.0000   1.0000   1.0000   1.0000   1.0000
     1.0000   1.0000   1.0000   1.0000   1.0000   1.0000   1.0000   1.0000
     1.0000   1.0000   1.0000   1.0000   1.0000   1.0000   1.0000   1.0000
     1.0000   1.0000   1.0000   1.0000   1.0000   1.0000   1.0000   1.0000
     1.0000   1.0000   1.0000   1.0000   1.0000   1.0000   1.0000   1.0000
     1.0000   1.0000   1.0000   1.0000   1.0000   1.0000   1.0000   1.0000
     1.0000   1.0000   1.0000   1.0000   1.0000   1.0000   1.0000   1.0000
     1.0000   1.0000   1.0000   1.0000   1.0000   1.0000   1.0000   1.0000
     1.0000   1.0000   1.0000   1.0000   1.0000   1.0000   1.0000   1.0000
     1.0000   1.0000   1.0000   1.0000   1.0000   1.0000   1.0000   1.0000
     1.0000   1.0000   1.0000   1.0000   1.0000   1.0000   1.0000   1.0000
     1.0000   1.0000   1.0000   1.0000   1.0000   1.0000   1.0000   1.0000
     1.0000   1.0000   1.0000   1.0000   1.0000   1.0000   1.0000   1.0000
     1.0000   1.0000   1.0000   1.0000   1.0000   1.0000   1.0000   1.0000
     1.0000   1.0000   1.0000   1.0000   1.0000   1.0000   1.0000   1.0000
     1.0000   1.0000   1.0000   1.0000   1.0000   1.0000   1.0000   1.0000
     1.0000   1.0000   1.0000   1.0000   0.0000   0.0000   0.0000   0.0000
     0.0000   0.0000   0.0000   0.0000   0.0000   0.0000   0.0000   0.0000
     0.0000   0.0000   0.0000   0.0000   0.0000   0.0000   0.0000   0.0000
     0.0000   0.0000   0.0000   0.0000   0.0000   0.0000   0.0000   0.0000
     0.0000   0.0000   0.0000   0.0000   0.0000

          k = 0.2500-0.5000-0.1842 ( 48016 PWs)   bands (ev):

   -80.9961 -80.9960 -76.3456 -76.3456 -69.6780 -69.6780 -65.0517 -65.0517
   -47.2446 -47.2446 -47.0427 -47.0427 -47.0427 -47.0427 -42.3695 -42.3695
   -42.1856 -42.1856 -42.1856 -42.1856 -38.7170 -38.7170 -38.5529 -38.5529
   -38.5529 -38.5529 -33.8286 -33.8286 -33.6396 -33.6396 -33.6395 -33.6395
   -30.3115 -30.3115 -30.3105 -30.3105 -15.8471 -15.8471 -15.8462 -15.8462
   -10.7180 -10.7174 -10.7070 -10.7060 -10.5905 -10.5896 -10.5775 -10.5764
   -10.4465 -10.4447 -10.4403 -10.4403  -6.9276  -6.9276  -6.6253  -6.6175
    -6.5020  -6.4869  -6.3689  -6.3428  -6.2679  -6.2647  -6.1494  -6.1493
    -6.0867  -6.0499  -5.9512  -5.9215  -5.9033  -5.8464  -5.8109  -5.7619
    -1.1040  -1.1006  -1.0910  -1.0827  -1.0770  -1.0724  -1.0378  -1.0375
    -0.8626  -0.8619  -0.8318  -0.8312   2.2601   2.2602   2.3008   2.3058
     2.3513   2.3518   2.3560   2.3590   2.5601   2.5629   4.7933   4.7938
     5.0678   5.0771   5.2315   5.2446   5.3031   5.3043   5.3831   5.4044
     5.7404   5.7719   6.2175   6.2598   6.4220   6.4479   6.5052   6.5560
     7.0028   7.0210   7.0663   7.0952   7.1418   7.1962   7.2233   7.2339
     7.2957   7.3945   7.5520   7.5715   7.5782   7.6325   7.6433   7.7041
     7.7912   7.8049   7.8597   7.9067   8.0030   8.0389   8.0980   8.1595
     8.2499   8.2662   8.3576   8.3908   8.5062   8.5083   8.5679   8.5744
     8.6909   8.6935   8.7457   8.7688   8.8228   8.8985   9.0127   9.0561
     9.1059   9.1072   9.2487   9.2597   9.3241   9.4602   9.4953   9.4973
     9.7967   9.8009  10.0091  10.0660  12.8425  12.8622  13.0666  13.0723
    13.1193  13.1306  13.3961  13.3962  13.4992  13.5110  14.6849  14.7111
    15.2269  15.2504  15.3469  15.4721  15.5959  15.6406  15.6540  15.6876
    15.8405  15.8595  15.9172  15.9544  16.0145  16.0255  16.1170  16.1275
    16.1787  16.1958  16.3757  16.3804  16.5847

     occupation numbers 
     1.0000   1.0000   1.0000   1.0000   1.0000   1.0000   1.0000   1.0000
     1.0000   1.0000   1.0000   1.0000   1.0000   1.0000   1.0000   1.0000
     1.0000   1.0000   1.0000   1.0000   1.0000   1.0000   1.0000   1.0000
     1.0000   1.0000   1.0000   1.0000   1.0000   1.0000   1.0000   1.0000
     1.0000   1.0000   1.0000   1.0000   1.0000   1.0000   1.0000   1.0000
     1.0000   1.0000   1.0000   1.0000   1.0000   1.0000   1.0000   1.0000
     1.0000   1.0000   1.0000   1.0000   1.0000   1.0000   1.0000   1.0000
     1.0000   1.0000   1.0000   1.0000   1.0000   1.0000   1.0000   1.0000
     1.0000   1.0000   1.0000   1.0000   1.0000   1.0000   1.0000   1.0000
     1.0000   1.0000   1.0000   1.0000   1.0000   1.0000   1.0000   1.0000
     1.0000   1.0000   1.0000   1.0000   1.0000   1.0000   1.0000   1.0000
     1.0000   1.0000   1.0000   1.0000   1.0000   1.0000   1.0000   1.0000
     1.0000   1.0000   1.0000   1.0000   1.0000   1.0000   1.0000   1.0000
     1.0000   1.0000   1.0000   1.0000   1.0000   1.0000   1.0000   1.0000
     1.0000   1.0000   1.0000   1.0000   1.0000   1.0000   1.0000   1.0000
     1.0000   1.0000   1.0000   1.0000   1.0000   1.0000   1.0000   1.0000
     1.0000   1.0000   1.0000   1.0000   1.0000   1.0000   1.0000   1.0000
     1.0000   1.0000   1.0000   1.0000   1.0000   1.0000   1.0000   1.0000
     1.0000   1.0000   1.0000   1.0000   1.0000   1.0000   1.0000   1.0000
     1.0000   1.0000   1.0000   1.0000   1.0000   1.0000   1.0000   1.0000
     1.0000   1.0000   1.0000   1.0000   0.0000   0.0000   0.0000   0.0000
     0.0000   0.0000   0.0000   0.0000   0.0000   0.0000   0.0000   0.0000
     0.0000   0.0000   0.0000   0.0000   0.0000   0.0000   0.0000   0.0000
     0.0000   0.0000   0.0000   0.0000   0.0000   0.0000   0.0000   0.0000
     0.0000   0.0000   0.0000   0.0000   0.0000

          k =-0.5000-0.5000 0.0000 ( 48100 PWs)   bands (ev):

   -80.9960 -80.9960 -76.3456 -76.3456 -69.6780 -69.6780 -65.0517 -65.0517
   -47.2446 -47.2446 -47.0427 -47.0427 -47.0427 -47.0427 -42.3695 -42.3695
   -42.1856 -42.1856 -42.1856 -42.1856 -38.7170 -38.7170 -38.5529 -38.5529
   -38.5529 -38.5529 -33.8286 -33.8286 -33.6396 -33.6396 -33.6395 -33.6395
   -30.3114 -30.3114 -30.3105 -30.3105 -15.8446 -15.8446 -15.8440 -15.8440
   -10.7712 -10.7712 -10.7589 -10.7589 -10.5861 -10.5861 -10.5719 -10.5719
   -10.3872 -10.3872 -10.3834 -10.3834  -6.9844  -6.9844  -6.6849  -6.6849
    -6.4404  -6.4404  -6.4220  -6.4220  -6.2817  -6.2817  -6.2111  -6.2111
    -6.0816  -6.0816  -5.8921  -5.8921  -5.8858  -5.8858  -5.7364  -5.7364
    -1.0896  -1.0896  -1.0720  -1.0720  -0.9527  -0.9527  -0.9056  -0.9056
    -0.7874  -0.7874  -0.7634  -0.7634   2.2684   2.2684   2.2797   2.2797
     2.3497   2.3497   2.3576   2.3576   2.4908   2.4908   4.6648   4.6648
     5.1357   5.1357   5.2216   5.2216   5.2694   5.2694   5.4440   5.4440
     5.8174   5.8174   6.3618   6.3618   6.5155   6.5155   6.8533   6.8533
     6.9467   6.9467   7.1400   7.1400   7.1730   7.1730   7.2977   7.2977
     7.4085   7.4085   7.4706   7.4706   7.6036   7.6036   7.6116   7.6116
     7.7511   7.7511   7.8480   7.8480   7.9248   7.9248   8.0464   8.0464
     8.2145   8.2145   8.2165   8.2165   8.3413   8.3413   8.5232   8.5232
     8.5499   8.5499   8.6391   8.6391   8.8373   8.8373   8.8945   8.8945
     9.0508   9.0508   9.1083   9.1083   9.1381   9.1381   9.4419   9.4419
     9.7298   9.7298   9.9707   9.9707  12.7113  12.7113  13.0456  13.0456
    13.1010  13.1010  13.3040  13.3040  13.5545  13.5545  15.0595  15.0595
    15.2688  15.2688  15.4084  15.4086  15.5904  15.5904  15.7129  15.7129
    15.9208  15.9208  16.0119  16.0119  16.0429  16.0430  16.2700  16.2701
    16.4545  16.4547  16.5339  16.5340  16.6903

     occupation numbers 
     1.0000   1.0000   1.0000   1.0000   1.0000   1.0000   1.0000   1.0000
     1.0000   1.0000   1.0000   1.0000   1.0000   1.0000   1.0000   1.0000
     1.0000   1.0000   1.0000   1.0000   1.0000   1.0000   1.0000   1.0000
     1.0000   1.0000   1.0000   1.0000   1.0000   1.0000   1.0000   1.0000
     1.0000   1.0000   1.0000   1.0000   1.0000   1.0000   1.0000   1.0000
     1.0000   1.0000   1.0000   1.0000   1.0000   1.0000   1.0000   1.0000
     1.0000   1.0000   1.0000   1.0000   1.0000   1.0000   1.0000   1.0000
     1.0000   1.0000   1.0000   1.0000   1.0000   1.0000   1.0000   1.0000
     1.0000   1.0000   1.0000   1.0000   1.0000   1.0000   1.0000   1.0000
     1.0000   1.0000   1.0000   1.0000   1.0000   1.0000   1.0000   1.0000
     1.0000   1.0000   1.0000   1.0000   1.0000   1.0000   1.0000   1.0000
     1.0000   1.0000   1.0000   1.0000   1.0000   1.0000   1.0000   1.0000
     1.0000   1.0000   1.0000   1.0000   1.0000   1.0000   1.0000   1.0000
     1.0000   1.0000   1.0000   1.0000   1.0000   1.0000   1.0000   1.0000
     1.0000   1.0000   1.0000   1.0000   1.0000   1.0000   1.0000   1.0000
     1.0000   1.0000   1.0000   1.0000   1.0000   1.0000   1.0000   1.0000
     1.0000   1.0000   1.0000   1.0000   1.0000   1.0000   1.0000   1.0000
     1.0000   1.0000   1.0000   1.0000   1.0000   1.0000   1.0000   1.0000
     1.0000   1.0000   1.0000   1.0000   1.0000   1.0000   1.0000   1.0000
     1.0000   1.0000   1.0000   1.0000   1.0000   1.0000   1.0000   1.0000
     1.0000   1.0000   1.0000   1.0000   0.0000   0.0000   0.0000   0.0000
     0.0000   0.0000   0.0000   0.0000   0.0000   0.0000   0.0000   0.0000
     0.0000   0.0000   0.0000   0.0000   0.0000   0.0000   0.0000   0.0000
     0.0000   0.0000   0.0000   0.0000   0.0000   0.0000   0.0000   0.0000
     0.0000   0.0000   0.0000   0.0000   0.0000

          k =-0.5000-0.5000-0.1842 ( 47960 PWs)   bands (ev):

   -80.9960 -80.9960 -76.3456 -76.3456 -69.6780 -69.6780 -65.0517 -65.0517
   -47.2446 -47.2446 -47.0427 -47.0427 -47.0427 -47.0427 -42.3695 -42.3695
   -42.1856 -42.1856 -42.1856 -42.1856 -38.7170 -38.7170 -38.5529 -38.5529
   -38.5529 -38.5529 -33.8286 -33.8286 -33.6396 -33.6396 -33.6395 -33.6395
   -30.3114 -30.3114 -30.3105 -30.3105 -15.8443 -15.8443 -15.8443 -15.8443
   -10.7712 -10.7712 -10.7589 -10.7589 -10.5855 -10.5855 -10.5725 -10.5725
   -10.3872 -10.3872 -10.3834 -10.3834  -6.9839  -6.9839  -6.6877  -6.6877
    -6.4374  -6.4374  -6.4149  -6.4149  -6.2867  -6.2867  -6.2204  -6.2204
    -6.0765  -6.0765  -5.8875  -5.8875  -5.8864  -5.8864  -5.7389  -5.7389
    -1.0876  -1.0876  -1.0740  -1.0740  -0.9527  -0.9527  -0.9056  -0.9056
    -0.7874  -0.7874  -0.7635  -0.7635   2.2682   2.2682   2.2800   2.2800
     2.3495   2.3495   2.3579   2.3579   2.4908   2.4908   4.6654   4.6654
     5.1341   5.1341   5.2198   5.2198   5.2710   5.2710   5.4443   5.4443
     5.8206   5.8206   6.3613   6.3613   6.5100   6.5100   6.8375   6.8375
     7.0178   7.0178   7.1007   7.1007   7.1446   7.1446   7.2276   7.2276
     7.4317   7.4317   7.5928   7.5928   7.6115   7.6115   7.6533   7.6533
     7.7481   7.7481   7.7784   7.7784   7.9176   7.9176   8.0178   8.0178
     8.1179   8.1179   8.2106   8.2106   8.4706   8.4706   8.5211   8.5211
     8.5408   8.5408   8.6662   8.6662   8.7938   8.7938   8.8834   8.8834
     9.0529   9.0529   9.1016   9.1016   9.1563   9.1563   9.4349   9.4349
     9.7355   9.7355   9.9700   9.9700  12.7112  12.7112  13.0445  13.0445
    13.1019  13.1019  13.3047  13.3047  13.5549  13.5549  15.0588  15.0588
    15.2767  15.2767  15.3856  15.3857  15.6220  15.6220  15.7121  15.7121
    15.9410  15.9410  16.0167  16.0167  16.1209  16.1209  16.1697  16.1698
    16.4465  16.4465  16.5772  16.5774  16.6591

     occupation numbers 
     1.0000   1.0000   1.0000   1.0000   1.0000   1.0000   1.0000   1.0000
     1.0000   1.0000   1.0000   1.0000   1.0000   1.0000   1.0000   1.0000
     1.0000   1.0000   1.0000   1.0000   1.0000   1.0000   1.0000   1.0000
     1.0000   1.0000   1.0000   1.0000   1.0000   1.0000   1.0000   1.0000
     1.0000   1.0000   1.0000   1.0000   1.0000   1.0000   1.0000   1.0000
     1.0000   1.0000   1.0000   1.0000   1.0000   1.0000   1.0000   1.0000
     1.0000   1.0000   1.0000   1.0000   1.0000   1.0000   1.0000   1.0000
     1.0000   1.0000   1.0000   1.0000   1.0000   1.0000   1.0000   1.0000
     1.0000   1.0000   1.0000   1.0000   1.0000   1.0000   1.0000   1.0000
     1.0000   1.0000   1.0000   1.0000   1.0000   1.0000   1.0000   1.0000
     1.0000   1.0000   1.0000   1.0000   1.0000   1.0000   1.0000   1.0000
     1.0000   1.0000   1.0000   1.0000   1.0000   1.0000   1.0000   1.0000
     1.0000   1.0000   1.0000   1.0000   1.0000   1.0000   1.0000   1.0000
     1.0000   1.0000   1.0000   1.0000   1.0000   1.0000   1.0000   1.0000
     1.0000   1.0000   1.0000   1.0000   1.0000   1.0000   1.0000   1.0000
     1.0000   1.0000   1.0000   1.0000   1.0000   1.0000   1.0000   1.0000
     1.0000   1.0000   1.0000   1.0000   1.0000   1.0000   1.0000   1.0000
     1.0000   1.0000   1.0000   1.0000   1.0000   1.0000   1.0000   1.0000
     1.0000   1.0000   1.0000   1.0000   1.0000   1.0000   1.0000   1.0000
     1.0000   1.0000   1.0000   1.0000   1.0000   1.0000   1.0000   1.0000
     1.0000   1.0000   1.0000   1.0000   0.0000   0.0000   0.0000   0.0000
     0.0000   0.0000   0.0000   0.0000   0.0000   0.0000   0.0000   0.0000
     0.0000   0.0000   0.0000   0.0000   0.0000   0.0000   0.0000   0.0000
     0.0000   0.0000   0.0000   0.0000   0.0000   0.0000   0.0000   0.0000
     0.0000   0.0000   0.0000   0.0000   0.0000

 ------ SPIN DOWN ----------


          k = 0.0000 0.0000 0.0000 ( 48099 PWs)   bands (ev):

   -80.9961 -80.9960 -76.3456 -76.3455 -69.6781 -69.6780 -65.0517 -65.0516
   -47.2446 -47.2446 -47.0427 -47.0427 -47.0427 -47.0427 -42.3696 -42.3696
   -42.1856 -42.1856 -42.1856 -42.1856 -38.7171 -38.7170 -38.5530 -38.5530
   -38.5530 -38.5530 -33.8286 -33.8285 -33.6395 -33.6395 -33.6394 -33.6394
   -30.3194 -30.3177 -30.3038 -30.3031 -15.9197 -15.9190 -15.7864 -15.7858
   -10.7406 -10.7406 -10.7357 -10.7291 -10.7291 -10.7158 -10.4598 -10.4509
   -10.3976 -10.3976 -10.3941 -10.3941  -7.1022  -6.9595  -6.7436  -6.7182
    -6.3791  -6.2702  -6.2324  -6.2020  -6.2020  -6.1585  -6.0762  -6.0478
    -6.0478  -6.0091  -5.9447  -5.8875  -5.8875  -5.8501  -5.7418  -5.7418
    -1.5362  -1.5362  -1.5353  -1.5353  -1.1103  -1.1084  -1.0948  -1.0756
    -0.9368  -0.9368  -0.9362  -0.9362   2.2184   2.3176   2.3348   2.3348
     2.3370   2.3423   2.3423   2.3730   2.6578   2.7107   4.5979   4.6211
     4.7436   5.0256   5.2222   5.2371   5.2568   5.3249   5.3249   5.3595
     5.3595   5.3617   5.7582   5.9275   6.3841   6.5165   6.5165   6.7012
     6.7012   6.7540   6.9196   6.9431   6.9431   7.0023   7.1262   7.1262
     7.3029   7.3163   7.5214   7.5453   7.7737   7.9111   8.0168   8.0168
     8.1206   8.1206   8.1772   8.2313   8.3268   8.3268   8.4896   8.5171
     8.5171   8.7552   8.7552   8.8518   9.0031   9.0031   9.0155   9.0155
     9.1177   9.1177   9.1768   9.1768   9.2567   9.2608   9.3739   9.3786
     9.3786   9.4169   9.4169   9.4732   9.5120   9.5589   9.5589   9.7566
     9.7861   9.9605   9.9972  10.2886  12.4850  12.9742  13.0405  13.0405
    13.0773  13.0773  13.3717  13.3983  13.6644  13.7215  13.8161  13.9548
    14.0217  14.0610  14.1297  14.6570  15.0024  15.2455  15.2969  15.2969
    15.3883  15.4318  15.4318  15.7168  15.7302  15.8322  15.9562  16.0046
    16.0720  16.1406  16.1406  16.1931  16.1931

     occupation numbers 
     1.0000   1.0000   1.0000   1.0000   1.0000   1.0000   1.0000   1.0000
     1.0000   1.0000   1.0000   1.0000   1.0000   1.0000   1.0000   1.0000
     1.0000   1.0000   1.0000   1.0000   1.0000   1.0000   1.0000   1.0000
     1.0000   1.0000   1.0000   1.0000   1.0000   1.0000   1.0000   1.0000
     1.0000   1.0000   1.0000   1.0000   1.0000   1.0000   1.0000   1.0000
     1.0000   1.0000   1.0000   1.0000   1.0000   1.0000   1.0000   1.0000
     1.0000   1.0000   1.0000   1.0000   1.0000   1.0000   1.0000   1.0000
     1.0000   1.0000   1.0000   1.0000   1.0000   1.0000   1.0000   1.0000
     1.0000   1.0000   1.0000   1.0000   1.0000   1.0000   1.0000   1.0000
     1.0000   1.0000   1.0000   1.0000   1.0000   1.0000   1.0000   1.0000
     1.0000   1.0000   1.0000   1.0000   1.0000   1.0000   1.0000   1.0000
     1.0000   1.0000   1.0000   1.0000   1.0000   1.0000   1.0000   1.0000
     1.0000   1.0000   1.0000   1.0000   1.0000   1.0000   1.0000   1.0000
     1.0000   1.0000   1.0000   1.0000   1.0000   1.0000   1.0000   1.0000
     1.0000   1.0000   1.0000   1.0000   1.0000   1.0000   1.0000   1.0000
     1.0000   1.0000   1.0000   1.0000   1.0000   1.0000   1.0000   1.0000
     1.0000   1.0000   1.0000   1.0000   1.0000   1.0000   1.0000   1.0000
     1.0000   1.0000   1.0000   1.0000   1.0000   1.0000   1.0000   1.0000
     1.0000   1.0000   1.0000   1.0000   1.0000   1.0000   1.0000   1.0000
     1.0000   1.0000   1.0000   1.0000   1.0000   1.0000   1.0000   1.0000
     1.0000   1.0000   1.0000   1.0000   0.0000   0.0000   0.0000   0.0000
     0.0000   0.0000   0.0000   0.0000   0.0000   0.0000   0.0000   0.0000
     0.0000   0.0000   0.0000   0.0000   0.0000   0.0000   0.0000   0.0000
     0.0000   0.0000   0.0000   0.0000   0.0000   0.0000   0.0000   0.0000
     0.0000   0.0000   0.0000   0.0000   0.0000

          k = 0.0000 0.0000-0.1842 ( 47896 PWs)   bands (ev):

   -80.9961 -80.9960 -76.3456 -76.3455 -69.6781 -69.6780 -65.0517 -65.0516
   -47.2446 -47.2446 -47.0427 -47.0427 -47.0427 -47.0427 -42.3696 -42.3695
   -42.1856 -42.1856 -42.1856 -42.1856 -38.7171 -38.7170 -38.5530 -38.5530
   -38.5530 -38.5530 -33.8286 -33.8285 -33.6395 -33.6395 -33.6394 -33.6394
   -30.3194 -30.3177 -30.3038 -30.3031 -15.9194 -15.9194 -15.7862 -15.7860
   -10.7406 -10.7406 -10.7345 -10.7291 -10.7291 -10.7170 -10.4594 -10.4513
   -10.3976 -10.3976 -10.3941 -10.3941  -7.0991  -6.9620  -6.7399  -6.7232
    -6.3584  -6.3382  -6.2015  -6.2015  -6.1650  -6.1585  -6.0763  -6.0494
    -6.0494  -6.0286  -5.9445  -5.8857  -5.8857  -5.8503  -5.7424  -5.7424
    -1.5357  -1.5357  -1.5357  -1.5357  -1.1032  -1.1019  -1.0925  -1.0915
    -0.9365  -0.9365  -0.9364  -0.9364   2.2178   2.3184   2.3347   2.3347
     2.3373   2.3424   2.3424   2.3723   2.6578   2.7107   4.5712   4.6181
     4.9198   4.9911   5.0276   5.2371   5.2570   5.3252   5.3252   5.3592
     5.3592   5.3593   5.8131   5.9764   6.5213   6.5213   6.5815   6.6641
     6.6948   6.6948   6.9163   6.9440   6.9440   6.9469   7.0419   7.1253
     7.1253   7.3349   7.4410   7.6204   7.9321   8.0251   8.0533   8.0533
     8.0873   8.0873   8.1319   8.2328   8.3163   8.3163   8.5024   8.5024
     8.5034   8.8475   8.8475   8.8522   8.8687   8.8687   9.0735   9.0735
     9.1382   9.1382   9.1459   9.2289   9.2289   9.2785   9.2930   9.2930
     9.4316   9.4325   9.4342   9.4342   9.5307   9.5618   9.5618   9.7430
     9.7861   9.9588  10.0005  10.2863  12.4516  13.0438  13.0438  13.0740
    13.0740  13.0889  13.3718  13.3983  13.7626  13.7904  13.8337  13.8408
    13.8436  14.0217  14.1203  14.8415  14.8675  15.2072  15.3368  15.3368
    15.3715  15.3716  15.3868  15.7054  15.7130  15.9183  15.9543  15.9607
    16.0114  16.0770  16.1324  16.1325  16.2099

     occupation numbers 
     1.0000   1.0000   1.0000   1.0000   1.0000   1.0000   1.0000   1.0000
     1.0000   1.0000   1.0000   1.0000   1.0000   1.0000   1.0000   1.0000
     1.0000   1.0000   1.0000   1.0000   1.0000   1.0000   1.0000   1.0000
     1.0000   1.0000   1.0000   1.0000   1.0000   1.0000   1.0000   1.0000
     1.0000   1.0000   1.0000   1.0000   1.0000   1.0000   1.0000   1.0000
     1.0000   1.0000   1.0000   1.0000   1.0000   1.0000   1.0000   1.0000
     1.0000   1.0000   1.0000   1.0000   1.0000   1.0000   1.0000   1.0000
     1.0000   1.0000   1.0000   1.0000   1.0000   1.0000   1.0000   1.0000
     1.0000   1.0000   1.0000   1.0000   1.0000   1.0000   1.0000   1.0000
     1.0000   1.0000   1.0000   1.0000   1.0000   1.0000   1.0000   1.0000
     1.0000   1.0000   1.0000   1.0000   1.0000   1.0000   1.0000   1.0000
     1.0000   1.0000   1.0000   1.0000   1.0000   1.0000   1.0000   1.0000
     1.0000   1.0000   1.0000   1.0000   1.0000   1.0000   1.0000   1.0000
     1.0000   1.0000   1.0000   1.0000   1.0000   1.0000   1.0000   1.0000
     1.0000   1.0000   1.0000   1.0000   1.0000   1.0000   1.0000   1.0000
     1.0000   1.0000   1.0000   1.0000   1.0000   1.0000   1.0000   1.0000
     1.0000   1.0000   1.0000   1.0000   1.0000   1.0000   1.0000   1.0000
     1.0000   1.0000   1.0000   1.0000   1.0000   1.0000   1.0000   1.0000
     1.0000   1.0000   1.0000   1.0000   1.0000   1.0000   1.0000   1.0000
     1.0000   1.0000   1.0000   1.0000   1.0000   1.0000   1.0000   1.0000
     1.0000   1.0000   1.0000   1.0000   0.0000   0.0000   0.0000   0.0000
     0.0000   0.0000   0.0000   0.0000   0.0000   0.0000   0.0000   0.0000
     0.0000   0.0000   0.0000   0.0000   0.0000   0.0000   0.0000   0.0000
     0.0000   0.0000   0.0000   0.0000   0.0000   0.0000   0.0000   0.0000
     0.0000   0.0000   0.0000   0.0000   0.0000

          k = 0.0000 0.2500 0.0000 ( 48036 PWs)   bands (ev):

   -80.9961 -80.9960 -76.3456 -76.3455 -69.6781 -69.6781 -65.0517 -65.0516
   -47.2446 -47.2446 -47.0427 -47.0427 -47.0427 -47.0427 -42.3696 -42.3696
   -42.1856 -42.1856 -42.1856 -42.1856 -38.7171 -38.7170 -38.5530 -38.5530
   -38.5530 -38.5530 -33.8285 -33.8285 -33.6395 -33.6395 -33.6395 -33.6395
   -30.3171 -30.3156 -30.3060 -30.3053 -15.8984 -15.8977 -15.8040 -15.8034
   -10.7033 -10.6983 -10.6924 -10.6871 -10.6853 -10.6713 -10.5011 -10.4909
   -10.4599 -10.4539 -10.4500 -10.4451  -6.9579  -6.8246  -6.8032  -6.7483
    -6.4414  -6.3244  -6.2808  -6.2163  -6.1717  -6.1542  -6.0849  -6.0519
    -6.0480  -6.0261  -5.9762  -5.9652  -5.9054  -5.8818  -5.8454  -5.7341
    -1.4558  -1.4532  -1.2803  -1.2751  -1.0999  -1.0981  -1.0919  -1.0761
    -1.0295  -1.0268  -0.8342  -0.8316   2.2555   2.2991   2.3031   2.3307
     2.3379   2.3405   2.3510   2.3691   2.6433   2.6748   4.8012   4.8235
     4.8756   5.1486   5.1540   5.1856   5.1900   5.3311   5.3337   5.3790
     5.3795   5.5281   5.7794   6.1881   6.3754   6.4322   6.5291   6.6064
     6.7954   6.8291   6.8328   6.9733   7.0615   7.0966   7.1356   7.2659
     7.3341   7.3795   7.4082   7.5630   7.6341   7.7562   7.8529   7.8844
     7.9701   7.9884   8.0854   8.1393   8.2434   8.3317   8.4326   8.4694
     8.4957   8.5098   8.6560   8.6883   8.6951   8.7840   8.8724   8.8830
     8.9177   8.9523   9.0390   9.0583   9.0992   9.1341   9.1559   9.1684
     9.2880   9.3275   9.3284   9.3744   9.4284   9.4471   9.5517   9.6794
     9.8142   9.9406  10.1778  10.3452  12.6506  12.9895  13.0349  13.0976
    13.0989  13.1128  13.3844  13.4190  13.8445  13.8955  14.0620  14.1100
    14.2844  14.3397  14.4660  15.0436  15.2526  15.2766  15.4593  15.4742
    15.5984  15.6330  15.6567  15.7485  15.9186  15.9889  16.0869  16.1125
    16.1225  16.1888  16.1944  16.3039  16.3343

     occupation numbers 
     1.0000   1.0000   1.0000   1.0000   1.0000   1.0000   1.0000   1.0000
     1.0000   1.0000   1.0000   1.0000   1.0000   1.0000   1.0000   1.0000
     1.0000   1.0000   1.0000   1.0000   1.0000   1.0000   1.0000   1.0000
     1.0000   1.0000   1.0000   1.0000   1.0000   1.0000   1.0000   1.0000
     1.0000   1.0000   1.0000   1.0000   1.0000   1.0000   1.0000   1.0000
     1.0000   1.0000   1.0000   1.0000   1.0000   1.0000   1.0000   1.0000
     1.0000   1.0000   1.0000   1.0000   1.0000   1.0000   1.0000   1.0000
     1.0000   1.0000   1.0000   1.0000   1.0000   1.0000   1.0000   1.0000
     1.0000   1.0000   1.0000   1.0000   1.0000   1.0000   1.0000   1.0000
     1.0000   1.0000   1.0000   1.0000   1.0000   1.0000   1.0000   1.0000
     1.0000   1.0000   1.0000   1.0000   1.0000   1.0000   1.0000   1.0000
     1.0000   1.0000   1.0000   1.0000   1.0000   1.0000   1.0000   1.0000
     1.0000   1.0000   1.0000   1.0000   1.0000   1.0000   1.0000   1.0000
     1.0000   1.0000   1.0000   1.0000   1.0000   1.0000   1.0000   1.0000
     1.0000   1.0000   1.0000   1.0000   1.0000   1.0000   1.0000   1.0000
     1.0000   1.0000   1.0000   1.0000   1.0000   1.0000   1.0000   1.0000
     1.0000   1.0000   1.0000   1.0000   1.0000   1.0000   1.0000   1.0000
     1.0000   1.0000   1.0000   1.0000   1.0000   1.0000   1.0000   1.0000
     1.0000   1.0000   1.0000   1.0000   1.0000   1.0000   1.0000   1.0000
     1.0000   1.0000   1.0000   1.0000   1.0000   1.0000   1.0000   1.0000
     1.0000   1.0000   1.0000   1.0000   0.0000   0.0000   0.0000   0.0000
     0.0000   0.0000   0.0000   0.0000   0.0000   0.0000   0.0000   0.0000
     0.0000   0.0000   0.0000   0.0000   0.0000   0.0000   0.0000   0.0000
     0.0000   0.0000   0.0000   0.0000   0.0000   0.0000   0.0000   0.0000
     0.0000   0.0000   0.0000   0.0000   0.0000

          k = 0.0000 0.2500-0.1842 ( 48002 PWs)   bands (ev):

   -80.9961 -80.9960 -76.3456 -76.3455 -69.6781 -69.6781 -65.0517 -65.0516
   -47.2446 -47.2446 -47.0427 -47.0427 -47.0427 -47.0427 -42.3696 -42.3696
   -42.1856 -42.1856 -42.1856 -42.1856 -38.7171 -38.7170 -38.5530 -38.5530
   -38.5530 -38.5530 -33.8285 -33.8285 -33.6395 -33.6395 -33.6395 -33.6395
   -30.3171 -30.3156 -30.3060 -30.3053 -15.8980 -15.8980 -15.8038 -15.8036
   -10.7030 -10.6982 -10.6923 -10.6866 -10.6857 -10.6720 -10.5006 -10.4914
   -10.4599 -10.4539 -10.4500 -10.4451  -6.9577  -6.8330  -6.7780  -6.7635
    -6.4282  -6.3779  -6.2312  -6.2215  -6.1843  -6.1436  -6.0849  -6.0543
    -6.0348  -6.0292  -5.9844  -5.9689  -5.9052  -5.8807  -5.8460  -5.7346
    -1.4546  -1.4545  -1.2778  -1.2776  -1.0965  -1.0957  -1.0872  -1.0866
    -1.0283  -1.0281  -0.8331  -0.8326   2.2550   2.2993   2.3032   2.3310
     2.3378   2.3406   2.3511   2.3689   2.6433   2.6748   4.7732   4.8001
     5.0484   5.0941   5.1562   5.1855   5.1902   5.2384   5.3344   5.3615
     5.3951   5.4162   6.0490   6.1045   6.3610   6.4246   6.5404   6.6137
     6.7945   6.8636   6.8742   6.9758   6.9777   7.0906   7.1027   7.1404
     7.2653   7.4135   7.4580   7.5821   7.7395   7.7621   7.8939   7.9144
     7.9413   7.9450   8.0755   8.1440   8.2780   8.2803   8.3689   8.4429
     8.5051   8.5630   8.6225   8.7553   8.7741   8.8122   8.8357   8.8535
     8.9232   8.9291   9.0167   9.0558   9.1110   9.1177   9.1750   9.2418
     9.2502   9.2862   9.3456   9.3631   9.4284   9.4709   9.4797   9.7092
     9.8140   9.9409  10.1777  10.3454  12.6326  13.0120  13.0340  13.0958
    13.0997  13.1283  13.3852  13.4185  13.8440  13.8962  14.0557  14.1500
    14.2567  14.3659  14.3753  15.1705  15.2416  15.2561  15.3460  15.4932
    15.5075  15.5736  15.6084  15.8202  15.9128  16.0189  16.0362  16.0943
    16.1820  16.1875  16.2904  16.3260  16.3808

     occupation numbers 
     1.0000   1.0000   1.0000   1.0000   1.0000   1.0000   1.0000   1.0000
     1.0000   1.0000   1.0000   1.0000   1.0000   1.0000   1.0000   1.0000
     1.0000   1.0000   1.0000   1.0000   1.0000   1.0000   1.0000   1.0000
     1.0000   1.0000   1.0000   1.0000   1.0000   1.0000   1.0000   1.0000
     1.0000   1.0000   1.0000   1.0000   1.0000   1.0000   1.0000   1.0000
     1.0000   1.0000   1.0000   1.0000   1.0000   1.0000   1.0000   1.0000
     1.0000   1.0000   1.0000   1.0000   1.0000   1.0000   1.0000   1.0000
     1.0000   1.0000   1.0000   1.0000   1.0000   1.0000   1.0000   1.0000
     1.0000   1.0000   1.0000   1.0000   1.0000   1.0000   1.0000   1.0000
     1.0000   1.0000   1.0000   1.0000   1.0000   1.0000   1.0000   1.0000
     1.0000   1.0000   1.0000   1.0000   1.0000   1.0000   1.0000   1.0000
     1.0000   1.0000   1.0000   1.0000   1.0000   1.0000   1.0000   1.0000
     1.0000   1.0000   1.0000   1.0000   1.0000   1.0000   1.0000   1.0000
     1.0000   1.0000   1.0000   1.0000   1.0000   1.0000   1.0000   1.0000
     1.0000   1.0000   1.0000   1.0000   1.0000   1.0000   1.0000   1.0000
     1.0000   1.0000   1.0000   1.0000   1.0000   1.0000   1.0000   1.0000
     1.0000   1.0000   1.0000   1.0000   1.0000   1.0000   1.0000   1.0000
     1.0000   1.0000   1.0000   1.0000   1.0000   1.0000   1.0000   1.0000
     1.0000   1.0000   1.0000   1.0000   1.0000   1.0000   1.0000   1.0000
     1.0000   1.0000   1.0000   1.0000   1.0000   1.0000   1.0000   1.0000
     1.0000   1.0000   1.0000   1.0000   0.0000   0.0000   0.0000   0.0000
     0.0000   0.0000   0.0000   0.0000   0.0000   0.0000   0.0000   0.0000
     0.0000   0.0000   0.0000   0.0000   0.0000   0.0000   0.0000   0.0000
     0.0000   0.0000   0.0000   0.0000   0.0000   0.0000   0.0000   0.0000
     0.0000   0.0000   0.0000   0.0000   0.0000

          k = 0.0000-0.5000 0.0000 ( 48052 PWs)   bands (ev):

   -80.9961 -80.9961 -76.3455 -76.3455 -69.6781 -69.6781 -65.0516 -65.0516
   -47.2446 -47.2446 -47.0427 -47.0427 -47.0427 -47.0427 -42.3696 -42.3696
   -42.1857 -42.1857 -42.1856 -42.1856 -38.7170 -38.7170 -38.5530 -38.5530
   -38.5529 -38.5529 -33.8285 -33.8285 -33.6395 -33.6395 -33.6395 -33.6395
   -30.3115 -30.3115 -30.3105 -30.3105 -15.8499 -15.8499 -15.8481 -15.8481
   -10.6023 -10.6023 -10.5918 -10.5918 -10.5897 -10.5897 -10.5783 -10.5783
   -10.5712 -10.5712 -10.5623 -10.5623  -6.8696  -6.8696  -6.5674  -6.5674
    -6.5152  -6.5152  -6.2915  -6.2915  -6.2051  -6.2051  -6.1282  -6.1282
    -6.0328  -6.0328  -5.9771  -5.9771  -5.9662  -5.9662  -5.7838  -5.7838
    -1.2774  -1.2774  -1.2180  -1.2180  -1.0912  -1.0912  -1.0837  -1.0837
    -0.8817  -0.8817  -0.8494  -0.8494   2.2541   2.2541   2.3309   2.3309
     2.3454   2.3454   2.3550   2.3550   2.6339   2.6339   4.9894   4.9894
     5.0610   5.0610   5.1423   5.1423   5.2977   5.2977   5.3535   5.3535
     5.7404   5.7404   6.0043   6.0043   6.2324   6.2324   6.4795   6.4795
     6.8074   6.8074   7.0592   7.0592   7.2699   7.2699   7.3723   7.3723
     7.3870   7.3870   7.4262   7.4262   7.6698   7.6698   7.7569   7.7569
     7.7812   7.7812   7.9306   7.9306   8.0061   8.0061   8.2189   8.2189
     8.4101   8.4101   8.4775   8.4775   8.6540   8.6540   8.7000   8.7000
     8.7748   8.7748   8.8411   8.8411   9.0201   9.0201   9.0677   9.0677
     9.2717   9.2717   9.2960   9.2960   9.3832   9.3832   9.6456   9.6456
     9.9050   9.9050  10.3317  10.3317  12.9192  12.9192  13.0626  13.0626
    13.1758  13.1758  13.4088  13.4088  13.6800  13.6800  14.5089  14.5089
    15.0380  15.0380  15.2011  15.2011  15.5976  15.5976  15.6565  15.6565
    15.7587  15.7587  15.8046  15.8046  15.8912  15.8912  16.0360  16.0361
    16.1934  16.1936  16.2249  16.2250  16.3900

     occupation numbers 
     1.0000   1.0000   1.0000   1.0000   1.0000   1.0000   1.0000   1.0000
     1.0000   1.0000   1.0000   1.0000   1.0000   1.0000   1.0000   1.0000
     1.0000   1.0000   1.0000   1.0000   1.0000   1.0000   1.0000   1.0000
     1.0000   1.0000   1.0000   1.0000   1.0000   1.0000   1.0000   1.0000
     1.0000   1.0000   1.0000   1.0000   1.0000   1.0000   1.0000   1.0000
     1.0000   1.0000   1.0000   1.0000   1.0000   1.0000   1.0000   1.0000
     1.0000   1.0000   1.0000   1.0000   1.0000   1.0000   1.0000   1.0000
     1.0000   1.0000   1.0000   1.0000   1.0000   1.0000   1.0000   1.0000
     1.0000   1.0000   1.0000   1.0000   1.0000   1.0000   1.0000   1.0000
     1.0000   1.0000   1.0000   1.0000   1.0000   1.0000   1.0000   1.0000
     1.0000   1.0000   1.0000   1.0000   1.0000   1.0000   1.0000   1.0000
     1.0000   1.0000   1.0000   1.0000   1.0000   1.0000   1.0000   1.0000
     1.0000   1.0000   1.0000   1.0000   1.0000   1.0000   1.0000   1.0000
     1.0000   1.0000   1.0000   1.0000   1.0000   1.0000   1.0000   1.0000
     1.0000   1.0000   1.0000   1.0000   1.0000   1.0000   1.0000   1.0000
     1.0000   1.0000   1.0000   1.0000   1.0000   1.0000   1.0000   1.0000
     1.0000   1.0000   1.0000   1.0000   1.0000   1.0000   1.0000   1.0000
     1.0000   1.0000   1.0000   1.0000   1.0000   1.0000   1.0000   1.0000
     1.0000   1.0000   1.0000   1.0000   1.0000   1.0000   1.0000   1.0000
     1.0000   1.0000   1.0000   1.0000   1.0000   1.0000   1.0000   1.0000
     1.0000   1.0000   1.0000   1.0000   0.0000   0.0000   0.0000   0.0000
     0.0000   0.0000   0.0000   0.0000   0.0000   0.0000   0.0000   0.0000
     0.0000   0.0000   0.0000   0.0000   0.0000   0.0000   0.0000   0.0000
     0.0000   0.0000   0.0000   0.0000   0.0000   0.0000   0.0000   0.0000
     0.0000   0.0000   0.0000   0.0000   0.0000

          k = 0.0000-0.5000-0.1842 ( 48060 PWs)   bands (ev):

   -80.9961 -80.9961 -76.3455 -76.3455 -69.6781 -69.6781 -65.0516 -65.0516
   -47.2446 -47.2446 -47.0427 -47.0427 -47.0427 -47.0427 -42.3696 -42.3696
   -42.1857 -42.1857 -42.1856 -42.1856 -38.7170 -38.7170 -38.5530 -38.5530
   -38.5529 -38.5529 -33.8285 -33.8285 -33.6395 -33.6395 -33.6395 -33.6395
   -30.3115 -30.3115 -30.3105 -30.3105 -15.8498 -15.8498 -15.8482 -15.8482
   -10.6018 -10.6018 -10.5921 -10.5921 -10.5897 -10.5897 -10.5783 -10.5783
   -10.5712 -10.5712 -10.5624 -10.5624  -6.8696  -6.8696  -6.5778  -6.5778
    -6.4948  -6.4948  -6.3158  -6.3158  -6.1961  -6.1961  -6.1179  -6.1179
    -6.0364  -6.0364  -5.9781  -5.9781  -5.9664  -5.9664  -5.7840  -5.7840
    -1.2773  -1.2773  -1.2180  -1.2180  -1.0905  -1.0905  -1.0845  -1.0845
    -0.8812  -0.8812  -0.8498  -0.8498   2.2540   2.2540   2.3309   2.3309
     2.3454   2.3454   2.3550   2.3550   2.6339   2.6339   4.9799   4.9799
     5.0772   5.0772   5.1423   5.1423   5.2945   5.2945   5.3530   5.3530
     5.7108   5.7108   6.0985   6.0985   6.1786   6.1786   6.4103   6.4103
     6.9387   6.9387   7.0206   7.0206   7.2729   7.2729   7.3521   7.3521
     7.3902   7.3902   7.4215   7.4215   7.6380   7.6380   7.6986   7.6986
     7.8172   7.8172   7.9404   7.9404   8.0096   8.0096   8.2214   8.2214
     8.4385   8.4385   8.5057   8.5057   8.6109   8.6109   8.6548   8.6548
     8.8318   8.8318   8.8661   8.8661   8.9828   8.9828   9.1221   9.1221
     9.2093   9.2093   9.2986   9.2986   9.3915   9.3915   9.6490   9.6490
     9.9051   9.9051  10.3312  10.3312  12.9232  12.9232  13.0572  13.0572
    13.1769  13.1769  13.4088  13.4088  13.6801  13.6801  14.5091  14.5091
    15.0218  15.0218  15.2538  15.2538  15.5724  15.5724  15.6726  15.6726
    15.7668  15.7668  15.7951  15.7951  15.8677  15.8677  15.9552  15.9553
    16.1549  16.1549  16.2201  16.2206  16.5002

     occupation numbers 
     1.0000   1.0000   1.0000   1.0000   1.0000   1.0000   1.0000   1.0000
     1.0000   1.0000   1.0000   1.0000   1.0000   1.0000   1.0000   1.0000
     1.0000   1.0000   1.0000   1.0000   1.0000   1.0000   1.0000   1.0000
     1.0000   1.0000   1.0000   1.0000   1.0000   1.0000   1.0000   1.0000
     1.0000   1.0000   1.0000   1.0000   1.0000   1.0000   1.0000   1.0000
     1.0000   1.0000   1.0000   1.0000   1.0000   1.0000   1.0000   1.0000
     1.0000   1.0000   1.0000   1.0000   1.0000   1.0000   1.0000   1.0000
     1.0000   1.0000   1.0000   1.0000   1.0000   1.0000   1.0000   1.0000
     1.0000   1.0000   1.0000   1.0000   1.0000   1.0000   1.0000   1.0000
     1.0000   1.0000   1.0000   1.0000   1.0000   1.0000   1.0000   1.0000
     1.0000   1.0000   1.0000   1.0000   1.0000   1.0000   1.0000   1.0000
     1.0000   1.0000   1.0000   1.0000   1.0000   1.0000   1.0000   1.0000
     1.0000   1.0000   1.0000   1.0000   1.0000   1.0000   1.0000   1.0000
     1.0000   1.0000   1.0000   1.0000   1.0000   1.0000   1.0000   1.0000
     1.0000   1.0000   1.0000   1.0000   1.0000   1.0000   1.0000   1.0000
     1.0000   1.0000   1.0000   1.0000   1.0000   1.0000   1.0000   1.0000
     1.0000   1.0000   1.0000   1.0000   1.0000   1.0000   1.0000   1.0000
     1.0000   1.0000   1.0000   1.0000   1.0000   1.0000   1.0000   1.0000
     1.0000   1.0000   1.0000   1.0000   1.0000   1.0000   1.0000   1.0000
     1.0000   1.0000   1.0000   1.0000   1.0000   1.0000   1.0000   1.0000
     1.0000   1.0000   1.0000   1.0000   0.0000   0.0000   0.0000   0.0000
     0.0000   0.0000   0.0000   0.0000   0.0000   0.0000   0.0000   0.0000
     0.0000   0.0000   0.0000   0.0000   0.0000   0.0000   0.0000   0.0000
     0.0000   0.0000   0.0000   0.0000   0.0000   0.0000   0.0000   0.0000
     0.0000   0.0000   0.0000   0.0000   0.0000

          k = 0.2500 0.2500 0.0000 ( 47957 PWs)   bands (ev):

   -80.9961 -80.9960 -76.3456 -76.3456 -69.6781 -69.6781 -65.0517 -65.0516
   -47.2446 -47.2446 -47.0427 -47.0427 -47.0427 -47.0427 -42.3696 -42.3696
   -42.1856 -42.1856 -42.1856 -42.1856 -38.7171 -38.7170 -38.5530 -38.5530
   -38.5530 -38.5530 -33.8285 -33.8285 -33.6395 -33.6395 -33.6395 -33.6394
   -30.3154 -30.3141 -30.3076 -30.3068 -15.8825 -15.8818 -15.8157 -15.8151
   -10.7561 -10.7445 -10.6631 -10.6460 -10.5964 -10.5876 -10.5725 -10.5642
   -10.5232 -10.5118 -10.3923 -10.3886  -6.9107  -6.8636  -6.7621  -6.7081
    -6.5238  -6.4180  -6.3190  -6.2727  -6.2086  -6.1293  -6.1028  -6.0975
    -6.0418  -6.0326  -6.0277  -5.9221  -5.9047  -5.8533  -5.8494  -5.7581
    -1.2437  -1.2423  -1.1882  -1.1813  -1.0937  -1.0918  -1.0868  -1.0735
    -0.9381  -0.9324  -0.8575  -0.8568   2.2701   2.2927   2.3047   2.3124
     2.3194   2.3443   2.3570   2.3675   2.6046   2.6159   4.8146   4.8848
     4.9746   4.9858   5.2142   5.2501   5.2941   5.3086   5.3219   5.4300
     5.4517   5.6461   5.9183   6.3214   6.3675   6.4986   6.7051   6.7072
     6.7735   6.8718   6.8790   6.9649   6.9931   7.1860   7.1923   7.2587
     7.3466   7.3957   7.4407   7.5433   7.5851   7.6237   7.6755   7.8243
     7.8689   7.9259   8.0235   8.0929   8.1428   8.2190   8.2998   8.3107
     8.3938   8.4862   8.4884   8.5573   8.6132   8.6250   8.6545   8.7507
     8.7542   8.8603   8.8620   8.9471   9.0222   9.0479   9.1313   9.1382
     9.1541   9.2009   9.2271   9.2516   9.3630   9.5229   9.5510   9.6677
     9.7065   9.7088  10.0501  10.1828  12.7303  12.9387  13.0428  13.0889
    13.0923  13.1346  13.4220  13.4733  13.5919  13.6446  14.2873  14.4240
    14.6791  14.8199  14.8607  15.2747  15.3446  15.3915  15.5276  15.6619
    15.6768  15.7094  15.8745  15.9949  16.0405  16.0409  16.0935  16.2323
    16.2411  16.3617  16.4386  16.4422  16.5380

     occupation numbers 
     1.0000   1.0000   1.0000   1.0000   1.0000   1.0000   1.0000   1.0000
     1.0000   1.0000   1.0000   1.0000   1.0000   1.0000   1.0000   1.0000
     1.0000   1.0000   1.0000   1.0000   1.0000   1.0000   1.0000   1.0000
     1.0000   1.0000   1.0000   1.0000   1.0000   1.0000   1.0000   1.0000
     1.0000   1.0000   1.0000   1.0000   1.0000   1.0000   1.0000   1.0000
     1.0000   1.0000   1.0000   1.0000   1.0000   1.0000   1.0000   1.0000
     1.0000   1.0000   1.0000   1.0000   1.0000   1.0000   1.0000   1.0000
     1.0000   1.0000   1.0000   1.0000   1.0000   1.0000   1.0000   1.0000
     1.0000   1.0000   1.0000   1.0000   1.0000   1.0000   1.0000   1.0000
     1.0000   1.0000   1.0000   1.0000   1.0000   1.0000   1.0000   1.0000
     1.0000   1.0000   1.0000   1.0000   1.0000   1.0000   1.0000   1.0000
     1.0000   1.0000   1.0000   1.0000   1.0000   1.0000   1.0000   1.0000
     1.0000   1.0000   1.0000   1.0000   1.0000   1.0000   1.0000   1.0000
     1.0000   1.0000   1.0000   1.0000   1.0000   1.0000   1.0000   1.0000
     1.0000   1.0000   1.0000   1.0000   1.0000   1.0000   1.0000   1.0000
     1.0000   1.0000   1.0000   1.0000   1.0000   1.0000   1.0000   1.0000
     1.0000   1.0000   1.0000   1.0000   1.0000   1.0000   1.0000   1.0000
     1.0000   1.0000   1.0000   1.0000   1.0000   1.0000   1.0000   1.0000
     1.0000   1.0000   1.0000   1.0000   1.0000   1.0000   1.0000   1.0000
     1.0000   1.0000   1.0000   1.0000   1.0000   1.0000   1.0000   1.0000
     1.0000   1.0000   1.0000   1.0000   0.0000   0.0000   0.0000   0.0000
     0.0000   0.0000   0.0000   0.0000   0.0000   0.0000   0.0000   0.0000
     0.0000   0.0000   0.0000   0.0000   0.0000   0.0000   0.0000   0.0000
     0.0000   0.0000   0.0000   0.0000   0.0000   0.0000   0.0000   0.0000
     0.0000   0.0000   0.0000   0.0000   0.0000

          k = 0.2500 0.2500-0.1842 ( 48026 PWs)   bands (ev):

   -80.9961 -80.9960 -76.3456 -76.3456 -69.6781 -69.6781 -65.0517 -65.0516
   -47.2446 -47.2446 -47.0427 -47.0427 -47.0427 -47.0427 -42.3696 -42.3696
   -42.1856 -42.1856 -42.1856 -42.1856 -38.7171 -38.7170 -38.5530 -38.5530
   -38.5530 -38.5530 -33.8285 -33.8285 -33.6395 -33.6395 -33.6395 -33.6394
   -30.3154 -30.3141 -30.3076 -30.3068 -15.8822 -15.8821 -15.8155 -15.8153
   -10.7561 -10.7445 -10.6623 -10.6468 -10.5964 -10.5876 -10.5725 -10.5642
   -10.5228 -10.5123 -10.3923 -10.3886  -6.9095  -6.8683  -6.7548  -6.7068
    -6.5189  -6.4472  -6.2955  -6.2755  -6.2071  -6.1310  -6.1197  -6.0808
    -6.0456  -6.0331  -6.0214  -5.9224  -5.9058  -5.8532  -5.8504  -5.7591
    -1.2432  -1.2429  -1.1848  -1.1847  -1.0921  -1.0912  -1.0814  -1.0812
    -0.9354  -0.9350  -0.8572  -0.8572   2.2697   2.2927   2.3046   2.3126
     2.3197   2.3445   2.3570   2.3672   2.6046   2.6159   4.8161   4.8794
     4.9352   5.0663   5.2225   5.2517   5.2912   5.3091   5.3150   5.4108
     5.4476   5.5205   6.1605   6.2546   6.4257   6.4261   6.6424   6.6493
     6.7876   6.8271   6.9999   7.0043   7.0986   7.1030   7.1436   7.1599
     7.2937   7.4106   7.4263   7.5630   7.6053   7.6525   7.7598   7.7915
     7.9341   7.9464   8.0509   8.0703   8.1076   8.1731   8.2754   8.3055
     8.3714   8.4771   8.5367   8.5405   8.5758   8.6304   8.6788   8.7589
     8.7844   8.7870   8.9523   8.9645   9.0321   9.0770   9.0856   9.1128
     9.1766   9.1939   9.2231   9.2337   9.3626   9.5134   9.5512   9.6275
     9.7055   9.7523  10.0487  10.1823  12.7218  12.9509  13.0456  13.0856
    13.0875  13.1406  13.4223  13.4730  13.5934  13.6462  14.2826  14.4219
    14.6767  14.8112  14.8628  15.3240  15.3742  15.4732  15.5117  15.6505
    15.6915  15.7383  15.7444  15.8098  15.9011  16.0429  16.0447  16.1893
    16.3881  16.4090  16.4592  16.5770  16.6495

     occupation numbers 
     1.0000   1.0000   1.0000   1.0000   1.0000   1.0000   1.0000   1.0000
     1.0000   1.0000   1.0000   1.0000   1.0000   1.0000   1.0000   1.0000
     1.0000   1.0000   1.0000   1.0000   1.0000   1.0000   1.0000   1.0000
     1.0000   1.0000   1.0000   1.0000   1.0000   1.0000   1.0000   1.0000
     1.0000   1.0000   1.0000   1.0000   1.0000   1.0000   1.0000   1.0000
     1.0000   1.0000   1.0000   1.0000   1.0000   1.0000   1.0000   1.0000
     1.0000   1.0000   1.0000   1.0000   1.0000   1.0000   1.0000   1.0000
     1.0000   1.0000   1.0000   1.0000   1.0000   1.0000   1.0000   1.0000
     1.0000   1.0000   1.0000   1.0000   1.0000   1.0000   1.0000   1.0000
     1.0000   1.0000   1.0000   1.0000   1.0000   1.0000   1.0000   1.0000
     1.0000   1.0000   1.0000   1.0000   1.0000   1.0000   1.0000   1.0000
     1.0000   1.0000   1.0000   1.0000   1.0000   1.0000   1.0000   1.0000
     1.0000   1.0000   1.0000   1.0000   1.0000   1.0000   1.0000   1.0000
     1.0000   1.0000   1.0000   1.0000   1.0000   1.0000   1.0000   1.0000
     1.0000   1.0000   1.0000   1.0000   1.0000   1.0000   1.0000   1.0000
     1.0000   1.0000   1.0000   1.0000   1.0000   1.0000   1.0000   1.0000
     1.0000   1.0000   1.0000   1.0000   1.0000   1.0000   1.0000   1.0000
     1.0000   1.0000   1.0000   1.0000   1.0000   1.0000   1.0000   1.0000
     1.0000   1.0000   1.0000   1.0000   1.0000   1.0000   1.0000   1.0000
     1.0000   1.0000   1.0000   1.0000   1.0000   1.0000   1.0000   1.0000
     1.0000   1.0000   1.0000   1.0000   0.0000   0.0000   0.0000   0.0000
     0.0000   0.0000   0.0000   0.0000   0.0000   0.0000   0.0000   0.0000
     0.0000   0.0000   0.0000   0.0000   0.0000   0.0000   0.0000   0.0000
     0.0000   0.0000   0.0000   0.0000   0.0000   0.0000   0.0000   0.0000
     0.0000   0.0000   0.0000   0.0000   0.0000

          k = 0.2500-0.5000 0.0000 ( 47996 PWs)   bands (ev):

   -80.9960 -80.9960 -76.3456 -76.3456 -69.6781 -69.6781 -65.0517 -65.0516
   -47.2446 -47.2446 -47.0427 -47.0427 -47.0427 -47.0427 -42.3696 -42.3696
   -42.1856 -42.1856 -42.1856 -42.1856 -38.7170 -38.7170 -38.5530 -38.5530
   -38.5530 -38.5530 -33.8285 -33.8285 -33.6395 -33.6395 -33.6395 -33.6395
   -30.3114 -30.3114 -30.3105 -30.3105 -15.8472 -15.8472 -15.8461 -15.8461
   -10.7180 -10.7174 -10.7070 -10.7060 -10.5911 -10.5902 -10.5770 -10.5758
   -10.4465 -10.4447 -10.4404 -10.4403  -6.9277  -6.9275  -6.6216  -6.6204
    -6.5045  -6.4907  -6.3591  -6.3440  -6.2768  -6.2585  -6.1493  -6.1392
    -6.0952  -6.0506  -5.9519  -5.9249  -5.9032  -5.8458  -5.8091  -5.7612
    -1.1046  -1.1007  -1.0892  -1.0860  -1.0736  -1.0733  -1.0380  -1.0374
    -0.8625  -0.8624  -0.8315  -0.8313   2.2600   2.2604   2.3010   2.3058
     2.3514   2.3519   2.3559   2.3589   2.5602   2.5629   4.7923   4.7924
     5.0747   5.0841   5.2229   5.2355   5.3011   5.3036   5.3836   5.4053
     5.7542   5.7767   6.2408   6.2454   6.3433   6.3664   6.6531   6.6749
     6.9076   6.9202   6.9976   7.1020   7.1633   7.1743   7.3105   7.3117
     7.3446   7.3641   7.4619   7.5041   7.5758   7.6612   7.6977   7.7217
     7.7808   7.7986   7.8620   7.9404   8.0080   8.0617   8.0764   8.1429
     8.2424   8.3087   8.3935   8.4120   8.4751   8.5204   8.5555   8.5773
     8.6254   8.6565   8.7145   8.7757   8.8874   8.9107   8.9985   9.0477
     9.0711   9.1310   9.2487   9.2518   9.3607   9.4505   9.4927   9.5099
     9.7881   9.7937  10.0112  10.0679  12.8409  12.8596  13.0706  13.0747
    13.1208  13.1296  13.3937  13.3956  13.4988  13.5100  14.6871  14.7155
    15.2759  15.2829  15.3213  15.3370  15.6155  15.6340  15.6541  15.7322
    15.8539  15.8653  15.9423  15.9429  15.9888  16.0183  16.0882  16.1515
    16.2685  16.2785  16.4366  16.4536  16.5654

     occupation numbers 
     1.0000   1.0000   1.0000   1.0000   1.0000   1.0000   1.0000   1.0000
     1.0000   1.0000   1.0000   1.0000   1.0000   1.0000   1.0000   1.0000
     1.0000   1.0000   1.0000   1.0000   1.0000   1.0000   1.0000   1.0000
     1.0000   1.0000   1.0000   1.0000   1.0000   1.0000   1.0000   1.0000
     1.0000   1.0000   1.0000   1.0000   1.0000   1.0000   1.0000   1.0000
     1.0000   1.0000   1.0000   1.0000   1.0000   1.0000   1.0000   1.0000
     1.0000   1.0000   1.0000   1.0000   1.0000   1.0000   1.0000   1.0000
     1.0000   1.0000   1.0000   1.0000   1.0000   1.0000   1.0000   1.0000
     1.0000   1.0000   1.0000   1.0000   1.0000   1.0000   1.0000   1.0000
     1.0000   1.0000   1.0000   1.0000   1.0000   1.0000   1.0000   1.0000
     1.0000   1.0000   1.0000   1.0000   1.0000   1.0000   1.0000   1.0000
     1.0000   1.0000   1.0000   1.0000   1.0000   1.0000   1.0000   1.0000
     1.0000   1.0000   1.0000   1.0000   1.0000   1.0000   1.0000   1.0000
     1.0000   1.0000   1.0000   1.0000   1.0000   1.0000   1.0000   1.0000
     1.0000   1.0000   1.0000   1.0000   1.0000   1.0000   1.0000   1.0000
     1.0000   1.0000   1.0000   1.0000   1.0000   1.0000   1.0000   1.0000
     1.0000   1.0000   1.0000   1.0000   1.0000   1.0000   1.0000   1.0000
     1.0000   1.0000   1.0000   1.0000   1.0000   1.0000   1.0000   1.0000
     1.0000   1.0000   1.0000   1.0000   1.0000   1.0000   1.0000   1.0000
     1.0000   1.0000   1.0000   1.0000   1.0000   1.0000   1.0000   1.0000
     1.0000   1.0000   1.0000   1.0000   0.0000   0.0000   0.0000   0.0000
     0.0000   0.0000   0.0000   0.0000   0.0000   0.0000   0.0000   0.0000
     0.0000   0.0000   0.0000   0.0000   0.0000   0.0000   0.0000   0.0000
     0.0000   0.0000   0.0000   0.0000   0.0000   0.0000   0.0000   0.0000
     0.0000   0.0000   0.0000   0.0000   0.0000

          k = 0.2500-0.5000-0.1842 ( 48016 PWs)   bands (ev):

   -80.9960 -80.9960 -76.3456 -76.3456 -69.6781 -69.6781 -65.0517 -65.0516
   -47.2446 -47.2446 -47.0427 -47.0427 -47.0427 -47.0427 -42.3696 -42.3696
   -42.1856 -42.1856 -42.1856 -42.1856 -38.7170 -38.7170 -38.5530 -38.5530
   -38.5530 -38.5530 -33.8285 -33.8285 -33.6395 -33.6395 -33.6395 -33.6395
   -30.3114 -30.3114 -30.3105 -30.3105 -15.8471 -15.8471 -15.8462 -15.8462
   -10.7180 -10.7174 -10.7070 -10.7060 -10.5905 -10.5896 -10.5776 -10.5764
   -10.4465 -10.4447 -10.4404 -10.4403  -6.9276  -6.9275  -6.6253  -6.6175
    -6.5019  -6.4869  -6.3688  -6.3428  -6.2679  -6.2647  -6.1494  -6.1493
    -6.0866  -6.0498  -5.9511  -5.9215  -5.9034  -5.8464  -5.8109  -5.7619
    -1.1040  -1.1006  -1.0910  -1.0827  -1.0770  -1.0724  -1.0378  -1.0375
    -0.8626  -0.8620  -0.8318  -0.8312   2.2602   2.2602   2.3008   2.3059
     2.3513   2.3519   2.3560   2.3590   2.5602   2.5629   4.7932   4.7937
     5.0677   5.0771   5.2314   5.2445   5.3031   5.3043   5.3831   5.4043
     5.7404   5.7719   6.2175   6.2598   6.4220   6.4479   6.5052   6.5560
     7.0028   7.0210   7.0663   7.0952   7.1418   7.1962   7.2233   7.2339
     7.2957   7.3945   7.5520   7.5714   7.5782   7.6325   7.6433   7.7042
     7.7912   7.8049   7.8597   7.9067   8.0030   8.0389   8.0979   8.1595
     8.2498   8.2662   8.3576   8.3908   8.5062   8.5083   8.5678   8.5744
     8.6909   8.6935   8.7457   8.7689   8.8228   8.8985   9.0127   9.0561
     9.1059   9.1072   9.2487   9.2597   9.3241   9.4602   9.4953   9.4973
     9.7967   9.8009  10.0090  10.0659  12.8425  12.8622  13.0666  13.0723
    13.1193  13.1306  13.3960  13.3962  13.4992  13.5110  14.6849  14.7111
    15.2269  15.2504  15.3469  15.4721  15.5959  15.6406  15.6540  15.6876
    15.8405  15.8595  15.9172  15.9544  16.0145  16.0255  16.1170  16.1275
    16.1787  16.1959  16.3761  16.3807  16.5848

     occupation numbers 
     1.0000   1.0000   1.0000   1.0000   1.0000   1.0000   1.0000   1.0000
     1.0000   1.0000   1.0000   1.0000   1.0000   1.0000   1.0000   1.0000
     1.0000   1.0000   1.0000   1.0000   1.0000   1.0000   1.0000   1.0000
     1.0000   1.0000   1.0000   1.0000   1.0000   1.0000   1.0000   1.0000
     1.0000   1.0000   1.0000   1.0000   1.0000   1.0000   1.0000   1.0000
     1.0000   1.0000   1.0000   1.0000   1.0000   1.0000   1.0000   1.0000
     1.0000   1.0000   1.0000   1.0000   1.0000   1.0000   1.0000   1.0000
     1.0000   1.0000   1.0000   1.0000   1.0000   1.0000   1.0000   1.0000
     1.0000   1.0000   1.0000   1.0000   1.0000   1.0000   1.0000   1.0000
     1.0000   1.0000   1.0000   1.0000   1.0000   1.0000   1.0000   1.0000
     1.0000   1.0000   1.0000   1.0000   1.0000   1.0000   1.0000   1.0000
     1.0000   1.0000   1.0000   1.0000   1.0000   1.0000   1.0000   1.0000
     1.0000   1.0000   1.0000   1.0000   1.0000   1.0000   1.0000   1.0000
     1.0000   1.0000   1.0000   1.0000   1.0000   1.0000   1.0000   1.0000
     1.0000   1.0000   1.0000   1.0000   1.0000   1.0000   1.0000   1.0000
     1.0000   1.0000   1.0000   1.0000   1.0000   1.0000   1.0000   1.0000
     1.0000   1.0000   1.0000   1.0000   1.0000   1.0000   1.0000   1.0000
     1.0000   1.0000   1.0000   1.0000   1.0000   1.0000   1.0000   1.0000
     1.0000   1.0000   1.0000   1.0000   1.0000   1.0000   1.0000   1.0000
     1.0000   1.0000   1.0000   1.0000   1.0000   1.0000   1.0000   1.0000
     1.0000   1.0000   1.0000   1.0000   0.0000   0.0000   0.0000   0.0000
     0.0000   0.0000   0.0000   0.0000   0.0000   0.0000   0.0000   0.0000
     0.0000   0.0000   0.0000   0.0000   0.0000   0.0000   0.0000   0.0000
     0.0000   0.0000   0.0000   0.0000   0.0000   0.0000   0.0000   0.0000
     0.0000   0.0000   0.0000   0.0000   0.0000

          k =-0.5000-0.5000 0.0000 ( 48100 PWs)   bands (ev):

   -80.9960 -80.9960 -76.3456 -76.3456 -69.6781 -69.6781 -65.0517 -65.0517
   -47.2446 -47.2446 -47.0427 -47.0427 -47.0427 -47.0427 -42.3696 -42.3696
   -42.1856 -42.1856 -42.1856 -42.1856 -38.7170 -38.7170 -38.5530 -38.5530
   -38.5530 -38.5530 -33.8285 -33.8285 -33.6395 -33.6395 -33.6395 -33.6395
   -30.3114 -30.3114 -30.3105 -30.3105 -15.8446 -15.8446 -15.8440 -15.8440
   -10.7711 -10.7711 -10.7589 -10.7589 -10.5861 -10.5861 -10.5719 -10.5719
   -10.3872 -10.3872 -10.3835 -10.3835  -6.9844  -6.9844  -6.6849  -6.6849
    -6.4404  -6.4404  -6.4220  -6.4220  -6.2817  -6.2817  -6.2112  -6.2112
    -6.0816  -6.0816  -5.8920  -5.8920  -5.8858  -5.8858  -5.7364  -5.7364
    -1.0896  -1.0896  -1.0720  -1.0720  -0.9527  -0.9527  -0.9056  -0.9056
    -0.7874  -0.7874  -0.7634  -0.7634   2.2685   2.2685   2.2798   2.2798
     2.3498   2.3498   2.3576   2.3576   2.4908   2.4908   4.6647   4.6647
     5.1357   5.1357   5.2216   5.2216   5.2693   5.2693   5.4439   5.4439
     5.8174   5.8174   6.3617   6.3617   6.5155   6.5155   6.8534   6.8534
     6.9467   6.9467   7.1400   7.1400   7.1730   7.1730   7.2977   7.2977
     7.4085   7.4085   7.4706   7.4706   7.6036   7.6036   7.6116   7.6116
     7.7511   7.7511   7.8480   7.8480   7.9248   7.9248   8.0464   8.0464
     8.2145   8.2145   8.2165   8.2165   8.3413   8.3413   8.5232   8.5232
     8.5499   8.5499   8.6391   8.6391   8.8373   8.8373   8.8945   8.8945
     9.0508   9.0508   9.1082   9.1082   9.1381   9.1381   9.4419   9.4419
     9.7297   9.7297   9.9707   9.9707  12.7112  12.7112  13.0455  13.0455
    13.1010  13.1010  13.3040  13.3040  13.5545  13.5545  15.0595  15.0595
    15.2688  15.2688  15.4085  15.4085  15.5904  15.5904  15.7128  15.7128
    15.9208  15.9208  16.0119  16.0119  16.0429  16.0430  16.2700  16.2701
    16.4546  16.4547  16.5340  16.5340  16.6904

     occupation numbers 
     1.0000   1.0000   1.0000   1.0000   1.0000   1.0000   1.0000   1.0000
     1.0000   1.0000   1.0000   1.0000   1.0000   1.0000   1.0000   1.0000
     1.0000   1.0000   1.0000   1.0000   1.0000   1.0000   1.0000   1.0000
     1.0000   1.0000   1.0000   1.0000   1.0000   1.0000   1.0000   1.0000
     1.0000   1.0000   1.0000   1.0000   1.0000   1.0000   1.0000   1.0000
     1.0000   1.0000   1.0000   1.0000   1.0000   1.0000   1.0000   1.0000
     1.0000   1.0000   1.0000   1.0000   1.0000   1.0000   1.0000   1.0000
     1.0000   1.0000   1.0000   1.0000   1.0000   1.0000   1.0000   1.0000
     1.0000   1.0000   1.0000   1.0000   1.0000   1.0000   1.0000   1.0000
     1.0000   1.0000   1.0000   1.0000   1.0000   1.0000   1.0000   1.0000
     1.0000   1.0000   1.0000   1.0000   1.0000   1.0000   1.0000   1.0000
     1.0000   1.0000   1.0000   1.0000   1.0000   1.0000   1.0000   1.0000
     1.0000   1.0000   1.0000   1.0000   1.0000   1.0000   1.0000   1.0000
     1.0000   1.0000   1.0000   1.0000   1.0000   1.0000   1.0000   1.0000
     1.0000   1.0000   1.0000   1.0000   1.0000   1.0000   1.0000   1.0000
     1.0000   1.0000   1.0000   1.0000   1.0000   1.0000   1.0000   1.0000
     1.0000   1.0000   1.0000   1.0000   1.0000   1.0000   1.0000   1.0000
     1.0000   1.0000   1.0000   1.0000   1.0000   1.0000   1.0000   1.0000
     1.0000   1.0000   1.0000   1.0000   1.0000   1.0000   1.0000   1.0000
     1.0000   1.0000   1.0000   1.0000   1.0000   1.0000   1.0000   1.0000
     1.0000   1.0000   1.0000   1.0000   0.0000   0.0000   0.0000   0.0000
     0.0000   0.0000   0.0000   0.0000   0.0000   0.0000   0.0000   0.0000
     0.0000   0.0000   0.0000   0.0000   0.0000   0.0000   0.0000   0.0000
     0.0000   0.0000   0.0000   0.0000   0.0000   0.0000   0.0000   0.0000
     0.0000   0.0000   0.0000   0.0000   0.0000

          k =-0.5000-0.5000-0.1842 ( 47960 PWs)   bands (ev):

   -80.9960 -80.9960 -76.3456 -76.3456 -69.6781 -69.6781 -65.0517 -65.0517
   -47.2446 -47.2446 -47.0427 -47.0427 -47.0427 -47.0427 -42.3696 -42.3696
   -42.1856 -42.1856 -42.1856 -42.1856 -38.7170 -38.7170 -38.5530 -38.5530
   -38.5530 -38.5530 -33.8285 -33.8285 -33.6395 -33.6395 -33.6394 -33.6394
   -30.3114 -30.3114 -30.3105 -30.3105 -15.8443 -15.8443 -15.8443 -15.8443
   -10.7711 -10.7711 -10.7589 -10.7589 -10.5855 -10.5855 -10.5725 -10.5725
   -10.3872 -10.3872 -10.3835 -10.3835  -6.9839  -6.9839  -6.6878  -6.6878
    -6.4374  -6.4374  -6.4149  -6.4149  -6.2867  -6.2867  -6.2204  -6.2204
    -6.0764  -6.0764  -5.8875  -5.8875  -5.8864  -5.8864  -5.7389  -5.7389
    -1.0876  -1.0876  -1.0740  -1.0740  -0.9527  -0.9527  -0.9056  -0.9056
    -0.7874  -0.7874  -0.7634  -0.7634   2.2682   2.2682   2.2800   2.2800
     2.3495   2.3495   2.3579   2.3579   2.4908   2.4908   4.6653   4.6653
     5.1340   5.1340   5.2198   5.2198   5.2710   5.2710   5.4443   5.4443
     5.8206   5.8206   6.3613   6.3613   6.5100   6.5100   6.8376   6.8376
     7.0178   7.0178   7.1007   7.1007   7.1446   7.1446   7.2276   7.2276
     7.4317   7.4317   7.5928   7.5928   7.6115   7.6115   7.6533   7.6533
     7.7481   7.7481   7.7784   7.7784   7.9176   7.9176   8.0178   8.0178
     8.1179   8.1179   8.2106   8.2106   8.4706   8.4706   8.5211   8.5211
     8.5408   8.5408   8.6662   8.6662   8.7938   8.7938   8.8834   8.8834
     9.0529   9.0529   9.1016   9.1016   9.1563   9.1563   9.4349   9.4349
     9.7355   9.7355   9.9700   9.9700  12.7112  12.7112  13.0445  13.0445
    13.1019  13.1019  13.3047  13.3047  13.5549  13.5549  15.0589  15.0589
    15.2767  15.2767  15.3856  15.3856  15.6220  15.6220  15.7120  15.7120
    15.9410  15.9410  16.0167  16.0167  16.1209  16.1210  16.1697  16.1697
    16.4463  16.4464  16.5772  16.5787  16.6591

     occupation numbers 
     1.0000   1.0000   1.0000   1.0000   1.0000   1.0000   1.0000   1.0000
     1.0000   1.0000   1.0000   1.0000   1.0000   1.0000   1.0000   1.0000
     1.0000   1.0000   1.0000   1.0000   1.0000   1.0000   1.0000   1.0000
     1.0000   1.0000   1.0000   1.0000   1.0000   1.0000   1.0000   1.0000
     1.0000   1.0000   1.0000   1.0000   1.0000   1.0000   1.0000   1.0000
     1.0000   1.0000   1.0000   1.0000   1.0000   1.0000   1.0000   1.0000
     1.0000   1.0000   1.0000   1.0000   1.0000   1.0000   1.0000   1.0000
     1.0000   1.0000   1.0000   1.0000   1.0000   1.0000   1.0000   1.0000
     1.0000   1.0000   1.0000   1.0000   1.0000   1.0000   1.0000   1.0000
     1.0000   1.0000   1.0000   1.0000   1.0000   1.0000   1.0000   1.0000
     1.0000   1.0000   1.0000   1.0000   1.0000   1.0000   1.0000   1.0000
     1.0000   1.0000   1.0000   1.0000   1.0000   1.0000   1.0000   1.0000
     1.0000   1.0000   1.0000   1.0000   1.0000   1.0000   1.0000   1.0000
     1.0000   1.0000   1.0000   1.0000   1.0000   1.0000   1.0000   1.0000
     1.0000   1.0000   1.0000   1.0000   1.0000   1.0000   1.0000   1.0000
     1.0000   1.0000   1.0000   1.0000   1.0000   1.0000   1.0000   1.0000
     1.0000   1.0000   1.0000   1.0000   1.0000   1.0000   1.0000   1.0000
     1.0000   1.0000   1.0000   1.0000   1.0000   1.0000   1.0000   1.0000
     1.0000   1.0000   1.0000   1.0000   1.0000   1.0000   1.0000   1.0000
     1.0000   1.0000   1.0000   1.0000   1.0000   1.0000   1.0000   1.0000
     1.0000   1.0000   1.0000   1.0000   0.0000   0.0000   0.0000   0.0000
     0.0000   0.0000   0.0000   0.0000   0.0000   0.0000   0.0000   0.0000
     0.0000   0.0000   0.0000   0.0000   0.0000   0.0000   0.0000   0.0000
     0.0000   0.0000   0.0000   0.0000   0.0000   0.0000   0.0000   0.0000
     0.0000   0.0000   0.0000   0.0000   0.0000

     the Fermi energy is    11.1802 ev

!    total energy              =   -3088.50787524 Ry
     estimated scf accuracy    <       0.00000023 Ry
     smearing contrib. (-TS)   =      -0.00000000 Ry
     internal energy E=F+TS    =   -3088.50787524 Ry

     The total energy is F=E-TS. E is the sum of the following terms:
     one-electron contribution =   -1463.90623943 Ry
     hartree contribution      =     910.00869011 Ry
     xc contribution           =    -575.37438167 Ry
     ewald contribution        =   -1960.11463469 Ry
     Hubbard energy            =       0.87869044 Ry

     total magnetization       =    -0.00 Bohr mag/cell
     absolute magnetization    =    38.25 Bohr mag/cell

     convergence has been achieved in  15 iterations

     Writing all to output data dir /tmp/scratch/single/single.save/ :
     XML data file, charge density, pseudopotentials, collected wavefunctions

     init_run     :     12.08s CPU     13.29s WALL (       1 calls)
     electrons    :    386.24s CPU    424.30s WALL (       1 calls)

     Called by init_run:
     wfcinit      :      9.96s CPU     11.00s WALL (       1 calls)
     wfcinit:atom :      0.07s CPU      0.07s WALL (       2 calls)
     wfcinit:wfcr :      7.41s CPU      8.32s WALL (       2 calls)
     potinit      :      0.61s CPU      0.72s WALL (       1 calls)
     hinit0       :      1.18s CPU      1.21s WALL (       1 calls)

     Called by electrons:
     c_bands      :    322.35s CPU    352.71s WALL (      15 calls)
     sum_band     :     47.71s CPU     54.30s WALL (      15 calls)
     v_of_rho     :      5.49s CPU      5.87s WALL (      16 calls)
     v_h          :      0.18s CPU      0.20s WALL (      16 calls)
     v_xc         :      5.29s CPU      5.66s WALL (      16 calls)
     mix_rho      :      6.21s CPU      6.77s WALL (      15 calls)

     Called by c_bands:
     init_us_2    :      3.47s CPU      3.70s WALL (      64 calls)
     cegterg      :    298.82s CPU    328.34s WALL (      30 calls)

     Called by sum_band:
     sum_band:wei :      0.02s CPU      0.02s WALL (      15 calls)
     sum_band:loo :     42.56s CPU     48.01s WALL (      15 calls)
     sum_band:buf :      0.52s CPU      0.54s WALL (      30 calls)
     sum_band:ini :      1.63s CPU      1.69s WALL (      30 calls)

     Called by *egterg:
     cdiaghg      :      5.84s CPU      5.99s WALL (     168 calls)
     cegterg:over :     23.13s CPU     23.96s WALL (     138 calls)
     cegterg:upda :     13.01s CPU     13.61s WALL (     138 calls)
     cegterg:last :     21.82s CPU     22.61s WALL (      58 calls)
     h_psi        :    230.26s CPU    257.87s WALL (     170 calls)
     g_psi        :      0.97s CPU      1.01s WALL (     138 calls)

     Called by h_psi:
     h_psi:calbec :     30.67s CPU     31.74s WALL (     170 calls)
     vloc_psi     :    163.16s CPU    188.16s WALL (     170 calls)
                                        0.00s GPU  (     170 calls)
     add_vuspsi   :     29.14s CPU     30.22s WALL (     170 calls)
     vhpsi        :      6.09s CPU      6.49s WALL (     170 calls)

     General routines
     calbec       :     35.59s CPU     36.91s WALL (     372 calls)
     fft          :      2.43s CPU      2.73s WALL (     302 calls)
     ffts         :      3.13s CPU      3.71s WALL (     478 calls)
     fftw         :    165.40s CPU    195.41s WALL (   34608 calls)

     Parallel routines

     Hubbard U routines
     new_ns       :      1.77s CPU      1.82s WALL (      15 calls)
     vhpsi        :      6.09s CPU      6.49s WALL (     170 calls)

     PWSCF        :   6m39.16s CPU   7m19.08s WALL


   This run was terminated on:   7:49: 0   2Oct2026            

=------------------------------------------------------------------------------=
   JOB DONE.
=------------------------------------------------------------------------------=
