
     Program PWSCF v.7.5 starts on  2Oct2026 at  7:41:32 

     This program is part of the open-source Quantum ESPRESSO suite
     for quantum simulation of materials; please cite
         "P. Giannozzi et al., J. Phys.:Condens. Matter 21 395502 (2009);
         "P. Giannozzi et al., J. Phys.:Condens. Matter 29 465901 (2017);
         "P. Giannozzi et al., J. Chem. Phys. 152 154105 (2020);
          URL http://www.quantum-espresso.org", 
     in publications or presentations arising from this work. More details at
     http://www.quantum-espresso.org/quote

     Parallel version (MPI & OpenMP), running on      32 processor cores
     Number of MPI processes:                32
     Threads/MPI process:                     1

     MPI processes distributed on     1 nodes
     695532 MiB available memory on the printing compute node when the environment starts

     Reading input from single.in

     Current dimensions of program PWSCF are:
     Max number of different atomic species (ntypx) = 10
     Max number of k-points (npk) =  40000
     Max angular momentum in pseudopotentials (lmaxx) =  4
     Found identity + (  0.0000  0.0000 -0.5000) symmetry
     This is a supercell, fractional translations are disabled
     Message from routine setup:
     using ibrav=0 with symmetry is DISCOURAGED, use correct ibrav instead

     K-points division:     npool     =      16
     R & G space division:  proc/nbgrp/npool/nimage =       2
     Subspace diagonalization in iterative solution of the eigenvalue problem:
     a serial algorithm will be used


     Parallelization info
     --------------------
     sticks:   dense  smooth     PW     G-vecs:    dense   smooth      PW
     Min        1648    1648    442               192138   192138   27394
     Max        1649    1649    443               192141   192141   27405
     Sum        3297    3297    885               384279   384279   54799

     Using Slab Decomposition



     bravais-lattice index     =            0
     lattice parameter (alat)  =      10.7051  a.u.
     unit-cell volume          =    3330.2042 (a.u.)^3
     number of atoms/cell      =           36
     number of atomic types    =            5
     number of electrons       =       328.00
     number of Kohn-Sham states=          197
     kinetic-energy cutoff     =      90.0000  Ry
     charge density cutoff     =     360.0000  Ry
     scf convergence threshold =      3.6E-07
     mixing beta               =       0.3000
     number of iterations used =            8  local-TF  mixing
     Exchange-correlation= PBE
                           (   1   4   3   4   0   0   0)
     Hubbard projectors: ortho-atomic
     Hubbard parameters of DFT+U (Dudarev formulation) in eV:
     U(Mn-3d) =  2.0000
     U(Fe-3d) =  2.0000

     Internal variables: lda_plus_u =T, lda_plus_u_kind = 0

     Internal variables: orbital_resolved =F, hub_pot_fix =F, apply_U = F

     celldm(1)=  10.705124  celldm(2)=   0.000000  celldm(3)=   0.000000
     celldm(4)=   0.000000  celldm(5)=   0.000000  celldm(6)=   0.000000

     crystal axes: (cart. coord. in units of alat)
               a(1) = (   1.000000   0.000000   0.000000 )  
               a(2) = (   0.000000   1.000000   0.000000 )  
               a(3) = (   0.000000   0.000000   2.714537 )  

     reciprocal axes: (cart. coord. in units 2 pi/alat)
               b(1) = (  1.000000  0.000000  0.000000 )  
               b(2) = (  0.000000  1.000000  0.000000 )  
               b(3) = (  0.000000  0.000000  0.368387 )  


     PseudoPot. # 1 for Ba read from file:
     /data/pseudo/dojo_sr/Ba.upf
     MD5 check sum: d1993ebf099ea5c29fdb9ecc5bd2bc91
     Pseudo is Norm-conserving + core correction, Zval = 10.0
     Generated using ONCVPSP code by D. R. Hamann
     Using radial grid of 1958 points,  6 beta functions with: 
                l(1) =   0
                l(2) =   0
                l(3) =   1
                l(4) =   1
                l(5) =   2
                l(6) =   2

     PseudoPot. # 2 for Y  read from file:
     /data/pseudo/dojo_sr/Y.upf
     MD5 check sum: 28b7a77fe5d3539441de961898735449
     Pseudo is Norm-conserving + core correction, Zval = 11.0
     Generated using ONCVPSP code by D. R. Hamann
     Using radial grid of 1766 points,  6 beta functions with: 
                l(1) =   0
                l(2) =   0
                l(3) =   1
                l(4) =   1
                l(5) =   2
                l(6) =   2

     PseudoPot. # 3 for Mn read from file:
     /data/pseudo/dojo_sr/Mn.upf
     MD5 check sum: ae71e1481ef25a952ba54bed1e0db183
     Pseudo is Norm-conserving + core correction, Zval = 15.0
     Generated using ONCVPSP code by D. R. Hamann
     Using radial grid of 1464 points,  6 beta functions with: 
                l(1) =   0
                l(2) =   0
                l(3) =   1
                l(4) =   1
                l(5) =   2
                l(6) =   2

     PseudoPot. # 4 for Fe read from file:
     /data/pseudo/dojo_sr/Fe.upf
     MD5 check sum: a5f07f5dca5be6cacb81ceb54992e4ae
     Pseudo is Norm-conserving + core correction, Zval = 16.0
     Generated using ONCVPSP code by D. R. Hamann
     Using radial grid of 1426 points,  6 beta functions with: 
                l(1) =   0
                l(2) =   0
                l(3) =   1
                l(4) =   1
                l(5) =   2
                l(6) =   2

     PseudoPot. # 5 for O  read from file:
     /data/pseudo/dojo_sr/O.upf
     MD5 check sum: 3e3f909f7470e8921608ab6b1f57bbae
     Pseudo is Norm-conserving + core correction, Zval =  6.0
     Generated using ONCVPSP code by D. R. Hamann
     Using radial grid of  936 points,  5 beta functions with: 
                l(1) =   0
                l(2) =   0
                l(3) =   1
                l(4) =   1
                l(5) =   2

     atomic species   valence    mass     pseudopotential
     Ba               10.00   137.32700     Ba( 1.00)
     Y                11.00    88.90580     Y ( 1.00)
     Mn               15.00    54.93800     Mn( 1.00)
     Fe               16.00    55.84500     Fe( 1.00)
     O                 6.00    15.99900     O ( 1.00)

     Starting magnetic structure 
     atomic species   magnetization
     Ba              0.000
     Y               0.000
     Mn              0.300
     Fe             -0.263
     O               0.000

      4 Sym. Ops. (no inversion) found


                                    s                        frac. trans.

      isym =  1     identity                                     

 cryst.   s( 1) = (     1          0          0      )
                  (     0          1          0      )
                  (     0          0          1      )

 cart.    s( 1) = (  1.0000000  0.0000000  0.0000000 )
                  (  0.0000000  1.0000000  0.0000000 )
                  (  0.0000000  0.0000000  1.0000000 )


      isym =  2     180 deg rotation - cart. axis [0,0,1]        

 cryst.   s( 2) = (    -1          0          0      )
                  (     0         -1          0      )
                  (     0          0          1      )

 cart.    s( 2) = ( -1.0000000  0.0000000  0.0000000 )
                  (  0.0000000 -1.0000000  0.0000000 )
                  (  0.0000000  0.0000000  1.0000000 )


      isym =  3     inv.  90 deg rotation - cart. axis [0,0,-1]  

 cryst.   s( 3) = (     0          1          0      )
                  (    -1          0          0      )
                  (     0          0         -1      )

 cart.    s( 3) = (  0.0000000 -1.0000000  0.0000000 )
                  (  1.0000000  0.0000000  0.0000000 )
                  (  0.0000000  0.0000000 -1.0000000 )


      isym =  4     inv.  90 deg rotation - cart. axis [0,0,1]   

 cryst.   s( 4) = (     0         -1          0      )
                  (     1          0          0      )
                  (     0          0         -1      )

 cart.    s( 4) = (  0.0000000  1.0000000  0.0000000 )
                  ( -1.0000000  0.0000000  0.0000000 )
                  (  0.0000000  0.0000000 -1.0000000 )


   Cartesian axes

     site n.     atom                  positions (alat units)
         1        Ba     tau(   1) = (   0.0000000   0.0000000   0.0000000  )
         2        Ba     tau(   2) = (   0.0000000   0.0000000   1.3572685  )
         3        Ba     tau(   3) = (   0.5000000   0.5000000   0.0000000  )
         4        Ba     tau(   4) = (   0.5000000   0.5000000   1.3572685  )
         5        Y      tau(   5) = (   0.0000000   0.0000000   0.6786343  )
         6        Y      tau(   6) = (   0.0000000   0.0000000   2.0359028  )
         7        Y      tau(   7) = (   0.5000000   0.5000000   0.6786343  )
         8        Y      tau(   8) = (   0.5000000   0.5000000   2.0359028  )
         9        Mn     tau(   9) = (   0.0000000   0.5000000   0.3541496  )
        10        Mn     tau(  10) = (   0.0000000   0.5000000   1.7114181  )
        11        Mn     tau(  11) = (   0.5000000   0.0000000   1.0031189  )
        12        Mn     tau(  12) = (   0.5000000   0.0000000   2.3603874  )
        13        Fe     tau(  13) = (   0.5000000   0.0000000   0.3505554  )
        14        Fe     tau(  14) = (   0.5000000   0.0000000   1.7078239  )
        15        Fe     tau(  15) = (   0.0000000   0.5000000   1.0067131  )
        16        Fe     tau(  16) = (   0.0000000   0.5000000   2.3639816  )
        17        O      tau(  17) = (   0.5000000   0.0000000   0.0118988  )
        18        O      tau(  18) = (   0.5000000   0.0000000   1.3691674  )
        19        O      tau(  19) = (   0.0000000   0.5000000   1.3453697  )
        20        O      tau(  20) = (   0.0000000   0.5000000   2.7026382  )
        21        O      tau(  21) = (   0.2144487   0.2287493   0.9307969  )
        22        O      tau(  22) = (   0.2144487   0.2287493   2.2880654  )
        23        O      tau(  23) = (   0.7855513   0.7712507   0.9307969  )
        24        O      tau(  24) = (   0.7855513   0.7712507   2.2880654  )
        25        O      tau(  25) = (   0.2712507   0.7144487   0.9307969  )
        26        O      tau(  26) = (   0.2712507   0.7144487   2.2880654  )
        27        O      tau(  27) = (   0.7287493   0.2855513   0.9307969  )
        28        O      tau(  28) = (   0.7287493   0.2855513   2.2880654  )
        29        O      tau(  29) = (   0.2855513   0.2712507   0.4264716  )
        30        O      tau(  30) = (   0.2855513   0.2712507   1.7837401  )
        31        O      tau(  31) = (   0.7144487   0.7287493   0.4264716  )
        32        O      tau(  32) = (   0.7144487   0.7287493   1.7837401  )
        33        O      tau(  33) = (   0.2287493   0.7855513   0.4264716  )
        34        O      tau(  34) = (   0.2287493   0.7855513   1.7837401  )
        35        O      tau(  35) = (   0.7712507   0.2144487   0.4264716  )
        36        O      tau(  36) = (   0.7712507   0.2144487   1.7837401  )

   Crystallographic axes

     site n.     atom                  positions (cryst. coord.)
         1        Ba     tau(   1) = (  0.0000000  0.0000000  0.0000000  )
         2        Ba     tau(   2) = (  0.0000000  0.0000000  0.5000000  )
         3        Ba     tau(   3) = (  0.5000000  0.5000000  0.0000000  )
         4        Ba     tau(   4) = (  0.5000000  0.5000000  0.5000000  )
         5        Y      tau(   5) = (  0.0000000  0.0000000  0.2500000  )
         6        Y      tau(   6) = (  0.0000000  0.0000000  0.7500000  )
         7        Y      tau(   7) = (  0.5000000  0.5000000  0.2500000  )
         8        Y      tau(   8) = (  0.5000000  0.5000000  0.7500000  )
         9        Mn     tau(   9) = (  0.0000000  0.5000000  0.1304641  )
        10        Mn     tau(  10) = (  0.0000000  0.5000000  0.6304641  )
        11        Mn     tau(  11) = (  0.5000000  0.0000000  0.3695359  )
        12        Mn     tau(  12) = (  0.5000000  0.0000000  0.8695359  )
        13        Fe     tau(  13) = (  0.5000000  0.0000000  0.1291400  )
        14        Fe     tau(  14) = (  0.5000000  0.0000000  0.6291400  )
        15        Fe     tau(  15) = (  0.0000000  0.5000000  0.3708600  )
        16        Fe     tau(  16) = (  0.0000000  0.5000000  0.8708600  )
        17        O      tau(  17) = (  0.5000000  0.0000000  0.0043834  )
        18        O      tau(  18) = (  0.5000000  0.0000000  0.5043834  )
        19        O      tau(  19) = (  0.0000000  0.5000000  0.4956166  )
        20        O      tau(  20) = (  0.0000000  0.5000000  0.9956166  )
        21        O      tau(  21) = (  0.2144487  0.2287493  0.3428934  )
        22        O      tau(  22) = (  0.2144487  0.2287493  0.8428934  )
        23        O      tau(  23) = (  0.7855513  0.7712507  0.3428934  )
        24        O      tau(  24) = (  0.7855513  0.7712507  0.8428934  )
        25        O      tau(  25) = (  0.2712507  0.7144487  0.3428934  )
        26        O      tau(  26) = (  0.2712507  0.7144487  0.8428934  )
        27        O      tau(  27) = (  0.7287493  0.2855513  0.3428934  )
        28        O      tau(  28) = (  0.7287493  0.2855513  0.8428934  )
        29        O      tau(  29) = (  0.2855513  0.2712507  0.1571066  )
        30        O      tau(  30) = (  0.2855513  0.2712507  0.6571066  )
        31        O      tau(  31) = (  0.7144487  0.7287493  0.1571066  )
        32        O      tau(  32) = (  0.7144487  0.7287493  0.6571066  )
        33        O      tau(  33) = (  0.2287493  0.7855513  0.1571066  )
        34        O      tau(  34) = (  0.2287493  0.7855513  0.6571066  )
        35        O      tau(  35) = (  0.7712507  0.2144487  0.1571066  )
        36        O      tau(  36) = (  0.7712507  0.2144487  0.6571066  )

     number of k points=    12  Gaussian smearing, width (Ry)=  0.0050
                       cart. coord. in units 2pi/alat
        k(    1) = (   0.0000000   0.0000000   0.0000000), wk =   0.0312500
        k(    2) = (   0.0000000   0.0000000  -0.1841935), wk =   0.0312500
        k(    3) = (   0.0000000   0.2500000   0.0000000), wk =   0.1250000
        k(    4) = (   0.0000000   0.2500000  -0.1841935), wk =   0.1250000
        k(    5) = (   0.0000000  -0.5000000   0.0000000), wk =   0.0625000
        k(    6) = (   0.0000000  -0.5000000  -0.1841935), wk =   0.0625000
        k(    7) = (   0.2500000   0.2500000   0.0000000), wk =   0.1250000
        k(    8) = (   0.2500000   0.2500000  -0.1841935), wk =   0.1250000
        k(    9) = (   0.2500000  -0.5000000   0.0000000), wk =   0.1250000
        k(   10) = (   0.2500000  -0.5000000  -0.1841935), wk =   0.1250000
        k(   11) = (  -0.5000000  -0.5000000   0.0000000), wk =   0.0312500
        k(   12) = (  -0.5000000  -0.5000000  -0.1841935), wk =   0.0312500

                       cryst. coord.
        k(    1) = (   0.0000000   0.0000000   0.0000000), wk =   0.0312500
        k(    2) = (   0.0000000   0.0000000  -0.5000000), wk =   0.0312500
        k(    3) = (   0.0000000   0.2500000   0.0000000), wk =   0.1250000
        k(    4) = (   0.0000000   0.2500000  -0.5000000), wk =   0.1250000
        k(    5) = (   0.0000000  -0.5000000   0.0000000), wk =   0.0625000
        k(    6) = (   0.0000000  -0.5000000  -0.5000000), wk =   0.0625000
        k(    7) = (   0.2500000   0.2500000   0.0000000), wk =   0.1250000
        k(    8) = (   0.2500000   0.2500000  -0.5000000), wk =   0.1250000
        k(    9) = (   0.2500000  -0.5000000   0.0000000), wk =   0.1250000
        k(   10) = (   0.2500000  -0.5000000  -0.5000000), wk =   0.1250000
        k(   11) = (  -0.5000000  -0.5000000   0.0000000), wk =   0.0312500
        k(   12) = (  -0.5000000  -0.5000000  -0.5000000), wk =   0.0312500

     Dense  grid:   384279 G-vectors     FFT dimensions: (  72,  72, 180)

     Dynamical RAM for                 wfc:      72.17 MB

     Dynamical RAM for     wfc (w. buffer):     216.50 MB

     Dynamical RAM for             U proj.:      14.65 MB

     Dynamical RAM for  U proj. (w. buff.):      43.96 MB

     Dynamical RAM for           str. fact:      14.66 MB

     Dynamical RAM for           local pot:       0.00 MB

     Dynamical RAM for          nlocal pot:     200.75 MB

     Dynamical RAM for                qrad:       7.61 MB

     Dynamical RAM for          rho,v,vnew:      38.95 MB

     Dynamical RAM for               rhoin:      12.98 MB

     Dynamical RAM for            rho*nmix:      93.82 MB

     Dynamical RAM for           G-vectors:      12.46 MB

     Dynamical RAM for          h,s,v(r/c):       7.11 MB

     Dynamical RAM for          <psi|beta>:       1.65 MB

     Dynamical RAM for                 psi:     144.34 MB

     Dynamical RAM for                hpsi:     144.34 MB

     Dynamical RAM for      wfcinit/wfcrot:     145.22 MB

     Estimated static dynamical RAM per process >     586.83 MB

     Estimated max dynamical RAM per process >     978.07 MB

     Estimated total dynamical RAM >      27.82 GB
     Generating pointlists ...
     new r_m :   0.2063 (alat units)  2.2086 (a.u.) for type    1
     new r_m :   0.1660 (alat units)  1.7768 (a.u.) for type    2
     new r_m :   0.1510 (alat units)  1.6164 (a.u.) for type    3
     new r_m :   0.1397 (alat units)  1.4955 (a.u.) for type    4
     new r_m :   0.1397 (alat units)  1.4955 (a.u.) for type    5

     Initial potential from superposition of free atoms

     starting charge     327.9122, renormalised to     328.0000

     HUBBARD ENERGY =    0.2352  (Ry)

     STARTING HUBBARD OCCUPATIONS:

     =================== HUBBARD OCCUPATIONS ===================
     ------------------------ ATOM    9 ------------------------
     Tr[ns(  9)] (up, down, total) =   5.00000  0.00000  5.00000
     Atomic magnetic moment for atom   9 =   5.00000
     SPIN  1
     eigenvalues:
       1.000  1.000  1.000  1.000  1.000
     eigenvectors (columns):
       1.000  0.000  0.000  0.000  0.000
       0.000  1.000  0.000  0.000  0.000
       0.000  0.000  1.000  0.000  0.000
       0.000  0.000  0.000  1.000  0.000
       0.000  0.000  0.000  0.000  1.000
     occupation matrix ns (before diag.):
       1.000  0.000  0.000  0.000  0.000
       0.000  1.000  0.000  0.000  0.000
       0.000  0.000  1.000  0.000  0.000
       0.000  0.000  0.000  1.000  0.000
       0.000  0.000  0.000  0.000  1.000
     SPIN  2
     eigenvalues:
       0.000  0.000  0.000  0.000  0.000
     eigenvectors (columns):
       1.000  0.000  0.000  0.000  0.000
       0.000  1.000  0.000  0.000  0.000
       0.000  0.000  1.000  0.000  0.000
       0.000  0.000  0.000  1.000  0.000
       0.000  0.000  0.000  0.000  1.000
     occupation matrix ns (before diag.):
       0.000  0.000  0.000  0.000  0.000
       0.000  0.000  0.000  0.000  0.000
       0.000  0.000  0.000  0.000  0.000
       0.000  0.000  0.000  0.000  0.000
       0.000  0.000  0.000  0.000  0.000
     ------------------------ ATOM   10 ------------------------
     Tr[ns( 10)] (up, down, total) =   5.00000  0.00000  5.00000
     Atomic magnetic moment for atom  10 =   5.00000
     SPIN  1
     eigenvalues:
       1.000  1.000  1.000  1.000  1.000
     eigenvectors (columns):
       1.000  0.000  0.000  0.000  0.000
       0.000  1.000  0.000  0.000  0.000
       0.000  0.000  1.000  0.000  0.000
       0.000  0.000  0.000  1.000  0.000
       0.000  0.000  0.000  0.000  1.000
     occupation matrix ns (before diag.):
       1.000  0.000  0.000  0.000  0.000
       0.000  1.000  0.000  0.000  0.000
       0.000  0.000  1.000  0.000  0.000
       0.000  0.000  0.000  1.000  0.000
       0.000  0.000  0.000  0.000  1.000
     SPIN  2
     eigenvalues:
       0.000  0.000  0.000  0.000  0.000
     eigenvectors (columns):
       1.000  0.000  0.000  0.000  0.000
       0.000  1.000  0.000  0.000  0.000
       0.000  0.000  1.000  0.000  0.000
       0.000  0.000  0.000  1.000  0.000
       0.000  0.000  0.000  0.000  1.000
     occupation matrix ns (before diag.):
       0.000  0.000  0.000  0.000  0.000
       0.000  0.000  0.000  0.000  0.000
       0.000  0.000  0.000  0.000  0.000
       0.000  0.000  0.000  0.000  0.000
       0.000  0.000  0.000  0.000  0.000
     ------------------------ ATOM   11 ------------------------
     Tr[ns( 11)] (up, down, total) =   5.00000  0.00000  5.00000
     Atomic magnetic moment for atom  11 =   5.00000
     SPIN  1
     eigenvalues:
       1.000  1.000  1.000  1.000  1.000
     eigenvectors (columns):
       1.000  0.000  0.000  0.000  0.000
       0.000  1.000  0.000  0.000  0.000
       0.000  0.000  1.000  0.000  0.000
       0.000  0.000  0.000  1.000  0.000
       0.000  0.000  0.000  0.000  1.000
     occupation matrix ns (before diag.):
       1.000  0.000  0.000  0.000  0.000
       0.000  1.000  0.000  0.000  0.000
       0.000  0.000  1.000  0.000  0.000
       0.000  0.000  0.000  1.000  0.000
       0.000  0.000  0.000  0.000  1.000
     SPIN  2
     eigenvalues:
       0.000  0.000  0.000  0.000  0.000
     eigenvectors (columns):
       1.000  0.000  0.000  0.000  0.000
       0.000  1.000  0.000  0.000  0.000
       0.000  0.000  1.000  0.000  0.000
       0.000  0.000  0.000  1.000  0.000
       0.000  0.000  0.000  0.000  1.000
     occupation matrix ns (before diag.):
       0.000  0.000  0.000  0.000  0.000
       0.000  0.000  0.000  0.000  0.000
       0.000  0.000  0.000  0.000  0.000
       0.000  0.000  0.000  0.000  0.000
       0.000  0.000  0.000  0.000  0.000
     ------------------------ ATOM   12 ------------------------
     Tr[ns( 12)] (up, down, total) =   5.00000  0.00000  5.00000
     Atomic magnetic moment for atom  12 =   5.00000
     SPIN  1
     eigenvalues:
       1.000  1.000  1.000  1.000  1.000
     eigenvectors (columns):
       1.000  0.000  0.000  0.000  0.000
       0.000  1.000  0.000  0.000  0.000
       0.000  0.000  1.000  0.000  0.000
       0.000  0.000  0.000  1.000  0.000
       0.000  0.000  0.000  0.000  1.000
     occupation matrix ns (before diag.):
       1.000  0.000  0.000  0.000  0.000
       0.000  1.000  0.000  0.000  0.000
       0.000  0.000  1.000  0.000  0.000
       0.000  0.000  0.000  1.000  0.000
       0.000  0.000  0.000  0.000  1.000
     SPIN  2
     eigenvalues:
       0.000  0.000  0.000  0.000  0.000
     eigenvectors (columns):
       1.000  0.000  0.000  0.000  0.000
       0.000  1.000  0.000  0.000  0.000
       0.000  0.000  1.000  0.000  0.000
       0.000  0.000  0.000  1.000  0.000
       0.000  0.000  0.000  0.000  1.000
     occupation matrix ns (before diag.):
       0.000  0.000  0.000  0.000  0.000
       0.000  0.000  0.000  0.000  0.000
       0.000  0.000  0.000  0.000  0.000
       0.000  0.000  0.000  0.000  0.000
       0.000  0.000  0.000  0.000  0.000
     ------------------------ ATOM   13 ------------------------
     Tr[ns( 13)] (up, down, total) =   1.00000  5.00000  6.00000
     Atomic magnetic moment for atom  13 =  -4.00000
     SPIN  1
     eigenvalues:
       0.200  0.200  0.200  0.200  0.200
     eigenvectors (columns):
       1.000  0.000  0.000  0.000  0.000
       0.000  1.000  0.000  0.000  0.000
       0.000  0.000  1.000  0.000  0.000
       0.000  0.000  0.000  1.000  0.000
       0.000  0.000  0.000  0.000  1.000
     occupation matrix ns (before diag.):
       0.200  0.000  0.000  0.000  0.000
       0.000  0.200  0.000  0.000  0.000
       0.000  0.000  0.200  0.000  0.000
       0.000  0.000  0.000  0.200  0.000
       0.000  0.000  0.000  0.000  0.200
     SPIN  2
     eigenvalues:
       1.000  1.000  1.000  1.000  1.000
     eigenvectors (columns):
       1.000  0.000  0.000  0.000  0.000
       0.000  1.000  0.000  0.000  0.000
       0.000  0.000  1.000  0.000  0.000
       0.000  0.000  0.000  1.000  0.000
       0.000  0.000  0.000  0.000  1.000
     occupation matrix ns (before diag.):
       1.000  0.000  0.000  0.000  0.000
       0.000  1.000  0.000  0.000  0.000
       0.000  0.000  1.000  0.000  0.000
       0.000  0.000  0.000  1.000  0.000
       0.000  0.000  0.000  0.000  1.000
     ------------------------ ATOM   14 ------------------------
     Tr[ns( 14)] (up, down, total) =   1.00000  5.00000  6.00000
     Atomic magnetic moment for atom  14 =  -4.00000
     SPIN  1
     eigenvalues:
       0.200  0.200  0.200  0.200  0.200
     eigenvectors (columns):
       1.000  0.000  0.000  0.000  0.000
       0.000  1.000  0.000  0.000  0.000
       0.000  0.000  1.000  0.000  0.000
       0.000  0.000  0.000  1.000  0.000
       0.000  0.000  0.000  0.000  1.000
     occupation matrix ns (before diag.):
       0.200  0.000  0.000  0.000  0.000
       0.000  0.200  0.000  0.000  0.000
       0.000  0.000  0.200  0.000  0.000
       0.000  0.000  0.000  0.200  0.000
       0.000  0.000  0.000  0.000  0.200
     SPIN  2
     eigenvalues:
       1.000  1.000  1.000  1.000  1.000
     eigenvectors (columns):
       1.000  0.000  0.000  0.000  0.000
       0.000  1.000  0.000  0.000  0.000
       0.000  0.000  1.000  0.000  0.000
       0.000  0.000  0.000  1.000  0.000
       0.000  0.000  0.000  0.000  1.000
     occupation matrix ns (before diag.):
       1.000  0.000  0.000  0.000  0.000
       0.000  1.000  0.000  0.000  0.000
       0.000  0.000  1.000  0.000  0.000
       0.000  0.000  0.000  1.000  0.000
       0.000  0.000  0.000  0.000  1.000
     ------------------------ ATOM   15 ------------------------
     Tr[ns( 15)] (up, down, total) =   1.00000  5.00000  6.00000
     Atomic magnetic moment for atom  15 =  -4.00000
     SPIN  1
     eigenvalues:
       0.200  0.200  0.200  0.200  0.200
     eigenvectors (columns):
       1.000  0.000  0.000  0.000  0.000
       0.000  1.000  0.000  0.000  0.000
       0.000  0.000  1.000  0.000  0.000
       0.000  0.000  0.000  1.000  0.000
       0.000  0.000  0.000  0.000  1.000
     occupation matrix ns (before diag.):
       0.200  0.000  0.000  0.000  0.000
       0.000  0.200  0.000  0.000  0.000
       0.000  0.000  0.200  0.000  0.000
       0.000  0.000  0.000  0.200  0.000
       0.000  0.000  0.000  0.000  0.200
     SPIN  2
     eigenvalues:
       1.000  1.000  1.000  1.000  1.000
     eigenvectors (columns):
       1.000  0.000  0.000  0.000  0.000
       0.000  1.000  0.000  0.000  0.000
       0.000  0.000  1.000  0.000  0.000
       0.000  0.000  0.000  1.000  0.000
       0.000  0.000  0.000  0.000  1.000
     occupation matrix ns (before diag.):
       1.000  0.000  0.000  0.000  0.000
       0.000  1.000  0.000  0.000  0.000
       0.000  0.000  1.000  0.000  0.000
       0.000  0.000  0.000  1.000  0.000
       0.000  0.000  0.000  0.000  1.000
     ------------------------ ATOM   16 ------------------------
     Tr[ns( 16)] (up, down, total) =   1.00000  5.00000  6.00000
     Atomic magnetic moment for atom  16 =  -4.00000
     SPIN  1
     eigenvalues:
       0.200  0.200  0.200  0.200  0.200
     eigenvectors (columns):
       1.000  0.000  0.000  0.000  0.000
       0.000  1.000  0.000  0.000  0.000
       0.000  0.000  1.000  0.000  0.000
       0.000  0.000  0.000  1.000  0.000
       0.000  0.000  0.000  0.000  1.000
     occupation matrix ns (before diag.):
       0.200  0.000  0.000  0.000  0.000
       0.000  0.200  0.000  0.000  0.000
       0.000  0.000  0.200  0.000  0.000
       0.000  0.000  0.000  0.200  0.000
       0.000  0.000  0.000  0.000  0.200
     SPIN  2
     eigenvalues:
       1.000  1.000  1.000  1.000  1.000
     eigenvectors (columns):
       1.000  0.000  0.000  0.000  0.000
       0.000  1.000  0.000  0.000  0.000
       0.000  0.000  1.000  0.000  0.000
       0.000  0.000  0.000  1.000  0.000
       0.000  0.000  0.000  0.000  1.000
     occupation matrix ns (before diag.):
       1.000  0.000  0.000  0.000  0.000
       0.000  1.000  0.000  0.000  0.000
       0.000  0.000  1.000  0.000  0.000
       0.000  0.000  0.000  1.000  0.000
       0.000  0.000  0.000  0.000  1.000

     Number of occupied Hubbard levels =   44.0000

     Atomic wfc used for Hubbard projectors are orthogonalized

     Starting wfcs are  220 randomized atomic wfcs

     total cpu time spent up to now is       14.5 secs

     per-process dynamical memory:   620.8 Mb

     Self-consistent Calculation

     iteration #  1     ecut=    90.00 Ry     beta= 0.30
     Davidson diagonalization with overlap

---- Real-time Memory Report at c_bands before calling an iterative solver
           890 MiB given to the printing process from OS
           606 MiB allocation reported by mallinfo(arena+hblkhd)
        676822 MiB available memory on the node where the printing process lives
------------------
     ethr =  1.00E-02,  avg # of iterations =  4.3

     =================== HUBBARD OCCUPATIONS ===================
     ------------------------ ATOM    9 ------------------------
     Tr[ns(  9)] (up, down, total) =   4.93183  0.26532  5.19715
     Atomic magnetic moment for atom   9 =   4.66650
     SPIN  1
     eigenvalues:
       0.969  0.985  0.992  0.992  0.994
     eigenvectors (columns):
      -1.000  0.000 -0.000 -0.000 -0.000
      -0.000 -0.000  0.976  0.218 -0.000
      -0.000 -0.000 -0.218  0.976 -0.000
       0.000 -0.218 -0.000 -0.000 -0.976
       0.000  0.976 -0.000  0.000 -0.218
     occupation matrix ns (before diag.):
       0.969 -0.000 -0.000  0.000  0.000
      -0.000  0.992  0.000  0.000  0.000
      -0.000  0.000  0.992  0.000  0.000
       0.000  0.000  0.000  0.994  0.002
       0.000  0.000  0.000  0.002  0.985
     SPIN  2
     eigenvalues:
       0.032  0.036  0.036  0.065  0.096
     eigenvectors (columns):
       0.000 -0.000 -0.000 -1.000 -0.000
      -0.000 -0.134 -0.991  0.000  0.000
      -0.000 -0.991  0.134  0.000  0.000
       0.973 -0.000 -0.000  0.000 -0.232
       0.232 -0.000 -0.000 -0.000  0.973
     occupation matrix ns (before diag.):
       0.065 -0.000 -0.000 -0.000 -0.000
      -0.000  0.036 -0.000  0.000  0.000
      -0.000 -0.000  0.036  0.000  0.000
      -0.000  0.000  0.000  0.036 -0.014
      -0.000  0.000  0.000 -0.014  0.093
     ------------------------ ATOM   10 ------------------------
     Tr[ns( 10)] (up, down, total) =   4.93182  0.26532  5.19714
     Atomic magnetic moment for atom  10 =   4.66650
     SPIN  1
     eigenvalues:
       0.969  0.985  0.992  0.992  0.994
     eigenvectors (columns):
       1.000  0.000  0.000 -0.000  0.000
       0.000 -0.000 -0.881 -0.473 -0.000
       0.000 -0.000 -0.473  0.881 -0.000
       0.000 -0.219  0.000 -0.000 -0.976
       0.000  0.976  0.000  0.000 -0.219
     occupation matrix ns (before diag.):
       0.969 -0.000 -0.000 -0.000 -0.000
      -0.000  0.992 -0.000  0.000  0.000
      -0.000 -0.000  0.992  0.000  0.000
      -0.000  0.000  0.000  0.994  0.002
      -0.000  0.000  0.000  0.002  0.985
     SPIN  2
     eigenvalues:
       0.032  0.036  0.036  0.065  0.096
     eigenvectors (columns):
      -0.000  0.000 -0.000  1.000  0.000
      -0.000 -0.280 -0.960 -0.000  0.000
      -0.000  0.960 -0.280 -0.000  0.000
       0.973  0.000 -0.000  0.000 -0.232
       0.232  0.000 -0.000 -0.000  0.973
     occupation matrix ns (before diag.):
       0.065 -0.000 -0.000  0.000  0.000
      -0.000  0.036  0.000  0.000  0.000
      -0.000  0.000  0.036  0.000  0.000
       0.000  0.000  0.000  0.036 -0.014
       0.000  0.000  0.000 -0.014  0.093
     ------------------------ ATOM   11 ------------------------
     Tr[ns( 11)] (up, down, total) =   4.93182  0.26532  5.19714
     Atomic magnetic moment for atom  11 =   4.66650
     SPIN  1
     eigenvalues:
       0.969  0.985  0.992  0.992  0.994
     eigenvectors (columns):
      -1.000 -0.000  0.000 -0.000 -0.000
      -0.000 -0.000  0.473  0.881 -0.000
      -0.000 -0.000 -0.881  0.473 -0.000
       0.000 -0.219  0.000 -0.000 -0.976
       0.000  0.976 -0.000 -0.000 -0.219
     occupation matrix ns (before diag.):
       0.969 -0.000 -0.000  0.000  0.000
      -0.000  0.992  0.000  0.000  0.000
      -0.000  0.000  0.992  0.000  0.000
       0.000  0.000  0.000  0.994  0.002
       0.000  0.000  0.000  0.002  0.985
     SPIN  2
     eigenvalues:
       0.032  0.036  0.036  0.065  0.096
     eigenvectors (columns):
       0.000 -0.000 -0.000 -1.000 -0.000
      -0.000 -0.960  0.280  0.000  0.000
      -0.000 -0.280 -0.960  0.000  0.000
       0.973 -0.000 -0.000  0.000 -0.232
       0.232 -0.000 -0.000 -0.000  0.973
     occupation matrix ns (before diag.):
       0.065 -0.000 -0.000 -0.000 -0.000
      -0.000  0.036 -0.000  0.000  0.000
      -0.000 -0.000  0.036  0.000  0.000
      -0.000  0.000  0.000  0.036 -0.014
      -0.000  0.000  0.000 -0.014  0.093
     ------------------------ ATOM   12 ------------------------
     Tr[ns( 12)] (up, down, total) =   4.93183  0.26532  5.19715
     Atomic magnetic moment for atom  12 =   4.66650
     SPIN  1
     eigenvalues:
       0.969  0.985  0.992  0.992  0.994
     eigenvectors (columns):
       1.000 -0.000  0.000  0.000  0.000
       0.000 -0.000 -0.218 -0.976 -0.000
       0.000 -0.000 -0.976  0.218 -0.000
       0.000 -0.218  0.000  0.000 -0.976
       0.000  0.976 -0.000  0.000 -0.218
     occupation matrix ns (before diag.):
       0.969 -0.000 -0.000 -0.000 -0.000
      -0.000  0.992 -0.000  0.000  0.000
      -0.000 -0.000  0.992  0.000  0.000
      -0.000  0.000  0.000  0.994  0.002
      -0.000  0.000  0.000  0.002  0.985
     SPIN  2
     eigenvalues:
       0.032  0.036  0.036  0.065  0.096
     eigenvectors (columns):
      -0.000 -0.000  0.000  1.000  0.000
      -0.000 -0.991  0.134 -0.000  0.000
      -0.000  0.134  0.991 -0.000  0.000
       0.973 -0.000  0.000  0.000 -0.232
       0.232 -0.000  0.000 -0.000  0.973
     occupation matrix ns (before diag.):
       0.065 -0.000 -0.000  0.000  0.000
      -0.000  0.036  0.000  0.000  0.000
      -0.000  0.000  0.036  0.000  0.000
       0.000  0.000  0.000  0.036 -0.014
       0.000  0.000  0.000 -0.014  0.093
     ------------------------ ATOM   13 ------------------------
     Tr[ns( 13)] (up, down, total) =   0.41636  4.95380  5.37016
     Atomic magnetic moment for atom  13 =  -4.53744
     SPIN  1
     eigenvalues:
       0.049  0.064  0.064  0.103  0.138
     eigenvectors (columns):
       0.000 -0.000 -0.000 -1.000  0.000
      -0.000 -0.514  0.858  0.000  0.000
      -0.000 -0.858 -0.514  0.000  0.000
       0.968 -0.000  0.000  0.000  0.253
      -0.253  0.000  0.000  0.000  0.968
     occupation matrix ns (before diag.):
       0.103 -0.000 -0.000 -0.000  0.000
      -0.000  0.064 -0.000  0.000  0.000
      -0.000 -0.000  0.064  0.000  0.000
      -0.000  0.000  0.000  0.054  0.022
       0.000  0.000  0.000  0.022  0.132
     SPIN  2
     eigenvalues:
       0.977  0.990  0.995  0.995  0.997
     eigenvectors (columns):
       1.000 -0.000 -0.000 -0.000  0.001
       0.000 -0.000  0.437  0.899 -0.000
       0.000 -0.000  0.899 -0.437 -0.000
       0.001  0.189 -0.000 -0.000 -0.982
       0.000  0.982  0.000  0.000  0.189
     occupation matrix ns (before diag.):
       0.977 -0.000 -0.000 -0.000 -0.000
      -0.000  0.995 -0.000  0.000  0.000
      -0.000 -0.000  0.995  0.000  0.000
      -0.000  0.000  0.000  0.996 -0.001
      -0.000  0.000  0.000 -0.001  0.990
     ------------------------ ATOM   14 ------------------------
     Tr[ns( 14)] (up, down, total) =   0.41637  4.95379  5.37016
     Atomic magnetic moment for atom  14 =  -4.53742
     SPIN  1
     eigenvalues:
       0.049  0.064  0.064  0.103  0.138
     eigenvectors (columns):
      -0.000 -0.000 -0.000 -1.000  0.000
      -0.000 -0.709  0.705  0.000  0.000
      -0.000 -0.705 -0.709  0.000  0.000
       0.968 -0.000  0.000 -0.000  0.253
      -0.253  0.000  0.000  0.000  0.968
     occupation matrix ns (before diag.):
       0.103 -0.000 -0.000  0.000  0.000
      -0.000  0.064 -0.000  0.000  0.000
      -0.000 -0.000  0.064  0.000  0.000
       0.000  0.000  0.000  0.054  0.022
       0.000  0.000  0.000  0.022  0.132
     SPIN  2
     eigenvalues:
       0.977  0.990  0.995  0.995  0.997
     eigenvectors (columns):
      -1.000  0.000  0.000  0.000 -0.000
      -0.000 -0.000 -0.947 -0.322 -0.000
      -0.000 -0.000  0.322 -0.947 -0.000
       0.000  0.189  0.000  0.000 -0.982
       0.000  0.982 -0.000 -0.000  0.189
     occupation matrix ns (before diag.):
       0.977 -0.000 -0.000  0.000  0.000
      -0.000  0.995  0.000  0.000  0.000
      -0.000  0.000  0.995  0.000  0.000
       0.000  0.000  0.000  0.996 -0.001
       0.000  0.000  0.000 -0.001  0.990
     ------------------------ ATOM   15 ------------------------
     Tr[ns( 15)] (up, down, total) =   0.41637  4.95379  5.37016
     Atomic magnetic moment for atom  15 =  -4.53742
     SPIN  1
     eigenvalues:
       0.049  0.064  0.064  0.103  0.138
     eigenvectors (columns):
       0.000  0.000 -0.000  1.000 -0.000
      -0.000 -0.705 -0.709 -0.000  0.000
      -0.000  0.709 -0.705 -0.000  0.000
       0.968 -0.000 -0.000 -0.000  0.253
      -0.253 -0.000  0.000  0.000  0.968
     occupation matrix ns (before diag.):
       0.103 -0.000 -0.000 -0.000 -0.000
      -0.000  0.064  0.000  0.000  0.000
      -0.000  0.000  0.064  0.000  0.000
      -0.000  0.000  0.000  0.054  0.022
      -0.000  0.000  0.000  0.022  0.132
     SPIN  2
     eigenvalues:
       0.977  0.990  0.995  0.995  0.997
     eigenvectors (columns):
       1.000 -0.000 -0.000 -0.000  0.000
       0.000 -0.000  0.322  0.947 -0.000
       0.000 -0.000  0.947 -0.322 -0.000
       0.000  0.189 -0.000 -0.000 -0.982
       0.000  0.982  0.000  0.000  0.189
     occupation matrix ns (before diag.):
       0.977 -0.000 -0.000 -0.000 -0.000
      -0.000  0.995 -0.000  0.000  0.000
      -0.000 -0.000  0.995  0.000  0.000
      -0.000  0.000  0.000  0.996 -0.001
      -0.000  0.000  0.000 -0.001  0.990
     ------------------------ ATOM   16 ------------------------
     Tr[ns( 16)] (up, down, total) =   0.41636  4.95380  5.37016
     Atomic magnetic moment for atom  16 =  -4.53744
     SPIN  1
     eigenvalues:
       0.049  0.064  0.064  0.103  0.138
     eigenvectors (columns):
      -0.000  0.000 -0.000  1.000 -0.000
      -0.000 -0.858 -0.514 -0.000  0.000
      -0.000  0.514 -0.858 -0.000  0.000
       0.968 -0.000 -0.000  0.000  0.253
      -0.253 -0.000  0.000  0.000  0.968
     occupation matrix ns (before diag.):
       0.103 -0.000 -0.000  0.000 -0.000
      -0.000  0.064  0.000  0.000  0.000
      -0.000  0.000  0.064  0.000  0.000
       0.000  0.000  0.000  0.054  0.022
      -0.000  0.000  0.000  0.022  0.132
     SPIN  2
     eigenvalues:
       0.977  0.990  0.995  0.995  0.997
     eigenvectors (columns):
      -1.000  0.000  0.000  0.000 -0.001
      -0.000 -0.000 -0.899 -0.437 -0.000
      -0.000 -0.000  0.437 -0.899 -0.000
       0.001  0.189  0.000  0.000 -0.982
       0.000  0.982 -0.000 -0.000  0.189
     occupation matrix ns (before diag.):
       0.977 -0.000 -0.000  0.000  0.000
      -0.000  0.995  0.000  0.000  0.000
      -0.000  0.000  0.995  0.000  0.000
       0.000  0.000  0.000  0.996 -0.001
       0.000  0.000  0.000 -0.001  0.990

     Number of occupied Hubbard levels =   42.2692

     HUBBARD ENERGY =    0.2167  (Ry)

     total cpu time spent up to now is       43.5 secs

     total energy              =   -3089.52469080 Ry
     estimated scf accuracy    <      11.21636727 Ry

     total magnetization       =     0.00 Bohr mag/cell
     absolute magnetization    =    37.44 Bohr mag/cell

     iteration #  2     ecut=    90.00 Ry     beta= 0.30
     Davidson diagonalization with overlap

---- Real-time Memory Report at c_bands before calling an iterative solver
          1114 MiB given to the printing process from OS
           732 MiB allocation reported by mallinfo(arena+hblkhd)
        673980 MiB available memory on the node where the printing process lives
------------------
     ethr =  3.42E-03,  avg # of iterations =  1.1

     =================== HUBBARD OCCUPATIONS ===================
     ------------------------ ATOM    9 ------------------------
     Tr[ns(  9)] (up, down, total) =   4.91337  0.32986  5.24323
     Atomic magnetic moment for atom   9 =   4.58351
     SPIN  1
     eigenvalues:
       0.963  0.977  0.990  0.990  0.993
     eigenvectors (columns):
       1.000  0.000 -0.000  0.000 -0.000
       0.000 -0.000  0.973 -0.231 -0.000
       0.000 -0.000 -0.231 -0.973 -0.000
       0.000 -0.239 -0.000  0.000 -0.971
      -0.000  0.971 -0.000  0.000 -0.239
     occupation matrix ns (before diag.):
       0.963 -0.000 -0.000  0.000  0.000
      -0.000  0.990  0.000  0.000  0.000
      -0.000  0.000  0.990  0.000  0.000
       0.000  0.000  0.000  0.992  0.004
       0.000  0.000  0.000  0.004  0.978
     SPIN  2
     eigenvalues:
       0.041  0.046  0.046  0.079  0.117
     eigenvectors (columns):
       0.000  0.000 -0.000  1.000 -0.000
      -0.000 -0.570 -0.822 -0.000  0.000
      -0.000  0.822 -0.570 -0.000  0.000
       0.974  0.000 -0.000 -0.000 -0.227
       0.227 -0.000 -0.000 -0.000  0.974
     occupation matrix ns (before diag.):
       0.079 -0.000 -0.000 -0.000 -0.000
      -0.000  0.046  0.000  0.000  0.000
      -0.000  0.000  0.046  0.000  0.000
      -0.000  0.000  0.000  0.045 -0.017
      -0.000  0.000  0.000 -0.017  0.113
     ------------------------ ATOM   10 ------------------------
     Tr[ns( 10)] (up, down, total) =   4.91338  0.32986  5.24324
     Atomic magnetic moment for atom  10 =   4.58352
     SPIN  1
     eigenvalues:
       0.963  0.977  0.990  0.990  0.993
     eigenvectors (columns):
       1.000  0.000 -0.000  0.000  0.000
       0.000 -0.000  0.851  0.525 -0.000
       0.000 -0.000  0.525 -0.851 -0.000
       0.000 -0.239 -0.000  0.000 -0.971
      -0.000  0.971 -0.000 -0.000 -0.239
     occupation matrix ns (before diag.):
       0.963 -0.000 -0.000 -0.000 -0.000
      -0.000  0.990 -0.000  0.000  0.000
      -0.000 -0.000  0.990  0.000  0.000
      -0.000  0.000  0.000  0.992  0.004
      -0.000  0.000  0.000  0.004  0.978
     SPIN  2
     eigenvalues:
       0.041  0.046  0.046  0.079  0.117
     eigenvectors (columns):
      -0.000 -0.000  0.000  1.000  0.000
      -0.000 -0.988  0.152 -0.000  0.000
      -0.000  0.152  0.988 -0.000  0.000
       0.974 -0.000  0.000  0.000 -0.227
       0.227 -0.000  0.000 -0.000  0.974
     occupation matrix ns (before diag.):
       0.079 -0.000 -0.000  0.000  0.000
      -0.000  0.046  0.000  0.000  0.000
      -0.000  0.000  0.046  0.000  0.000
       0.000  0.000  0.000  0.045 -0.017
       0.000  0.000  0.000 -0.017  0.113
     ------------------------ ATOM   11 ------------------------
     Tr[ns( 11)] (up, down, total) =   4.91338  0.32986  5.24324
     Atomic magnetic moment for atom  11 =   4.58352
     SPIN  1
     eigenvalues:
       0.963  0.977  0.990  0.990  0.993
     eigenvectors (columns):
      -1.000 -0.000 -0.000  0.000 -0.000
      -0.000 -0.000 -0.525 -0.851 -0.000
      -0.000 -0.000  0.851 -0.525 -0.000
       0.000 -0.239 -0.000  0.000 -0.971
      -0.000  0.971  0.000  0.000 -0.239
     occupation matrix ns (before diag.):
       0.963 -0.000 -0.000  0.000  0.000
      -0.000  0.990  0.000  0.000  0.000
      -0.000  0.000  0.990  0.000  0.000
       0.000  0.000  0.000  0.992  0.004
       0.000  0.000  0.000  0.004  0.978
     SPIN  2
     eigenvalues:
       0.041  0.046  0.046  0.079  0.117
     eigenvectors (columns):
       0.000 -0.000 -0.000 -1.000 -0.000
      -0.000 -0.152 -0.988  0.000  0.000
      -0.000 -0.988  0.152  0.000  0.000
       0.974 -0.000 -0.000  0.000 -0.227
       0.227 -0.000 -0.000 -0.000  0.974
     occupation matrix ns (before diag.):
       0.079 -0.000 -0.000 -0.000 -0.000
      -0.000  0.046 -0.000  0.000  0.000
      -0.000 -0.000  0.046  0.000  0.000
      -0.000  0.000  0.000  0.045 -0.017
      -0.000  0.000  0.000 -0.017  0.113
     ------------------------ ATOM   12 ------------------------
     Tr[ns( 12)] (up, down, total) =   4.91337  0.32986  5.24323
     Atomic magnetic moment for atom  12 =   4.58351
     SPIN  1
     eigenvalues:
       0.963  0.977  0.990  0.990  0.993
     eigenvectors (columns):
      -1.000 -0.000 -0.000  0.000  0.000
      -0.000 -0.000  0.231 -0.973 -0.000
      -0.000 -0.000  0.973  0.231 -0.000
       0.000 -0.239 -0.000  0.000 -0.971
      -0.000  0.971 -0.000  0.000 -0.239
     occupation matrix ns (before diag.):
       0.963 -0.000 -0.000 -0.000 -0.000
      -0.000  0.990 -0.000  0.000  0.000
      -0.000 -0.000  0.990  0.000  0.000
      -0.000  0.000  0.000  0.992  0.004
      -0.000  0.000  0.000  0.004  0.978
     SPIN  2
     eigenvalues:
       0.041  0.046  0.046  0.079  0.117
     eigenvectors (columns):
      -0.000 -0.000 -0.000 -1.000  0.000
      -0.000 -0.822  0.570  0.000  0.000
      -0.000 -0.570 -0.822  0.000  0.000
       0.974 -0.000 -0.000 -0.000 -0.227
       0.227 -0.000  0.000 -0.000  0.974
     occupation matrix ns (before diag.):
       0.079 -0.000 -0.000  0.000  0.000
      -0.000  0.046 -0.000  0.000  0.000
      -0.000 -0.000  0.046  0.000  0.000
       0.000  0.000  0.000  0.045 -0.017
       0.000  0.000  0.000 -0.017  0.113
     ------------------------ ATOM   13 ------------------------
     Tr[ns( 13)] (up, down, total) =   0.58282  4.95900  5.54182
     Atomic magnetic moment for atom  13 =  -4.37618
     SPIN  1
     eigenvalues:
       0.068  0.094  0.094  0.142  0.185
     eigenvectors (columns):
       0.000 -0.000  0.000 -1.000  0.000
      -0.000 -0.074  0.997  0.000  0.000
      -0.000 -0.997 -0.074  0.000  0.000
       0.965 -0.000  0.000  0.000  0.261
      -0.261  0.000 -0.000  0.000  0.965
     occupation matrix ns (before diag.):
       0.142 -0.000 -0.000 -0.000  0.000
      -0.000  0.094 -0.000  0.000  0.000
      -0.000 -0.000  0.094  0.000  0.000
      -0.000  0.000  0.000  0.075  0.030
       0.000  0.000  0.000  0.030  0.177
     SPIN  2
     eigenvalues:
       0.980  0.990  0.996  0.996  0.997
     eigenvectors (columns):
      -1.000 -0.000 -0.000  0.000  0.000
      -0.000 -0.000  0.041 -0.999 -0.000
      -0.000 -0.000  0.999  0.041 -0.000
      -0.000  0.199 -0.000  0.000 -0.980
       0.000  0.980  0.000 -0.000  0.199
     occupation matrix ns (before diag.):
       0.980 -0.000 -0.000 -0.000  0.000
      -0.000  0.996 -0.000  0.000  0.000
      -0.000 -0.000  0.996  0.000  0.000
      -0.000  0.000  0.000  0.997 -0.001
       0.000  0.000  0.000 -0.001  0.990
     ------------------------ ATOM   14 ------------------------
     Tr[ns( 14)] (up, down, total) =   0.58281  4.95899  5.54180
     Atomic magnetic moment for atom  14 =  -4.37618
     SPIN  1
     eigenvalues:
       0.068  0.094  0.094  0.142  0.185
     eigenvectors (columns):
       0.000 -0.000  0.000  1.000 -0.000
      -0.000 -0.715 -0.699 -0.000  0.000
      -0.000 -0.699  0.715 -0.000  0.000
       0.965 -0.000 -0.000  0.000  0.261
      -0.261  0.000 -0.000  0.000  0.965
     occupation matrix ns (before diag.):
       0.142 -0.000 -0.000 -0.000 -0.000
      -0.000  0.094 -0.000  0.000  0.000
      -0.000 -0.000  0.094  0.000  0.000
      -0.000  0.000  0.000  0.075  0.030
      -0.000  0.000  0.000  0.030  0.177
     SPIN  2
     eigenvalues:
       0.980  0.990  0.996  0.996  0.997
     eigenvectors (columns):
      -1.000  0.000  0.000  0.000 -0.000
      -0.000 -0.000 -0.990  0.141 -0.000
      -0.000 -0.000 -0.141 -0.990 -0.000
       0.000  0.199  0.000  0.000 -0.980
       0.000  0.980 -0.000 -0.000  0.199
     occupation matrix ns (before diag.):
       0.980 -0.000 -0.000  0.000  0.000
      -0.000  0.996 -0.000  0.000  0.000
      -0.000 -0.000  0.996  0.000  0.000
       0.000  0.000  0.000  0.997 -0.001
       0.000  0.000  0.000 -0.001  0.990
     ------------------------ ATOM   15 ------------------------
     Tr[ns( 15)] (up, down, total) =   0.58281  4.95899  5.54180
     Atomic magnetic moment for atom  15 =  -4.37618
     SPIN  1
     eigenvalues:
       0.068  0.094  0.094  0.142  0.185
     eigenvectors (columns):
      -0.000 -0.000 -0.000 -1.000  0.000
      -0.000  0.699 -0.715  0.000  0.000
      -0.000 -0.715 -0.699  0.000  0.000
       0.965  0.000 -0.000  0.000  0.261
      -0.261  0.000  0.000  0.000  0.965
     occupation matrix ns (before diag.):
       0.142 -0.000 -0.000  0.000  0.000
      -0.000  0.094  0.000  0.000  0.000
      -0.000  0.000  0.094  0.000  0.000
       0.000  0.000  0.000  0.075  0.030
       0.000  0.000  0.000  0.030  0.177
     SPIN  2
     eigenvalues:
       0.980  0.990  0.996  0.996  0.997
     eigenvectors (columns):
       1.000 -0.000 -0.000 -0.000  0.000
       0.000 -0.000 -0.141  0.990 -0.000
       0.000 -0.000  0.990  0.141 -0.000
       0.000  0.199 -0.000 -0.000 -0.980
       0.000  0.980  0.000  0.000  0.199
     occupation matrix ns (before diag.):
       0.980 -0.000 -0.000 -0.000 -0.000
      -0.000  0.996  0.000  0.000  0.000
      -0.000  0.000  0.996  0.000  0.000
      -0.000  0.000  0.000  0.997 -0.001
      -0.000  0.000  0.000 -0.001  0.990
     ------------------------ ATOM   16 ------------------------
     Tr[ns( 16)] (up, down, total) =   0.58282  4.95900  5.54182
     Atomic magnetic moment for atom  16 =  -4.37618
     SPIN  1
     eigenvalues:
       0.068  0.094  0.094  0.142  0.185
     eigenvectors (columns):
      -0.000 -0.000 -0.000  1.000 -0.000
      -0.000 -0.997 -0.074 -0.000  0.000
      -0.000  0.074 -0.997 -0.000  0.000
       0.965 -0.000 -0.000  0.000  0.261
      -0.261  0.000  0.000  0.000  0.965
     occupation matrix ns (before diag.):
       0.142 -0.000 -0.000  0.000 -0.000
      -0.000  0.094  0.000  0.000  0.000
      -0.000  0.000  0.094  0.000  0.000
       0.000  0.000  0.000  0.075  0.030
      -0.000  0.000  0.000  0.030  0.177
     SPIN  2
     eigenvalues:
       0.980  0.990  0.996  0.996  0.997
     eigenvectors (columns):
       1.000  0.000 -0.000  0.000 -0.000
       0.000 -0.000  0.999 -0.041 -0.000
       0.000 -0.000 -0.041 -0.999 -0.000
      -0.000  0.199 -0.000  0.000 -0.980
       0.000  0.980  0.000 -0.000  0.199
     occupation matrix ns (before diag.):
       0.980 -0.000 -0.000  0.000 -0.000
      -0.000  0.996  0.000  0.000  0.000
      -0.000  0.000  0.996  0.000  0.000
       0.000  0.000  0.000  0.997 -0.001
      -0.000  0.000  0.000 -0.001  0.990

     Number of occupied Hubbard levels =   43.1402

     HUBBARD ENERGY =    0.2595  (Ry)

     total cpu time spent up to now is       67.5 secs

     total energy              =   -3088.42079110 Ry
     estimated scf accuracy    <       4.25888296 Ry

     total magnetization       =     0.00 Bohr mag/cell
     absolute magnetization    =    36.89 Bohr mag/cell

     iteration #  3     ecut=    90.00 Ry     beta= 0.30
     Davidson diagonalization with overlap

---- Real-time Memory Report at c_bands before calling an iterative solver
          1229 MiB given to the printing process from OS
           744 MiB allocation reported by mallinfo(arena+hblkhd)
        674037 MiB available memory on the node where the printing process lives
------------------
     ethr =  1.30E-03,  avg # of iterations =  3.0

     =================== HUBBARD OCCUPATIONS ===================
     ------------------------ ATOM    9 ------------------------
     Tr[ns(  9)] (up, down, total) =   4.84247  0.43387  5.27634
     Atomic magnetic moment for atom   9 =   4.40861
     SPIN  1
     eigenvalues:
       0.933  0.947  0.986  0.986  0.991
     eigenvectors (columns):
      -0.000  1.000 -0.000  0.000  0.000
      -0.000  0.000  0.955 -0.297 -0.000
      -0.000  0.000 -0.297 -0.955 -0.000
      -0.239 -0.000 -0.000  0.000 -0.971
       0.971  0.000 -0.000  0.000 -0.239
     occupation matrix ns (before diag.):
       0.947 -0.000 -0.000 -0.000  0.000
      -0.000  0.986  0.000  0.000  0.000
      -0.000  0.000  0.986  0.000  0.000
      -0.000  0.000  0.000  0.988  0.013
       0.000  0.000  0.000  0.013  0.936
     SPIN  2
     eigenvalues:
       0.057  0.065  0.065  0.101  0.146
     eigenvectors (columns):
       0.000 -0.000 -0.000 -1.000 -0.000
      -0.000 -0.910 -0.415  0.000  0.000
      -0.000  0.415 -0.910  0.000  0.000
       0.976 -0.000 -0.000  0.000 -0.219
       0.219 -0.000 -0.000 -0.000  0.976
     occupation matrix ns (before diag.):
       0.101 -0.000 -0.000 -0.000 -0.000
      -0.000  0.065  0.000  0.000  0.000
      -0.000  0.000  0.065  0.000  0.000
      -0.000  0.000  0.000  0.061 -0.019
      -0.000  0.000  0.000 -0.019  0.142
     ------------------------ ATOM   10 ------------------------
     Tr[ns( 10)] (up, down, total) =   4.84247  0.43384  5.27631
     Atomic magnetic moment for atom  10 =   4.40862
     SPIN  1
     eigenvalues:
       0.933  0.947  0.986  0.986  0.991
     eigenvectors (columns):
       0.000 -1.000 -0.000 -0.000  0.000
      -0.000 -0.000  0.763 -0.646 -0.000
      -0.000 -0.000  0.646  0.763 -0.000
      -0.239 -0.000 -0.000 -0.000 -0.971
       0.971  0.000 -0.000 -0.000 -0.239
     occupation matrix ns (before diag.):
       0.947 -0.000 -0.000 -0.000 -0.000
      -0.000  0.986 -0.000  0.000  0.000
      -0.000 -0.000  0.986  0.000  0.000
      -0.000  0.000  0.000  0.988  0.014
      -0.000  0.000  0.000  0.014  0.936
     SPIN  2
     eigenvalues:
       0.057  0.065  0.065  0.101  0.146
     eigenvectors (columns):
      -0.000 -0.000  0.000  1.000  0.000
      -0.000 -0.828 -0.560 -0.000  0.000
      -0.000 -0.560  0.828 -0.000  0.000
       0.976 -0.000  0.000  0.000 -0.219
       0.219 -0.000 -0.000 -0.000  0.976
     occupation matrix ns (before diag.):
       0.101 -0.000 -0.000  0.000  0.000
      -0.000  0.065 -0.000  0.000  0.000
      -0.000 -0.000  0.065  0.000  0.000
       0.000  0.000  0.000  0.061 -0.019
       0.000  0.000  0.000 -0.019  0.142
     ------------------------ ATOM   11 ------------------------
     Tr[ns( 11)] (up, down, total) =   4.84247  0.43384  5.27631
     Atomic magnetic moment for atom  11 =   4.40862
     SPIN  1
     eigenvalues:
       0.933  0.947  0.986  0.986  0.991
     eigenvectors (columns):
      -0.000  1.000  0.000  0.000 -0.000
      -0.000  0.000  0.646 -0.763 -0.000
      -0.000  0.000 -0.763 -0.646 -0.000
      -0.239 -0.000  0.000  0.000 -0.971
       0.971  0.000  0.000  0.000 -0.239
     occupation matrix ns (before diag.):
       0.947 -0.000 -0.000  0.000  0.000
      -0.000  0.986  0.000  0.000  0.000
      -0.000  0.000  0.986  0.000  0.000
       0.000  0.000  0.000  0.988  0.014
       0.000  0.000  0.000  0.014  0.936
     SPIN  2
     eigenvalues:
       0.057  0.065  0.065  0.101  0.146
     eigenvectors (columns):
       0.000 -0.000 -0.000 -1.000 -0.000
      -0.000  0.560 -0.828  0.000  0.000
      -0.000 -0.828 -0.560  0.000  0.000
       0.976 -0.000 -0.000  0.000 -0.219
       0.219  0.000 -0.000 -0.000  0.976
     occupation matrix ns (before diag.):
       0.101 -0.000 -0.000 -0.000 -0.000
      -0.000  0.065  0.000  0.000  0.000
      -0.000  0.000  0.065  0.000  0.000
      -0.000  0.000  0.000  0.061 -0.019
      -0.000  0.000  0.000 -0.019  0.142
     ------------------------ ATOM   12 ------------------------
     Tr[ns( 12)] (up, down, total) =   4.84247  0.43387  5.27634
     Atomic magnetic moment for atom  12 =   4.40861
     SPIN  1
     eigenvalues:
       0.933  0.947  0.986  0.986  0.991
     eigenvectors (columns):
       0.000 -1.000 -0.000  0.000 -0.000
      -0.000 -0.000  0.297 -0.955 -0.000
      -0.000 -0.000  0.955  0.297 -0.000
      -0.239 -0.000 -0.000  0.000 -0.971
       0.971  0.000 -0.000  0.000 -0.239
     occupation matrix ns (before diag.):
       0.947 -0.000 -0.000  0.000 -0.000
      -0.000  0.986 -0.000  0.000  0.000
      -0.000 -0.000  0.986  0.000  0.000
       0.000  0.000  0.000  0.988  0.013
      -0.000  0.000  0.000  0.013  0.936
     SPIN  2
     eigenvalues:
       0.057  0.065  0.065  0.101  0.146
     eigenvectors (columns):
      -0.000  0.000 -0.000  1.000  0.000
      -0.000  0.415 -0.910 -0.000  0.000
      -0.000  0.910  0.415 -0.000  0.000
       0.976  0.000 -0.000  0.000 -0.219
       0.219  0.000 -0.000 -0.000  0.976
     occupation matrix ns (before diag.):
       0.101 -0.000 -0.000  0.000  0.000
      -0.000  0.065 -0.000  0.000  0.000
      -0.000 -0.000  0.065  0.000  0.000
       0.000  0.000  0.000  0.061 -0.019
       0.000  0.000  0.000 -0.019  0.142
     ------------------------ ATOM   13 ------------------------
     Tr[ns( 13)] (up, down, total) =   1.17346  4.96502  6.13848
     Atomic magnetic moment for atom  13 =  -3.79156
     SPIN  1
     eigenvalues:
       0.137  0.226  0.226  0.272  0.313
     eigenvectors (columns):
      -0.000 -0.000 -0.000 -1.000 -0.000
       0.000 -0.492  0.871  0.000 -0.000
       0.000 -0.871 -0.492  0.000 -0.000
      -0.956 -0.000  0.000  0.000 -0.292
       0.292  0.000  0.000  0.000 -0.956
     occupation matrix ns (before diag.):
       0.272 -0.000 -0.000 -0.000  0.000
      -0.000  0.226 -0.000  0.000  0.000
      -0.000 -0.000  0.226  0.000  0.000
      -0.000  0.000  0.000  0.152  0.049
       0.000  0.000  0.000  0.049  0.298
     SPIN  2
     eigenvalues:
       0.985  0.990  0.996  0.996  0.997
     eigenvectors (columns):
       1.000 -0.000  0.000  0.000  0.000
       0.000 -0.000  0.349 -0.937 -0.000
       0.000 -0.000 -0.937 -0.349 -0.000
       0.000  0.197  0.000  0.000 -0.980
       0.000  0.980 -0.000 -0.000  0.197
     occupation matrix ns (before diag.):
       0.985 -0.000 -0.000 -0.000 -0.000
      -0.000  0.996  0.000  0.000  0.000
      -0.000  0.000  0.996  0.000  0.000
      -0.000  0.000  0.000  0.997 -0.001
      -0.000  0.000  0.000 -0.001  0.990
     ------------------------ ATOM   14 ------------------------
     Tr[ns( 14)] (up, down, total) =   1.17348  4.96501  6.13849
     Atomic magnetic moment for atom  14 =  -3.79153
     SPIN  1
     eigenvalues:
       0.137  0.226  0.226  0.272  0.313
     eigenvectors (columns):
       0.000 -0.000 -0.000  1.000  0.000
       0.000  0.290 -0.957 -0.000 -0.000
       0.000 -0.957 -0.290 -0.000 -0.000
      -0.956  0.000 -0.000  0.000 -0.292
       0.292  0.000  0.000  0.000 -0.956
     occupation matrix ns (before diag.):
       0.272 -0.000 -0.000  0.000 -0.000
      -0.000  0.226  0.000  0.000  0.000
      -0.000  0.000  0.226  0.000  0.000
       0.000  0.000  0.000  0.152  0.049
      -0.000  0.000  0.000  0.049  0.298
     SPIN  2
     eigenvalues:
       0.985  0.990  0.996  0.996  0.997
     eigenvectors (columns):
      -1.000  0.000 -0.000  0.000 -0.000
      -0.000 -0.000  0.171 -0.985 -0.000
      -0.000 -0.000  0.985  0.171 -0.000
       0.000  0.197 -0.000  0.000 -0.980
       0.000  0.980  0.000 -0.000  0.197
     occupation matrix ns (before diag.):
       0.985 -0.000 -0.000  0.000  0.000
      -0.000  0.996 -0.000  0.000  0.000
      -0.000 -0.000  0.996  0.000  0.000
       0.000  0.000  0.000  0.997 -0.001
       0.000  0.000  0.000 -0.001  0.990
     ------------------------ ATOM   15 ------------------------
     Tr[ns( 15)] (up, down, total) =   1.17348  4.96501  6.13849
     Atomic magnetic moment for atom  15 =  -3.79153
     SPIN  1
     eigenvalues:
       0.137  0.226  0.226  0.272  0.313
     eigenvectors (columns):
      -0.000  0.000 -0.000 -1.000 -0.000
       0.000  0.957  0.290  0.000 -0.000
       0.000  0.290 -0.957  0.000 -0.000
      -0.956  0.000  0.000  0.000 -0.292
       0.292 -0.000  0.000  0.000 -0.956
     occupation matrix ns (before diag.):
       0.272 -0.000 -0.000 -0.000  0.000
      -0.000  0.226 -0.000  0.000  0.000
      -0.000 -0.000  0.226  0.000  0.000
      -0.000  0.000  0.000  0.152  0.049
       0.000  0.000  0.000  0.049  0.298
     SPIN  2
     eigenvalues:
       0.985  0.990  0.996  0.996  0.997
     eigenvectors (columns):
       1.000 -0.000 -0.000  0.000  0.000
       0.000 -0.000  0.985 -0.171 -0.000
       0.000 -0.000 -0.171 -0.985 -0.000
       0.000  0.197 -0.000  0.000 -0.980
       0.000  0.980  0.000 -0.000  0.197
     occupation matrix ns (before diag.):
       0.985 -0.000 -0.000 -0.000 -0.000
      -0.000  0.996  0.000  0.000  0.000
      -0.000  0.000  0.996  0.000  0.000
      -0.000  0.000  0.000  0.997 -0.001
      -0.000  0.000  0.000 -0.001  0.990
     ------------------------ ATOM   16 ------------------------
     Tr[ns( 16)] (up, down, total) =   1.17346  4.96502  6.13848
     Atomic magnetic moment for atom  16 =  -3.79156
     SPIN  1
     eigenvalues:
       0.137  0.226  0.226  0.272  0.313
     eigenvectors (columns):
       0.000 -0.000 -0.000  1.000  0.000
       0.000 -0.871 -0.492 -0.000 -0.000
       0.000  0.492 -0.871 -0.000 -0.000
      -0.956 -0.000 -0.000  0.000 -0.292
       0.292 -0.000  0.000  0.000 -0.956
     occupation matrix ns (before diag.):
       0.272 -0.000 -0.000  0.000 -0.000
      -0.000  0.226  0.000  0.000  0.000
      -0.000  0.000  0.226  0.000  0.000
       0.000  0.000  0.000  0.152  0.049
      -0.000  0.000  0.000  0.049  0.298
     SPIN  2
     eigenvalues:
       0.985  0.990  0.996  0.996  0.997
     eigenvectors (columns):
      -1.000  0.000 -0.000 -0.000 -0.000
      -0.000 -0.000  0.937 -0.349 -0.000
      -0.000 -0.000  0.349  0.937 -0.000
       0.000  0.197 -0.000 -0.000 -0.980
       0.000  0.980  0.000  0.000  0.197
     occupation matrix ns (before diag.):
       0.985 -0.000 -0.000  0.000  0.000
      -0.000  0.996 -0.000  0.000  0.000
      -0.000 -0.000  0.996  0.000  0.000
       0.000  0.000  0.000  0.997 -0.001
       0.000  0.000  0.000 -0.001  0.990

     Number of occupied Hubbard levels =   45.6593

     HUBBARD ENERGY =    0.3075  (Ry)

     total cpu time spent up to now is       97.8 secs

     total energy              =   -3089.21107632 Ry
     estimated scf accuracy    <       0.41621550 Ry

     total magnetization       =    -0.00 Bohr mag/cell
     absolute magnetization    =    35.56 Bohr mag/cell

     iteration #  4     ecut=    90.00 Ry     beta= 0.30
     Davidson diagonalization with overlap

---- Real-time Memory Report at c_bands before calling an iterative solver
          1240 MiB given to the printing process from OS
           756 MiB allocation reported by mallinfo(arena+hblkhd)
        673521 MiB available memory on the node where the printing process lives
------------------
     ethr =  1.27E-04,  avg # of iterations =  9.5

     =================== HUBBARD OCCUPATIONS ===================
     ------------------------ ATOM    9 ------------------------
     Tr[ns(  9)] (up, down, total) =   4.85707  0.42365  5.28072
     Atomic magnetic moment for atom   9 =   4.43342
     SPIN  1
     eigenvalues:
       0.942  0.949  0.987  0.987  0.992
     eigenvectors (columns):
       0.000 -1.000 -0.000  0.000  0.000
      -0.000 -0.000  0.692 -0.722 -0.000
      -0.000 -0.000  0.722  0.692 -0.000
      -0.244 -0.000 -0.000 -0.000 -0.970
       0.970  0.000 -0.000 -0.000 -0.244
     occupation matrix ns (before diag.):
       0.949 -0.000 -0.000  0.000 -0.000
      -0.000  0.987 -0.000  0.000  0.000
      -0.000 -0.000  0.987  0.000  0.000
       0.000  0.000  0.000  0.989  0.012
      -0.000  0.000  0.000  0.012  0.945
     SPIN  2
     eigenvalues:
       0.054  0.063  0.063  0.100  0.144
     eigenvectors (columns):
       0.000 -0.000 -0.000 -1.000 -0.000
      -0.000 -0.987 -0.161  0.000  0.000
      -0.000  0.161 -0.987  0.000  0.000
       0.975 -0.000 -0.000  0.000 -0.220
       0.220 -0.000 -0.000 -0.000  0.975
     occupation matrix ns (before diag.):
       0.100 -0.000 -0.000 -0.000 -0.000
      -0.000  0.063  0.000  0.000  0.000
      -0.000  0.000  0.063  0.000  0.000
      -0.000  0.000  0.000  0.059 -0.019
      -0.000  0.000  0.000 -0.019  0.140
     ------------------------ ATOM   10 ------------------------
     Tr[ns( 10)] (up, down, total) =   4.85707  0.42363  5.28069
     Atomic magnetic moment for atom  10 =   4.43344
     SPIN  1
     eigenvalues:
       0.942  0.949  0.987  0.987  0.992
     eigenvectors (columns):
       0.000 -1.000 -0.000 -0.000  0.000
      -0.000 -0.000  0.894 -0.448 -0.000
      -0.000 -0.000  0.448  0.894 -0.000
      -0.244 -0.000 -0.000 -0.000 -0.970
       0.970  0.000 -0.000 -0.000 -0.244
     occupation matrix ns (before diag.):
       0.949 -0.000 -0.000 -0.000 -0.000
      -0.000  0.987 -0.000  0.000  0.000
      -0.000 -0.000  0.987  0.000  0.000
      -0.000  0.000  0.000  0.989  0.012
      -0.000  0.000  0.000  0.012  0.945
     SPIN  2
     eigenvalues:
       0.054  0.063  0.063  0.100  0.144
     eigenvectors (columns):
      -0.000  0.000  0.000  1.000  0.000
      -0.000  0.604 -0.797 -0.000  0.000
      -0.000  0.797  0.604 -0.000  0.000
       0.975  0.000  0.000  0.000 -0.220
       0.220  0.000 -0.000 -0.000  0.975
     occupation matrix ns (before diag.):
       0.100 -0.000 -0.000  0.000  0.000
      -0.000  0.063 -0.000  0.000  0.000
      -0.000 -0.000  0.063  0.000  0.000
       0.000  0.000  0.000  0.059 -0.019
       0.000  0.000  0.000 -0.019  0.140
     ------------------------ ATOM   11 ------------------------
     Tr[ns( 11)] (up, down, total) =   4.85707  0.42363  5.28069
     Atomic magnetic moment for atom  11 =   4.43344
     SPIN  1
     eigenvalues:
       0.942  0.949  0.987  0.987  0.992
     eigenvectors (columns):
      -0.000  1.000  0.000  0.000 -0.000
      -0.000  0.000  0.448 -0.894 -0.000
      -0.000  0.000 -0.894 -0.448 -0.000
      -0.244 -0.000  0.000  0.000 -0.970
       0.970  0.000  0.000  0.000 -0.244
     occupation matrix ns (before diag.):
       0.949 -0.000 -0.000  0.000  0.000
      -0.000  0.987  0.000  0.000  0.000
      -0.000  0.000  0.987  0.000  0.000
       0.000  0.000  0.000  0.989  0.012
       0.000  0.000  0.000  0.012  0.945
     SPIN  2
     eigenvalues:
       0.054  0.063  0.063  0.100  0.144
     eigenvectors (columns):
       0.000  0.000 -0.000 -1.000 -0.000
      -0.000 -0.797 -0.604  0.000  0.000
      -0.000  0.604 -0.797  0.000  0.000
       0.975  0.000 -0.000  0.000 -0.220
       0.220 -0.000 -0.000 -0.000  0.975
     occupation matrix ns (before diag.):
       0.100 -0.000 -0.000 -0.000 -0.000
      -0.000  0.063  0.000  0.000  0.000
      -0.000  0.000  0.063  0.000  0.000
      -0.000  0.000  0.000  0.059 -0.019
      -0.000  0.000  0.000 -0.019  0.140
     ------------------------ ATOM   12 ------------------------
     Tr[ns( 12)] (up, down, total) =   4.85707  0.42365  5.28072
     Atomic magnetic moment for atom  12 =   4.43342
     SPIN  1
     eigenvalues:
       0.942  0.949  0.987  0.987  0.992
     eigenvectors (columns):
      -0.000  1.000  0.000  0.000 -0.000
      -0.000  0.000  0.722 -0.692 -0.000
      -0.000  0.000 -0.692 -0.722 -0.000
      -0.244 -0.000  0.000  0.000 -0.970
       0.970  0.000  0.000  0.000 -0.244
     occupation matrix ns (before diag.):
       0.949 -0.000 -0.000 -0.000  0.000
      -0.000  0.987  0.000  0.000  0.000
      -0.000  0.000  0.987  0.000  0.000
      -0.000  0.000  0.000  0.989  0.012
       0.000  0.000  0.000  0.012  0.945
     SPIN  2
     eigenvalues:
       0.054  0.063  0.063  0.100  0.144
     eigenvectors (columns):
      -0.000  0.000 -0.000  1.000  0.000
      -0.000  0.161 -0.987 -0.000  0.000
      -0.000  0.987  0.161 -0.000  0.000
       0.975  0.000 -0.000  0.000 -0.220
       0.220  0.000 -0.000 -0.000  0.975
     occupation matrix ns (before diag.):
       0.100 -0.000 -0.000  0.000  0.000
      -0.000  0.063 -0.000  0.000  0.000
      -0.000 -0.000  0.063  0.000  0.000
       0.000  0.000  0.000  0.059 -0.019
       0.000  0.000  0.000 -0.019  0.140
     ------------------------ ATOM   13 ------------------------
     Tr[ns( 13)] (up, down, total) =   1.06989  4.96304  6.03293
     Atomic magnetic moment for atom  13 =  -3.89315
     SPIN  1
     eigenvalues:
       0.122  0.201  0.201  0.250  0.295
     eigenvectors (columns):
       0.000 -0.000  0.000 -1.000  0.000
      -0.000 -0.075  0.997  0.000  0.000
      -0.000 -0.997 -0.075  0.000  0.000
       0.958 -0.000  0.000  0.000  0.286
      -0.286  0.000 -0.000  0.000  0.958
     occupation matrix ns (before diag.):
       0.250 -0.000 -0.000 -0.000  0.000
      -0.000  0.201 -0.000  0.000  0.000
      -0.000 -0.000  0.201  0.000  0.000
      -0.000  0.000  0.000  0.136  0.047
       0.000  0.000  0.000  0.047  0.281
     SPIN  2
     eigenvalues:
       0.984  0.989  0.996  0.996  0.997
     eigenvectors (columns):
      -1.000  0.000  0.000  0.000  0.000
      -0.000 -0.000 -0.991  0.132 -0.000
      -0.000 -0.000 -0.132 -0.991 -0.000
      -0.000  0.200  0.000  0.000 -0.980
       0.000  0.980 -0.000 -0.000  0.200
     occupation matrix ns (before diag.):
       0.984 -0.000 -0.000 -0.000  0.000
      -0.000  0.996 -0.000  0.000  0.000
      -0.000 -0.000  0.996  0.000  0.000
      -0.000  0.000  0.000  0.997 -0.002
       0.000  0.000  0.000 -0.002  0.990
     ------------------------ ATOM   14 ------------------------
     Tr[ns( 14)] (up, down, total) =   1.06988  4.96304  6.03292
     Atomic magnetic moment for atom  14 =  -3.89316
     SPIN  1
     eigenvalues:
       0.122  0.201  0.201  0.250  0.295
     eigenvectors (columns):
      -0.000 -0.000  0.000 -1.000  0.000
      -0.000 -0.340  0.940  0.000  0.000
      -0.000 -0.940 -0.340  0.000  0.000
       0.958 -0.000  0.000  0.000  0.286
      -0.286  0.000 -0.000  0.000  0.958
     occupation matrix ns (before diag.):
       0.250 -0.000 -0.000  0.000  0.000
      -0.000  0.201 -0.000  0.000  0.000
      -0.000 -0.000  0.201  0.000  0.000
       0.000  0.000  0.000  0.136  0.047
       0.000  0.000  0.000  0.047  0.281
     SPIN  2
     eigenvalues:
       0.984  0.989  0.996  0.996  0.997
     eigenvectors (columns):
       1.000 -0.000 -0.000  0.000  0.000
       0.000 -0.000  0.798 -0.603 -0.000
       0.000 -0.000 -0.603 -0.798 -0.000
       0.000  0.200 -0.000  0.000 -0.980
       0.000  0.980 -0.000 -0.000  0.200
     occupation matrix ns (before diag.):
       0.984 -0.000 -0.000 -0.000 -0.000
      -0.000  0.996  0.000  0.000  0.000
      -0.000  0.000  0.996  0.000  0.000
      -0.000  0.000  0.000  0.997 -0.002
      -0.000  0.000  0.000 -0.002  0.990
     ------------------------ ATOM   15 ------------------------
     Tr[ns( 15)] (up, down, total) =   1.06988  4.96304  6.03292
     Atomic magnetic moment for atom  15 =  -3.89316
     SPIN  1
     eigenvalues:
       0.122  0.201  0.201  0.250  0.295
     eigenvectors (columns):
       0.000 -0.000 -0.000  1.000 -0.000
      -0.000 -0.940 -0.340 -0.000  0.000
      -0.000  0.340 -0.940 -0.000  0.000
       0.958 -0.000 -0.000  0.000  0.286
      -0.286  0.000  0.000  0.000  0.958
     occupation matrix ns (before diag.):
       0.250 -0.000 -0.000 -0.000 -0.000
      -0.000  0.201  0.000  0.000  0.000
      -0.000  0.000  0.201  0.000  0.000
      -0.000  0.000  0.000  0.136  0.047
      -0.000  0.000  0.000  0.047  0.281
     SPIN  2
     eigenvalues:
       0.984  0.989  0.996  0.996  0.997
     eigenvectors (columns):
      -1.000  0.000 -0.000  0.000 -0.000
      -0.000 -0.000  0.603 -0.798 -0.000
      -0.000 -0.000  0.798  0.603 -0.000
       0.000  0.200 -0.000  0.000 -0.980
       0.000  0.980  0.000  0.000  0.200
     occupation matrix ns (before diag.):
       0.984 -0.000 -0.000  0.000  0.000
      -0.000  0.996 -0.000  0.000  0.000
      -0.000 -0.000  0.996  0.000  0.000
       0.000  0.000  0.000  0.997 -0.002
       0.000  0.000  0.000 -0.002  0.990
     ------------------------ ATOM   16 ------------------------
     Tr[ns( 16)] (up, down, total) =   1.06989  4.96304  6.03293
     Atomic magnetic moment for atom  16 =  -3.89315
     SPIN  1
     eigenvalues:
       0.122  0.201  0.201  0.250  0.295
     eigenvectors (columns):
      -0.000 -0.000 -0.000  1.000 -0.000
      -0.000 -0.997 -0.075 -0.000  0.000
      -0.000  0.075 -0.997 -0.000  0.000
       0.958 -0.000 -0.000  0.000  0.286
      -0.286  0.000  0.000  0.000  0.958
     occupation matrix ns (before diag.):
       0.250 -0.000 -0.000  0.000 -0.000
      -0.000  0.201  0.000  0.000  0.000
      -0.000  0.000  0.201  0.000  0.000
       0.000  0.000  0.000  0.136  0.047
      -0.000  0.000  0.000  0.047  0.281
     SPIN  2
     eigenvalues:
       0.984  0.989  0.996  0.996  0.997
     eigenvectors (columns):
       1.000 -0.000 -0.000 -0.000 -0.000
       0.000 -0.000 -0.132  0.991 -0.000
       0.000 -0.000  0.991  0.132 -0.000
      -0.000  0.200 -0.000 -0.000 -0.980
       0.000  0.980  0.000  0.000  0.200
     occupation matrix ns (before diag.):
       0.984 -0.000 -0.000  0.000 -0.000
      -0.000  0.996  0.000  0.000  0.000
      -0.000  0.000  0.996  0.000  0.000
       0.000  0.000  0.000  0.997 -0.002
      -0.000  0.000  0.000 -0.002  0.990

     Number of occupied Hubbard levels =   45.2545

     HUBBARD ENERGY =    0.4253  (Ry)

     total cpu time spent up to now is      125.9 secs

     total energy              =   -3089.20349733 Ry
     estimated scf accuracy    <       0.19364706 Ry

     total magnetization       =     0.00 Bohr mag/cell
     absolute magnetization    =    35.83 Bohr mag/cell

     iteration #  5     ecut=    90.00 Ry     beta= 0.30
     Davidson diagonalization with overlap

---- Real-time Memory Report at c_bands before calling an iterative solver
          1250 MiB given to the printing process from OS
           767 MiB allocation reported by mallinfo(arena+hblkhd)
        673846 MiB available memory on the node where the printing process lives
------------------
     ethr =  5.90E-05,  avg # of iterations =  2.6

     =================== HUBBARD OCCUPATIONS ===================
     ------------------------ ATOM    9 ------------------------
     Tr[ns(  9)] (up, down, total) =   4.87144  0.41573  5.28716
     Atomic magnetic moment for atom   9 =   4.45571
     SPIN  1
     eigenvalues:
       0.950  0.951  0.989  0.989  0.993
     eigenvectors (columns):
      -1.000 -0.000 -0.000  0.000 -0.000
      -0.000 -0.000  0.522 -0.853 -0.000
      -0.000 -0.000  0.853  0.522 -0.000
       0.000 -0.251 -0.000  0.000 -0.968
      -0.000  0.968 -0.000  0.000 -0.251
     occupation matrix ns (before diag.):
       0.950 -0.000 -0.000  0.000 -0.000
      -0.000  0.989 -0.000  0.000  0.000
      -0.000 -0.000  0.989  0.000  0.000
       0.000  0.000  0.000  0.990  0.010
      -0.000  0.000  0.000  0.010  0.954
     SPIN  2
     eigenvalues:
       0.052  0.061  0.061  0.099  0.143
     eigenvectors (columns):
      -0.000  0.000 -0.000 -1.000  0.000
      -0.000 -0.871 -0.491  0.000  0.000
      -0.000  0.491 -0.871  0.000  0.000
       0.975 -0.000 -0.000 -0.000 -0.222
       0.222 -0.000 -0.000  0.000  0.975
     occupation matrix ns (before diag.):
       0.099 -0.000 -0.000 -0.000  0.000
      -0.000  0.061  0.000  0.000  0.000
      -0.000  0.000  0.061  0.000  0.000
      -0.000  0.000  0.000  0.057 -0.020
       0.000  0.000  0.000 -0.020  0.138
     ------------------------ ATOM   10 ------------------------
     Tr[ns( 10)] (up, down, total) =   4.87144  0.41575  5.28719
     Atomic magnetic moment for atom  10 =   4.45569
     SPIN  1
     eigenvalues:
       0.950  0.951  0.989  0.989  0.993
     eigenvectors (columns):
       1.000  0.000 -0.000  0.000  0.000
       0.000 -0.000  0.913  0.408 -0.000
       0.000 -0.000  0.408 -0.913 -0.000
       0.000 -0.251 -0.000  0.000 -0.968
      -0.000  0.968 -0.000  0.000 -0.251
     occupation matrix ns (before diag.):
       0.950 -0.000 -0.000 -0.000  0.000
      -0.000  0.989 -0.000  0.000  0.000
      -0.000 -0.000  0.989  0.000  0.000
      -0.000  0.000  0.000  0.990  0.010
       0.000  0.000  0.000  0.010  0.954
     SPIN  2
     eigenvalues:
       0.052  0.061  0.061  0.099  0.143
     eigenvectors (columns):
       0.000  0.000  0.000  1.000 -0.000
      -0.000  0.811 -0.585 -0.000  0.000
      -0.000  0.585  0.811 -0.000  0.000
       0.975  0.000  0.000 -0.000 -0.222
       0.222  0.000 -0.000  0.000  0.975
     occupation matrix ns (before diag.):
       0.099 -0.000 -0.000  0.000 -0.000
      -0.000  0.061 -0.000  0.000  0.000
      -0.000 -0.000  0.061  0.000  0.000
       0.000  0.000  0.000  0.057 -0.020
      -0.000  0.000  0.000 -0.020  0.138
     ------------------------ ATOM   11 ------------------------
     Tr[ns( 11)] (up, down, total) =   4.87144  0.41575  5.28719
     Atomic magnetic moment for atom  11 =   4.45569
     SPIN  1
     eigenvalues:
       0.950  0.951  0.989  0.989  0.993
     eigenvectors (columns):
      -1.000 -0.000 -0.000  0.000 -0.000
      -0.000 -0.000 -0.408 -0.913 -0.000
      -0.000 -0.000  0.913 -0.408 -0.000
       0.000 -0.251 -0.000  0.000 -0.968
      -0.000  0.968 -0.000  0.000 -0.251
     occupation matrix ns (before diag.):
       0.950 -0.000 -0.000  0.000 -0.000
      -0.000  0.989  0.000  0.000  0.000
      -0.000  0.000  0.989  0.000  0.000
       0.000  0.000  0.000  0.990  0.010
      -0.000  0.000  0.000  0.010  0.954
     SPIN  2
     eigenvalues:
       0.052  0.061  0.061  0.099  0.143
     eigenvectors (columns):
      -0.000  0.000 -0.000 -1.000  0.000
      -0.000 -0.585 -0.811  0.000  0.000
      -0.000  0.811 -0.585  0.000  0.000
       0.975  0.000 -0.000 -0.000 -0.222
       0.222 -0.000 -0.000  0.000  0.975
     occupation matrix ns (before diag.):
       0.099 -0.000 -0.000 -0.000  0.000
      -0.000  0.061  0.000  0.000  0.000
      -0.000  0.000  0.061  0.000  0.000
      -0.000  0.000  0.000  0.057 -0.020
       0.000  0.000  0.000 -0.020  0.138
     ------------------------ ATOM   12 ------------------------
     Tr[ns( 12)] (up, down, total) =   4.87144  0.41573  5.28716
     Atomic magnetic moment for atom  12 =   4.45571
     SPIN  1
     eigenvalues:
       0.950  0.951  0.989  0.989  0.993
     eigenvectors (columns):
       1.000  0.000 -0.000  0.000  0.000
       0.000 -0.000  0.853 -0.522 -0.000
       0.000 -0.000 -0.522 -0.853 -0.000
       0.000 -0.251 -0.000  0.000 -0.968
      -0.000  0.968 -0.000  0.000 -0.251
     occupation matrix ns (before diag.):
       0.950 -0.000 -0.000 -0.000  0.000
      -0.000  0.989  0.000  0.000  0.000
      -0.000  0.000  0.989  0.000  0.000
      -0.000  0.000  0.000  0.990  0.010
       0.000  0.000  0.000  0.010  0.954
     SPIN  2
     eigenvalues:
       0.052  0.061  0.061  0.099  0.143
     eigenvectors (columns):
       0.000  0.000  0.000  1.000 -0.000
      -0.000  0.491 -0.871 -0.000  0.000
      -0.000  0.871  0.491 -0.000  0.000
       0.975  0.000 -0.000 -0.000 -0.222
       0.222  0.000 -0.000  0.000  0.975
     occupation matrix ns (before diag.):
       0.099 -0.000 -0.000  0.000 -0.000
      -0.000  0.061 -0.000  0.000  0.000
      -0.000 -0.000  0.061  0.000  0.000
       0.000  0.000  0.000  0.057 -0.020
      -0.000  0.000  0.000 -0.020  0.138
     ------------------------ ATOM   13 ------------------------
     Tr[ns( 13)] (up, down, total) =   0.97603  4.95870  5.93473
     Atomic magnetic moment for atom  13 =  -3.98267
     SPIN  1
     eigenvalues:
       0.106  0.179  0.179  0.233  0.280
     eigenvectors (columns):
      -0.000 -0.000 -0.000 -1.000  0.000
      -0.000 -0.540  0.841  0.000  0.000
      -0.000 -0.841 -0.540  0.000  0.000
       0.960 -0.000  0.000 -0.000  0.280
      -0.280  0.000  0.000  0.000  0.960
     occupation matrix ns (before diag.):
       0.233 -0.000 -0.000  0.000  0.000
      -0.000  0.179 -0.000  0.000  0.000
      -0.000 -0.000  0.179  0.000  0.000
       0.000  0.000  0.000  0.119  0.047
       0.000  0.000  0.000  0.047  0.266
     SPIN  2
     eigenvalues:
       0.980  0.989  0.996  0.996  0.997
     eigenvectors (columns):
      -1.000  0.000 -0.000  0.000 -0.000
      -0.000 -0.000  0.693 -0.721 -0.000
      -0.000 -0.000  0.721  0.693 -0.000
       0.000  0.205 -0.000  0.000 -0.979
       0.000  0.979  0.000  0.000  0.205
     occupation matrix ns (before diag.):
       0.980 -0.000 -0.000  0.000  0.000
      -0.000  0.996 -0.000  0.000  0.000
      -0.000 -0.000  0.996  0.000  0.000
       0.000  0.000  0.000  0.997 -0.002
       0.000  0.000  0.000 -0.002  0.989
     ------------------------ ATOM   14 ------------------------
     Tr[ns( 14)] (up, down, total) =   0.97607  4.95871  5.93478
     Atomic magnetic moment for atom  14 =  -3.98263
     SPIN  1
     eigenvalues:
       0.106  0.179  0.179  0.233  0.280
     eigenvectors (columns):
       0.000 -0.000 -0.000  1.000 -0.000
      -0.000 -0.001 -1.000 -0.000  0.000
      -0.000 -1.000  0.001 -0.000  0.000
       0.960 -0.000 -0.000  0.000  0.280
      -0.280  0.000  0.000  0.000  0.960
     occupation matrix ns (before diag.):
       0.233 -0.000 -0.000 -0.000 -0.000
      -0.000  0.179 -0.000  0.000  0.000
      -0.000 -0.000  0.179  0.000  0.000
      -0.000  0.000  0.000  0.119  0.047
      -0.000  0.000  0.000  0.047  0.266
     SPIN  2
     eigenvalues:
       0.980  0.989  0.996  0.996  0.997
     eigenvectors (columns):
       1.000 -0.000 -0.000  0.000 -0.000
       0.000 -0.000  0.897 -0.442 -0.000
       0.000 -0.000 -0.442 -0.897 -0.000
       0.000  0.205 -0.000  0.000 -0.979
       0.000  0.979  0.000 -0.000  0.205
     occupation matrix ns (before diag.):
       0.980 -0.000 -0.000 -0.000 -0.000
      -0.000  0.996  0.000  0.000  0.000
      -0.000  0.000  0.996  0.000  0.000
      -0.000  0.000  0.000  0.997 -0.002
      -0.000  0.000  0.000 -0.002  0.989
     ------------------------ ATOM   15 ------------------------
     Tr[ns( 15)] (up, down, total) =   0.97607  4.95871  5.93478
     Atomic magnetic moment for atom  15 =  -3.98263
     SPIN  1
     eigenvalues:
       0.106  0.179  0.179  0.233  0.280
     eigenvectors (columns):
      -0.000  0.000 -0.000 -1.000  0.000
      -0.000  1.000 -0.001  0.000  0.000
      -0.000 -0.001 -1.000  0.000  0.000
       0.960  0.000 -0.000  0.000  0.280
      -0.280 -0.000  0.000  0.000  0.960
     occupation matrix ns (before diag.):
       0.233 -0.000 -0.000  0.000  0.000
      -0.000  0.179  0.000  0.000  0.000
      -0.000  0.000  0.179  0.000  0.000
       0.000  0.000  0.000  0.119  0.047
       0.000  0.000  0.000  0.047  0.266
     SPIN  2
     eigenvalues:
       0.980  0.989  0.996  0.996  0.997
     eigenvectors (columns):
      -1.000  0.000 -0.000  0.000  0.000
      -0.000 -0.000  0.442 -0.897 -0.000
      -0.000 -0.000  0.897  0.442 -0.000
       0.000  0.205 -0.000  0.000 -0.979
       0.000  0.979  0.000 -0.000  0.205
     occupation matrix ns (before diag.):
       0.980 -0.000 -0.000  0.000  0.000
      -0.000  0.996 -0.000  0.000  0.000
      -0.000 -0.000  0.996  0.000  0.000
       0.000  0.000  0.000  0.997 -0.002
       0.000  0.000  0.000 -0.002  0.989
     ------------------------ ATOM   16 ------------------------
     Tr[ns( 16)] (up, down, total) =   0.97603  4.95870  5.93473
     Atomic magnetic moment for atom  16 =  -3.98267
     SPIN  1
     eigenvalues:
       0.106  0.179  0.179  0.233  0.280
     eigenvectors (columns):
       0.000  0.000 -0.000  1.000 -0.000
      -0.000 -0.841 -0.540 -0.000  0.000
      -0.000  0.540 -0.841 -0.000  0.000
       0.960 -0.000 -0.000 -0.000  0.280
      -0.280 -0.000  0.000  0.000  0.960
     occupation matrix ns (before diag.):
       0.233 -0.000 -0.000 -0.000 -0.000
      -0.000  0.179  0.000  0.000  0.000
      -0.000  0.000  0.179  0.000  0.000
      -0.000  0.000  0.000  0.119  0.047
      -0.000  0.000  0.000  0.047  0.266
     SPIN  2
     eigenvalues:
       0.980  0.989  0.996  0.996  0.997
     eigenvectors (columns):
       1.000 -0.000  0.000  0.000  0.000
       0.000 -0.000  0.721 -0.693 -0.000
       0.000 -0.000 -0.693 -0.721 -0.000
       0.000  0.205 -0.000  0.000 -0.979
       0.000  0.979 -0.000 -0.000  0.205
     occupation matrix ns (before diag.):
       0.980 -0.000 -0.000 -0.000 -0.000
      -0.000  0.996  0.000  0.000  0.000
      -0.000  0.000  0.996  0.000  0.000
      -0.000  0.000  0.000  0.997 -0.002
      -0.000  0.000  0.000 -0.002  0.989

     Number of occupied Hubbard levels =   44.8877

     HUBBARD ENERGY =    0.4251  (Ry)

     total cpu time spent up to now is      155.8 secs

     total energy              =   -3089.21592163 Ry
     estimated scf accuracy    <       0.09966354 Ry

     total magnetization       =     0.00 Bohr mag/cell
     absolute magnetization    =    36.23 Bohr mag/cell

     iteration #  6     ecut=    90.00 Ry     beta= 0.30
     Davidson diagonalization with overlap

---- Real-time Memory Report at c_bands before calling an iterative solver
          1262 MiB given to the printing process from OS
           779 MiB allocation reported by mallinfo(arena+hblkhd)
        673678 MiB available memory on the node where the printing process lives
------------------
     ethr =  3.04E-05,  avg # of iterations =  3.3

     =================== HUBBARD OCCUPATIONS ===================
     ------------------------ ATOM    9 ------------------------
     Tr[ns(  9)] (up, down, total) =   4.86520  0.42484  5.29004
     Atomic magnetic moment for atom   9 =   4.44035
     SPIN  1
     eigenvalues:
       0.947  0.949  0.988  0.988  0.993
     eigenvectors (columns):
       0.000 -1.000 -0.000  0.000 -0.000
      -0.000 -0.000  0.393 -0.920 -0.000
      -0.000 -0.000  0.920  0.393 -0.000
      -0.250 -0.000 -0.000  0.000 -0.968
       0.968  0.000 -0.000  0.000 -0.250
     occupation matrix ns (before diag.):
       0.949 -0.000 -0.000  0.000 -0.000
      -0.000  0.988 -0.000  0.000  0.000
      -0.000 -0.000  0.988  0.000  0.000
       0.000  0.000  0.000  0.990  0.011
      -0.000  0.000  0.000  0.011  0.950
     SPIN  2
     eigenvalues:
       0.053  0.063  0.063  0.101  0.145
     eigenvectors (columns):
       0.000 -0.000  0.000  1.000 -0.000
      -0.000 -0.903  0.430 -0.000  0.000
      -0.000  0.430  0.903 -0.000  0.000
       0.975 -0.000  0.000 -0.000 -0.222
       0.222 -0.000  0.000  0.000  0.975
     occupation matrix ns (before diag.):
       0.101 -0.000 -0.000  0.000 -0.000
      -0.000  0.063  0.000  0.000  0.000
      -0.000  0.000  0.063  0.000  0.000
       0.000  0.000  0.000  0.058 -0.020
      -0.000  0.000  0.000 -0.020  0.140
     ------------------------ ATOM   10 ------------------------
     Tr[ns( 10)] (up, down, total) =   4.86521  0.42486  5.29006
     Atomic magnetic moment for atom  10 =   4.44035
     SPIN  1
     eigenvalues:
       0.947  0.949  0.988  0.988  0.993
     eigenvectors (columns):
      -0.000  1.000 -0.000  0.000  0.000
      -0.000  0.000  0.721  0.693 -0.000
      -0.000  0.000  0.693 -0.721 -0.000
      -0.250 -0.000 -0.000  0.000 -0.968
       0.968  0.000 -0.000  0.000 -0.250
     occupation matrix ns (before diag.):
       0.949 -0.000 -0.000 -0.000  0.000
      -0.000  0.988 -0.000  0.000  0.000
      -0.000 -0.000  0.988  0.000  0.000
      -0.000  0.000  0.000  0.990  0.011
       0.000  0.000  0.000  0.011  0.950
     SPIN  2
     eigenvalues:
       0.053  0.063  0.063  0.101  0.145
     eigenvectors (columns):
      -0.000 -0.000  0.000 -1.000  0.000
      -0.000 -0.789 -0.614  0.000  0.000
      -0.000 -0.614  0.789  0.000  0.000
       0.975 -0.000  0.000 -0.000 -0.222
       0.222 -0.000 -0.000  0.000  0.975
     occupation matrix ns (before diag.):
       0.101 -0.000 -0.000 -0.000  0.000
      -0.000  0.063 -0.000  0.000  0.000
      -0.000 -0.000  0.063  0.000  0.000
      -0.000  0.000  0.000  0.058 -0.020
       0.000  0.000  0.000 -0.020  0.140
     ------------------------ ATOM   11 ------------------------
     Tr[ns( 11)] (up, down, total) =   4.86521  0.42486  5.29006
     Atomic magnetic moment for atom  11 =   4.44035
     SPIN  1
     eigenvalues:
       0.947  0.949  0.988  0.988  0.993
     eigenvectors (columns):
       0.000 -1.000 -0.000  0.000 -0.000
      -0.000 -0.000 -0.693 -0.721 -0.000
      -0.000 -0.000  0.721 -0.693 -0.000
      -0.250 -0.000 -0.000  0.000 -0.968
       0.968  0.000 -0.000  0.000 -0.250
     occupation matrix ns (before diag.):
       0.949 -0.000 -0.000  0.000 -0.000
      -0.000  0.988  0.000  0.000  0.000
      -0.000  0.000  0.988  0.000  0.000
       0.000  0.000  0.000  0.990  0.011
      -0.000  0.000  0.000  0.011  0.950
     SPIN  2
     eigenvalues:
       0.053  0.063  0.063  0.101  0.145
     eigenvectors (columns):
       0.000  0.000  0.000  1.000 -0.000
      -0.000 -0.614  0.789 -0.000  0.000
      -0.000  0.789  0.614 -0.000  0.000
       0.975  0.000  0.000 -0.000 -0.222
       0.222 -0.000  0.000  0.000  0.975
     occupation matrix ns (before diag.):
       0.101 -0.000 -0.000  0.000 -0.000
      -0.000  0.063  0.000  0.000  0.000
      -0.000  0.000  0.063  0.000  0.000
       0.000  0.000  0.000  0.058 -0.020
      -0.000  0.000  0.000 -0.020  0.140
     ------------------------ ATOM   12 ------------------------
     Tr[ns( 12)] (up, down, total) =   4.86520  0.42484  5.29004
     Atomic magnetic moment for atom  12 =   4.44035
     SPIN  1
     eigenvalues:
       0.947  0.949  0.988  0.988  0.993
     eigenvectors (columns):
      -0.000  1.000 -0.000  0.000  0.000
      -0.000  0.000  0.920 -0.393 -0.000
      -0.000  0.000 -0.393 -0.920 -0.000
      -0.250 -0.000 -0.000  0.000 -0.968
       0.968  0.000 -0.000  0.000 -0.250
     occupation matrix ns (before diag.):
       0.949 -0.000 -0.000 -0.000  0.000
      -0.000  0.988  0.000  0.000  0.000
      -0.000  0.000  0.988  0.000  0.000
      -0.000  0.000  0.000  0.990  0.011
       0.000  0.000  0.000  0.011  0.950
     SPIN  2
     eigenvalues:
       0.053  0.063  0.063  0.101  0.145
     eigenvectors (columns):
      -0.000 -0.000 -0.000 -1.000  0.000
      -0.000 -0.430 -0.903  0.000  0.000
      -0.000 -0.903  0.430  0.000  0.000
       0.975 -0.000 -0.000 -0.000 -0.222
       0.222 -0.000 -0.000  0.000  0.975
     occupation matrix ns (before diag.):
       0.101 -0.000 -0.000 -0.000  0.000
      -0.000  0.063 -0.000  0.000  0.000
      -0.000 -0.000  0.063  0.000  0.000
      -0.000  0.000  0.000  0.058 -0.020
       0.000  0.000  0.000 -0.020  0.140
     ------------------------ ATOM   13 ------------------------
     Tr[ns( 13)] (up, down, total) =   1.03450  4.95920  5.99370
     Atomic magnetic moment for atom  13 =  -3.92470
     SPIN  1
     eigenvalues:
       0.112  0.192  0.192  0.246  0.292
     eigenvectors (columns):
      -0.000 -0.000 -0.000  1.000 -0.000
      -0.000 -0.240 -0.971 -0.000  0.000
      -0.000 -0.971  0.240 -0.000  0.000
       0.960 -0.000 -0.000  0.000  0.281
      -0.281  0.000  0.000  0.000  0.960
     occupation matrix ns (before diag.):
       0.246 -0.000 -0.000  0.000 -0.000
      -0.000  0.192 -0.000  0.000  0.000
      -0.000 -0.000  0.192  0.000  0.000
       0.000  0.000  0.000  0.126  0.049
      -0.000  0.000  0.000  0.049  0.278
     SPIN  2
     eigenvalues:
       0.981  0.989  0.996  0.996  0.997
     eigenvectors (columns):
      -1.000  0.000 -0.000 -0.000 -0.000
      -0.000 -0.000  0.884 -0.467 -0.000
      -0.000 -0.000  0.467  0.884 -0.000
       0.000  0.204 -0.000 -0.000 -0.979
       0.000  0.979  0.000  0.000  0.204
     occupation matrix ns (before diag.):
       0.981 -0.000 -0.000  0.000  0.000
      -0.000  0.996 -0.000  0.000  0.000
      -0.000 -0.000  0.996  0.000  0.000
       0.000  0.000  0.000  0.997 -0.002
       0.000  0.000  0.000 -0.002  0.989
     ------------------------ ATOM   14 ------------------------
     Tr[ns( 14)] (up, down, total) =   1.03452  4.95920  5.99373
     Atomic magnetic moment for atom  14 =  -3.92468
     SPIN  1
     eigenvalues:
       0.112  0.192  0.192  0.246  0.292
     eigenvectors (columns):
      -0.000 -0.000  0.000 -1.000  0.000
      -0.000 -0.110  0.994  0.000  0.000
      -0.000 -0.994 -0.110  0.000  0.000
       0.960 -0.000  0.000  0.000  0.281
      -0.281  0.000 -0.000  0.000  0.960
     occupation matrix ns (before diag.):
       0.246 -0.000 -0.000  0.000  0.000
      -0.000  0.192 -0.000  0.000  0.000
      -0.000 -0.000  0.192  0.000  0.000
       0.000  0.000  0.000  0.126  0.049
       0.000  0.000  0.000  0.049  0.278
     SPIN  2
     eigenvalues:
       0.981  0.989  0.996  0.996  0.997
     eigenvectors (columns):
       1.000 -0.000 -0.000  0.000  0.000
       0.000 -0.000  0.903 -0.431 -0.000
       0.000 -0.000 -0.431 -0.903 -0.000
       0.000  0.204 -0.000  0.000 -0.979
       0.000  0.979  0.000 -0.000  0.204
     occupation matrix ns (before diag.):
       0.981 -0.000 -0.000 -0.000 -0.000
      -0.000  0.996  0.000  0.000  0.000
      -0.000  0.000  0.996  0.000  0.000
      -0.000  0.000  0.000  0.997 -0.002
      -0.000  0.000  0.000 -0.002  0.989
     ------------------------ ATOM   15 ------------------------
     Tr[ns( 15)] (up, down, total) =   1.03452  4.95920  5.99373
     Atomic magnetic moment for atom  15 =  -3.92468
     SPIN  1
     eigenvalues:
       0.112  0.192  0.192  0.246  0.292
     eigenvectors (columns):
       0.000 -0.000 -0.000  1.000 -0.000
      -0.000 -0.994 -0.110 -0.000  0.000
      -0.000  0.110 -0.994 -0.000  0.000
       0.960 -0.000 -0.000  0.000  0.281
      -0.281  0.000  0.000  0.000  0.960
     occupation matrix ns (before diag.):
       0.246 -0.000 -0.000 -0.000 -0.000
      -0.000  0.192  0.000  0.000  0.000
      -0.000  0.000  0.192  0.000  0.000
      -0.000  0.000  0.000  0.126  0.049
      -0.000  0.000  0.000  0.049  0.278
     SPIN  2
     eigenvalues:
       0.981  0.989  0.996  0.996  0.997
     eigenvectors (columns):
      -1.000  0.000 -0.000  0.000 -0.000
      -0.000 -0.000  0.431 -0.903 -0.000
      -0.000 -0.000  0.903  0.431 -0.000
       0.000  0.204 -0.000  0.000 -0.979
       0.000  0.979  0.000 -0.000  0.204
     occupation matrix ns (before diag.):
       0.981 -0.000 -0.000  0.000  0.000
      -0.000  0.996 -0.000  0.000  0.000
      -0.000 -0.000  0.996  0.000  0.000
       0.000  0.000  0.000  0.997 -0.002
       0.000  0.000  0.000 -0.002  0.989
     ------------------------ ATOM   16 ------------------------
     Tr[ns( 16)] (up, down, total) =   1.03450  4.95920  5.99370
     Atomic magnetic moment for atom  16 =  -3.92470
     SPIN  1
     eigenvalues:
       0.112  0.192  0.192  0.246  0.292
     eigenvectors (columns):
       0.000  0.000 -0.000 -1.000  0.000
      -0.000  0.971 -0.240  0.000  0.000
      -0.000 -0.240 -0.971  0.000  0.000
       0.960  0.000 -0.000  0.000  0.281
      -0.281 -0.000  0.000  0.000  0.960
     occupation matrix ns (before diag.):
       0.246 -0.000 -0.000 -0.000  0.000
      -0.000  0.192  0.000  0.000  0.000
      -0.000  0.000  0.192  0.000  0.000
      -0.000  0.000  0.000  0.126  0.049
       0.000  0.000  0.000  0.049  0.278
     SPIN  2
     eigenvalues:
       0.981  0.989  0.996  0.996  0.997
     eigenvectors (columns):
       1.000 -0.000  0.000  0.000  0.000
       0.000 -0.000  0.467 -0.884 -0.000
       0.000 -0.000 -0.884 -0.467 -0.000
       0.000  0.204  0.000  0.000 -0.979
       0.000  0.979 -0.000 -0.000  0.204
     occupation matrix ns (before diag.):
       0.981 -0.000 -0.000 -0.000 -0.000
      -0.000  0.996  0.000  0.000  0.000
      -0.000  0.000  0.996  0.000  0.000
      -0.000  0.000  0.000  0.997 -0.002
      -0.000  0.000  0.000 -0.002  0.989

     Number of occupied Hubbard levels =   45.1351

     HUBBARD ENERGY =    0.4077  (Ry)

     total cpu time spent up to now is      183.5 secs

     total energy              =   -3089.21592405 Ry
     estimated scf accuracy    <       0.02093096 Ry

     total magnetization       =     0.00 Bohr mag/cell
     absolute magnetization    =    36.14 Bohr mag/cell

     iteration #  7     ecut=    90.00 Ry     beta= 0.30
     Davidson diagonalization with overlap

---- Real-time Memory Report at c_bands before calling an iterative solver
          1274 MiB given to the printing process from OS
           791 MiB allocation reported by mallinfo(arena+hblkhd)
        673487 MiB available memory on the node where the printing process lives
------------------
     c_bands:  1 eigenvalues not converged
     ethr =  6.38E-06,  avg # of iterations = 11.6

     =================== HUBBARD OCCUPATIONS ===================
     ------------------------ ATOM    9 ------------------------
     Tr[ns(  9)] (up, down, total) =   4.86338  0.43177  5.29515
     Atomic magnetic moment for atom   9 =   4.43161
     SPIN  1
     eigenvalues:
       0.946  0.948  0.988  0.988  0.993
     eigenvectors (columns):
       0.000 -1.000  0.000  0.000  0.000
      -0.000 -0.000 -0.810 -0.587 -0.000
      -0.000 -0.000  0.587 -0.810 -0.000
      -0.250 -0.000 -0.000  0.000 -0.968
       0.968  0.000  0.000  0.000 -0.250
     occupation matrix ns (before diag.):
       0.948 -0.000 -0.000 -0.000 -0.000
      -0.000  0.988  0.000  0.000  0.000
      -0.000  0.000  0.988  0.000  0.000
      -0.000  0.000  0.000  0.990  0.011
      -0.000  0.000  0.000  0.011  0.949
     SPIN  2
     eigenvalues:
       0.054  0.064  0.064  0.103  0.147
     eigenvectors (columns):
       0.000  0.000 -0.000  1.000 -0.000
      -0.000 -0.254 -0.967 -0.000  0.000
      -0.000  0.967 -0.254 -0.000  0.000
       0.975  0.000 -0.000 -0.000 -0.221
       0.221 -0.000 -0.000  0.000  0.975
     occupation matrix ns (before diag.):
       0.103 -0.000 -0.000  0.000 -0.000
      -0.000  0.064  0.000  0.000  0.000
      -0.000  0.000  0.064  0.000  0.000
       0.000  0.000  0.000  0.059 -0.020
      -0.000  0.000  0.000 -0.020  0.142
     ------------------------ ATOM   10 ------------------------
     Tr[ns( 10)] (up, down, total) =   4.86339  0.43176  5.29514
     Atomic magnetic moment for atom  10 =   4.43163
     SPIN  1
     eigenvalues:
       0.946  0.948  0.988  0.988  0.993
     eigenvectors (columns):
       0.000 -1.000  0.000  0.000  0.000
      -0.000 -0.000 -0.999  0.040 -0.000
      -0.000 -0.000 -0.040 -0.999 -0.000
      -0.250 -0.000  0.000  0.000 -0.968
       0.968  0.000  0.000  0.000 -0.250
     occupation matrix ns (before diag.):
       0.948 -0.000 -0.000  0.000 -0.000
      -0.000  0.988 -0.000  0.000  0.000
      -0.000 -0.000  0.988  0.000  0.000
       0.000  0.000  0.000  0.990  0.011
      -0.000  0.000  0.000  0.011  0.949
     SPIN  2
     eigenvalues:
       0.054  0.064  0.064  0.103  0.147
     eigenvectors (columns):
       0.000 -0.000 -0.000 -1.000  0.000
      -0.000 -0.925  0.380  0.000  0.000
      -0.000 -0.380 -0.925  0.000  0.000
       0.975 -0.000 -0.000 -0.000 -0.221
       0.221 -0.000  0.000  0.000  0.975
     occupation matrix ns (before diag.):
       0.103 -0.000 -0.000 -0.000  0.000
      -0.000  0.064 -0.000  0.000  0.000
      -0.000 -0.000  0.064  0.000  0.000
      -0.000  0.000  0.000  0.059 -0.020
       0.000  0.000  0.000 -0.020  0.142
     ------------------------ ATOM   11 ------------------------
     Tr[ns( 11)] (up, down, total) =   4.86339  0.43176  5.29514
     Atomic magnetic moment for atom  11 =   4.43163
     SPIN  1
     eigenvalues:
       0.946  0.948  0.988  0.988  0.993
     eigenvectors (columns):
      -0.000  1.000 -0.000 -0.000 -0.000
      -0.000  0.000 -0.040  0.999 -0.000
      -0.000  0.000  0.999  0.040 -0.000
      -0.250 -0.000 -0.000 -0.000 -0.968
       0.968  0.000 -0.000 -0.000 -0.250
     occupation matrix ns (before diag.):
       0.948 -0.000 -0.000 -0.000  0.000
      -0.000  0.988  0.000  0.000  0.000
      -0.000  0.000  0.988  0.000  0.000
      -0.000  0.000  0.000  0.990  0.011
       0.000  0.000  0.000  0.011  0.949
     SPIN  2
     eigenvalues:
       0.054  0.064  0.064  0.103  0.147
     eigenvectors (columns):
      -0.000  0.000 -0.000  1.000 -0.000
      -0.000 -0.380 -0.925 -0.000  0.000
      -0.000  0.925 -0.380 -0.000  0.000
       0.975  0.000 -0.000 -0.000 -0.221
       0.221 -0.000 -0.000  0.000  0.975
     occupation matrix ns (before diag.):
       0.103 -0.000 -0.000  0.000 -0.000
      -0.000  0.064  0.000  0.000  0.000
      -0.000  0.000  0.064  0.000  0.000
       0.000  0.000  0.000  0.059 -0.020
      -0.000  0.000  0.000 -0.020  0.142
     ------------------------ ATOM   12 ------------------------
     Tr[ns( 12)] (up, down, total) =   4.86338  0.43177  5.29515
     Atomic magnetic moment for atom  12 =   4.43161
     SPIN  1
     eigenvalues:
       0.946  0.948  0.988  0.988  0.993
     eigenvectors (columns):
      -0.000  1.000 -0.000  0.000 -0.000
      -0.000  0.000  0.587  0.810 -0.000
      -0.000  0.000  0.810 -0.587 -0.000
      -0.250 -0.000 -0.000  0.000 -0.968
       0.968  0.000 -0.000 -0.000 -0.250
     occupation matrix ns (before diag.):
       0.948 -0.000 -0.000  0.000  0.000
      -0.000  0.988 -0.000  0.000  0.000
      -0.000 -0.000  0.988  0.000  0.000
       0.000  0.000  0.000  0.990  0.011
       0.000  0.000  0.000  0.011  0.949
     SPIN  2
     eigenvalues:
       0.054  0.064  0.064  0.103  0.147
     eigenvectors (columns):
      -0.000 -0.000 -0.000 -1.000  0.000
      -0.000 -0.967  0.254  0.000  0.000
      -0.000 -0.254 -0.967  0.000  0.000
       0.975 -0.000 -0.000 -0.000 -0.221
       0.221 -0.000  0.000  0.000  0.975
     occupation matrix ns (before diag.):
       0.103 -0.000 -0.000 -0.000  0.000
      -0.000  0.064 -0.000  0.000  0.000
      -0.000 -0.000  0.064  0.000  0.000
      -0.000  0.000  0.000  0.059 -0.020
       0.000  0.000  0.000 -0.020  0.142
     ------------------------ ATOM   13 ------------------------
     Tr[ns( 13)] (up, down, total) =   1.05844  4.95930  6.01774
     Atomic magnetic moment for atom  13 =  -3.90085
     SPIN  1
     eigenvalues:
       0.114  0.198  0.198  0.253  0.297
     eigenvectors (columns):
       0.000 -0.000 -0.000 -1.000  0.000
      -0.000  0.839 -0.544  0.000  0.000
      -0.000 -0.544 -0.839  0.000  0.000
       0.960  0.000 -0.000  0.000  0.281
      -0.281  0.000  0.000  0.000  0.960
     occupation matrix ns (before diag.):
       0.253 -0.000 -0.000 -0.000  0.000
      -0.000  0.198  0.000  0.000  0.000
      -0.000  0.000  0.198  0.000  0.000
      -0.000  0.000  0.000  0.128  0.049
       0.000  0.000  0.000  0.049  0.282
     SPIN  2
     eigenvalues:
       0.981  0.988  0.996  0.996  0.997
     eigenvectors (columns):
      -1.000  0.000 -0.000 -0.000 -0.000
      -0.000 -0.000  0.950 -0.313 -0.000
      -0.000 -0.000  0.313  0.950 -0.000
       0.000  0.203 -0.000 -0.000 -0.979
       0.000  0.979  0.000  0.000  0.203
     occupation matrix ns (before diag.):
       0.981 -0.000 -0.000  0.000  0.000
      -0.000  0.996 -0.000  0.000  0.000
      -0.000 -0.000  0.996  0.000  0.000
       0.000  0.000  0.000  0.997 -0.002
       0.000  0.000  0.000 -0.002  0.989
     ------------------------ ATOM   14 ------------------------
     Tr[ns( 14)] (up, down, total) =   1.05845  4.95930  6.01775
     Atomic magnetic moment for atom  14 =  -3.90085
     SPIN  1
     eigenvalues:
       0.114  0.198  0.198  0.253  0.297
     eigenvectors (columns):
       0.000 -0.000 -0.000 -1.000 -0.000
       0.000 -0.746  0.666  0.000 -0.000
       0.000 -0.666 -0.746  0.000 -0.000
      -0.960 -0.000  0.000  0.000 -0.281
       0.281  0.000  0.000  0.000 -0.960
     occupation matrix ns (before diag.):
       0.253 -0.000 -0.000  0.000  0.000
      -0.000  0.198 -0.000  0.000  0.000
      -0.000 -0.000  0.198  0.000  0.000
       0.000  0.000  0.000  0.128  0.049
       0.000  0.000  0.000  0.049  0.282
     SPIN  2
     eigenvalues:
       0.981  0.988  0.996  0.996  0.997
     eigenvectors (columns):
       1.000 -0.000  0.000  0.000  0.000
       0.000 -0.000  0.234 -0.972 -0.000
       0.000 -0.000 -0.972 -0.234 -0.000
       0.000  0.203  0.000  0.000 -0.979
       0.000  0.979 -0.000 -0.000  0.203
     occupation matrix ns (before diag.):
       0.981 -0.000 -0.000 -0.000 -0.000
      -0.000  0.996  0.000  0.000  0.000
      -0.000  0.000  0.996  0.000  0.000
      -0.000  0.000  0.000  0.997 -0.002
      -0.000  0.000  0.000 -0.002  0.989
     ------------------------ ATOM   15 ------------------------
     Tr[ns( 15)] (up, down, total) =   1.05845  4.95930  6.01775
     Atomic magnetic moment for atom  15 =  -3.90085
     SPIN  1
     eigenvalues:
       0.114  0.198  0.198  0.253  0.297
     eigenvectors (columns):
      -0.000  0.000 -0.000  1.000  0.000
       0.000 -0.666 -0.746 -0.000 -0.000
       0.000  0.746 -0.666 -0.000 -0.000
      -0.960 -0.000 -0.000  0.000 -0.281
       0.281 -0.000  0.000  0.000 -0.960
     occupation matrix ns (before diag.):
       0.253 -0.000 -0.000 -0.000 -0.000
      -0.000  0.198  0.000  0.000  0.000
      -0.000  0.000  0.198  0.000  0.000
      -0.000  0.000  0.000  0.128  0.049
      -0.000  0.000  0.000  0.049  0.282
     SPIN  2
     eigenvalues:
       0.981  0.988  0.996  0.996  0.997
     eigenvectors (columns):
      -1.000  0.000 -0.000 -0.000 -0.000
      -0.000 -0.000  0.972 -0.234 -0.000
      -0.000 -0.000  0.234  0.972 -0.000
       0.000  0.203 -0.000 -0.000 -0.979
       0.000  0.979  0.000  0.000  0.203
     occupation matrix ns (before diag.):
       0.981 -0.000 -0.000  0.000  0.000
      -0.000  0.996 -0.000  0.000  0.000
      -0.000 -0.000  0.996  0.000  0.000
       0.000  0.000  0.000  0.997 -0.002
       0.000  0.000  0.000 -0.002  0.989
     ------------------------ ATOM   16 ------------------------
     Tr[ns( 16)] (up, down, total) =   1.05844  4.95930  6.01774
     Atomic magnetic moment for atom  16 =  -3.90085
     SPIN  1
     eigenvalues:
       0.114  0.198  0.198  0.253  0.297
     eigenvectors (columns):
      -0.000 -0.000 -0.000  1.000 -0.000
      -0.000 -0.544 -0.839 -0.000  0.000
      -0.000 -0.839  0.544 -0.000  0.000
       0.960 -0.000 -0.000  0.000  0.281
      -0.281  0.000 -0.000  0.000  0.960
     occupation matrix ns (before diag.):
       0.253 -0.000 -0.000  0.000 -0.000
      -0.000  0.198 -0.000  0.000  0.000
      -0.000 -0.000  0.198  0.000  0.000
       0.000  0.000  0.000  0.128  0.049
      -0.000  0.000  0.000  0.049  0.282
     SPIN  2
     eigenvalues:
       0.981  0.988  0.996  0.996  0.997
     eigenvectors (columns):
       1.000 -0.000  0.000  0.000  0.000
       0.000 -0.000  0.313 -0.950 -0.000
       0.000 -0.000 -0.950 -0.313 -0.000
       0.000  0.203  0.000  0.000 -0.979
       0.000  0.979 -0.000 -0.000  0.203
     occupation matrix ns (before diag.):
       0.981 -0.000 -0.000 -0.000 -0.000
      -0.000  0.996  0.000  0.000  0.000
      -0.000  0.000  0.996  0.000  0.000
      -0.000  0.000  0.000  0.997 -0.002
      -0.000  0.000  0.000 -0.002  0.989

     Number of occupied Hubbard levels =   45.2516

     HUBBARD ENERGY =    0.4068  (Ry)

     total cpu time spent up to now is      217.5 secs

     total energy              =   -3089.21928160 Ry
     estimated scf accuracy    <       0.00158475 Ry

     total magnetization       =    -0.00 Bohr mag/cell
     absolute magnetization    =    36.11 Bohr mag/cell

     iteration #  8     ecut=    90.00 Ry     beta= 0.30
     Davidson diagonalization with overlap

---- Real-time Memory Report at c_bands before calling an iterative solver
          1287 MiB given to the printing process from OS
           803 MiB allocation reported by mallinfo(arena+hblkhd)
        673802 MiB available memory on the node where the printing process lives
------------------
     ethr =  4.83E-07,  avg # of iterations =  5.9

     =================== HUBBARD OCCUPATIONS ===================
     ------------------------ ATOM    9 ------------------------
     Tr[ns(  9)] (up, down, total) =   4.86480  0.43101  5.29580
     Atomic magnetic moment for atom   9 =   4.43379
     SPIN  1
     eigenvalues:
       0.947  0.948  0.988  0.988  0.993
     eigenvectors (columns):
      -0.000  1.000  0.000  0.000 -0.000
      -0.000  0.000  0.131 -0.991 -0.000
      -0.000  0.000 -0.991 -0.131 -0.000
      -0.251 -0.000  0.000  0.000 -0.968
       0.968  0.000  0.000  0.000 -0.251
     occupation matrix ns (before diag.):
       0.948 -0.000 -0.000  0.000  0.000
      -0.000  0.988  0.000  0.000  0.000
      -0.000  0.000  0.988  0.000  0.000
       0.000  0.000  0.000  0.990  0.011
       0.000  0.000  0.000  0.011  0.950
     SPIN  2
     eigenvalues:
       0.054  0.064  0.064  0.102  0.146
     eigenvectors (columns):
      -0.000  0.000  0.000  1.000 -0.000
      -0.000 -0.552  0.834 -0.000  0.000
      -0.000  0.834  0.552 -0.000  0.000
       0.975  0.000  0.000  0.000 -0.221
       0.221 -0.000  0.000  0.000  0.975
     occupation matrix ns (before diag.):
       0.102 -0.000 -0.000  0.000 -0.000
      -0.000  0.064  0.000  0.000  0.000
      -0.000  0.000  0.064  0.000  0.000
       0.000  0.000  0.000  0.059 -0.020
      -0.000  0.000  0.000 -0.020  0.142
     ------------------------ ATOM   10 ------------------------
     Tr[ns( 10)] (up, down, total) =   4.86480  0.43101  5.29581
     Atomic magnetic moment for atom  10 =   4.43379
     SPIN  1
     eigenvalues:
       0.947  0.948  0.988  0.988  0.993
     eigenvectors (columns):
       0.000 -1.000  0.000  0.000  0.000
      -0.000 -0.000 -0.999 -0.037 -0.000
      -0.000 -0.000  0.037 -0.999 -0.000
      -0.251 -0.000  0.000  0.000 -0.968
       0.968  0.000  0.000  0.000 -0.251
     occupation matrix ns (before diag.):
       0.948 -0.000 -0.000 -0.000 -0.000
      -0.000  0.988  0.000  0.000  0.000
      -0.000  0.000  0.988  0.000  0.000
      -0.000  0.000  0.000  0.990  0.011
      -0.000  0.000  0.000  0.011  0.950
     SPIN  2
     eigenvalues:
       0.054  0.064  0.064  0.102  0.146
     eigenvectors (columns):
       0.000 -0.000 -0.000 -1.000  0.000
      -0.000 -0.980  0.199  0.000  0.000
      -0.000 -0.199 -0.980  0.000  0.000
       0.975 -0.000 -0.000  0.000 -0.221
       0.221 -0.000  0.000  0.000  0.975
     occupation matrix ns (before diag.):
       0.102 -0.000 -0.000 -0.000  0.000
      -0.000  0.064 -0.000  0.000  0.000
      -0.000 -0.000  0.064  0.000  0.000
      -0.000  0.000  0.000  0.059 -0.020
       0.000  0.000  0.000 -0.020  0.142
     ------------------------ ATOM   11 ------------------------
     Tr[ns( 11)] (up, down, total) =   4.86480  0.43101  5.29581
     Atomic magnetic moment for atom  11 =   4.43379
     SPIN  1
     eigenvalues:
       0.947  0.948  0.988  0.988  0.993
     eigenvectors (columns):
      -0.000  1.000 -0.000 -0.000 -0.000
      -0.000  0.000  0.037  0.999 -0.000
      -0.000  0.000  0.999 -0.037 -0.000
      -0.251 -0.000 -0.000 -0.000 -0.968
       0.968  0.000 -0.000 -0.000 -0.251
     occupation matrix ns (before diag.):
       0.948 -0.000 -0.000  0.000  0.000
      -0.000  0.988 -0.000  0.000  0.000
      -0.000 -0.000  0.988  0.000  0.000
       0.000  0.000  0.000  0.990  0.011
       0.000  0.000  0.000  0.011  0.950
     SPIN  2
     eigenvalues:
       0.054  0.064  0.064  0.102  0.146
     eigenvectors (columns):
      -0.000  0.000 -0.000  1.000 -0.000
      -0.000 -0.199 -0.980 -0.000  0.000
      -0.000  0.980 -0.199 -0.000  0.000
       0.975  0.000 -0.000  0.000 -0.221
       0.221 -0.000 -0.000  0.000  0.975
     occupation matrix ns (before diag.):
       0.102 -0.000 -0.000  0.000 -0.000
      -0.000  0.064  0.000  0.000  0.000
      -0.000  0.000  0.064  0.000  0.000
       0.000  0.000  0.000  0.059 -0.020
      -0.000  0.000  0.000 -0.020  0.142
     ------------------------ ATOM   12 ------------------------
     Tr[ns( 12)] (up, down, total) =   4.86480  0.43101  5.29580
     Atomic magnetic moment for atom  12 =   4.43379
     SPIN  1
     eigenvalues:
       0.947  0.948  0.988  0.988  0.993
     eigenvectors (columns):
       0.000 -1.000 -0.000 -0.000  0.000
      -0.000 -0.000  0.991 -0.131 -0.000
      -0.000 -0.000  0.131  0.991 -0.000
      -0.251 -0.000 -0.000 -0.000 -0.968
       0.968  0.000 -0.000 -0.000 -0.251
     occupation matrix ns (before diag.):
       0.948 -0.000 -0.000 -0.000 -0.000
      -0.000  0.988 -0.000  0.000  0.000
      -0.000 -0.000  0.988  0.000  0.000
      -0.000  0.000  0.000  0.990  0.011
      -0.000  0.000  0.000  0.011  0.950
     SPIN  2
     eigenvalues:
       0.054  0.064  0.064  0.102  0.146
     eigenvectors (columns):
       0.000 -0.000  0.000 -1.000  0.000
      -0.000 -0.834 -0.552  0.000  0.000
      -0.000 -0.552  0.834  0.000  0.000
       0.975 -0.000  0.000  0.000 -0.221
       0.221 -0.000 -0.000  0.000  0.975
     occupation matrix ns (before diag.):
       0.102 -0.000 -0.000 -0.000  0.000
      -0.000  0.064 -0.000  0.000  0.000
      -0.000 -0.000  0.064  0.000  0.000
      -0.000  0.000  0.000  0.059 -0.020
       0.000  0.000  0.000 -0.020  0.142
     ------------------------ ATOM   13 ------------------------
     Tr[ns( 13)] (up, down, total) =   1.04630  4.95897  6.00527
     Atomic magnetic moment for atom  13 =  -3.91267
     SPIN  1
     eigenvalues:
       0.112  0.194  0.194  0.251  0.295
     eigenvectors (columns):
      -0.000  0.000 -0.000  1.000 -0.000
      -0.000 -0.655 -0.756 -0.000  0.000
      -0.000  0.756 -0.655 -0.000  0.000
       0.960 -0.000 -0.000  0.000  0.280
      -0.280 -0.000  0.000  0.000  0.960
     occupation matrix ns (before diag.):
       0.251 -0.000 -0.000 -0.000 -0.000
      -0.000  0.194  0.000  0.000  0.000
      -0.000  0.000  0.194  0.000  0.000
      -0.000  0.000  0.000  0.126  0.049
      -0.000  0.000  0.000  0.049  0.280
     SPIN  2
     eigenvalues:
       0.981  0.988  0.996  0.996  0.997
     eigenvectors (columns):
      -1.000  0.000 -0.000  0.000 -0.000
      -0.000 -0.000 -0.216 -0.976 -0.000
      -0.000 -0.000  0.976 -0.216 -0.000
       0.000  0.202 -0.000  0.000 -0.979
       0.000  0.979  0.000 -0.000  0.202
     occupation matrix ns (before diag.):
       0.981 -0.000 -0.000  0.000  0.000
      -0.000  0.996  0.000  0.000  0.000
      -0.000  0.000  0.996  0.000  0.000
       0.000  0.000  0.000  0.997 -0.002
       0.000  0.000  0.000 -0.002  0.989
     ------------------------ ATOM   14 ------------------------
     Tr[ns( 14)] (up, down, total) =   1.04630  4.95897  6.00527
     Atomic magnetic moment for atom  14 =  -3.91267
     SPIN  1
     eigenvalues:
       0.112  0.194  0.194  0.251  0.295
     eigenvectors (columns):
      -0.000 -0.000 -0.000 -1.000  0.000
      -0.000 -0.875  0.485  0.000  0.000
      -0.000 -0.485 -0.875  0.000  0.000
       0.960 -0.000  0.000  0.000  0.280
      -0.280  0.000  0.000  0.000  0.960
     occupation matrix ns (before diag.):
       0.251 -0.000 -0.000  0.000  0.000
      -0.000  0.194 -0.000  0.000  0.000
      -0.000 -0.000  0.194  0.000  0.000
       0.000  0.000  0.000  0.126  0.049
       0.000  0.000  0.000  0.049  0.280
     SPIN  2
     eigenvalues:
       0.981  0.988  0.996  0.996  0.997
     eigenvectors (columns):
       1.000 -0.000 -0.000 -0.000  0.000
       0.000 -0.000  0.599  0.801 -0.000
       0.000 -0.000  0.801 -0.599 -0.000
       0.000  0.202 -0.000 -0.000 -0.979
       0.000  0.979  0.000 -0.000  0.202
     occupation matrix ns (before diag.):
       0.981 -0.000 -0.000 -0.000 -0.000
      -0.000  0.996 -0.000  0.000  0.000
      -0.000 -0.000  0.996  0.000  0.000
      -0.000  0.000  0.000  0.997 -0.002
      -0.000  0.000  0.000 -0.002  0.989
     ------------------------ ATOM   15 ------------------------
     Tr[ns( 15)] (up, down, total) =   1.04630  4.95897  6.00527
     Atomic magnetic moment for atom  15 =  -3.91267
     SPIN  1
     eigenvalues:
       0.112  0.194  0.194  0.251  0.295
     eigenvectors (columns):
       0.000  0.000 -0.000  1.000 -0.000
      -0.000 -0.485 -0.875 -0.000  0.000
      -0.000  0.875 -0.485 -0.000  0.000
       0.960 -0.000 -0.000  0.000  0.280
      -0.280 -0.000  0.000  0.000  0.960
     occupation matrix ns (before diag.):
       0.251 -0.000 -0.000 -0.000 -0.000
      -0.000  0.194  0.000  0.000  0.000
      -0.000  0.000  0.194  0.000  0.000
      -0.000  0.000  0.000  0.126  0.049
      -0.000  0.000  0.000  0.049  0.280
     SPIN  2
     eigenvalues:
       0.981  0.988  0.996  0.996  0.997
     eigenvectors (columns):
      -1.000  0.000  0.000  0.000 -0.000
      -0.000 -0.000 -0.801 -0.599 -0.000
      -0.000 -0.000  0.599 -0.801 -0.000
       0.000  0.202  0.000  0.000 -0.979
       0.000  0.979  0.000 -0.000  0.202
     occupation matrix ns (before diag.):
       0.981 -0.000 -0.000  0.000  0.000
      -0.000  0.996  0.000  0.000  0.000
      -0.000  0.000  0.996  0.000  0.000
       0.000  0.000  0.000  0.997 -0.002
       0.000  0.000  0.000 -0.002  0.989
     ------------------------ ATOM   16 ------------------------
     Tr[ns( 16)] (up, down, total) =   1.04630  4.95897  6.00527
     Atomic magnetic moment for atom  16 =  -3.91267
     SPIN  1
     eigenvalues:
       0.112  0.194  0.194  0.251  0.295
     eigenvectors (columns):
       0.000 -0.000 -0.000 -1.000  0.000
      -0.000 -0.756  0.655  0.000  0.000
      -0.000 -0.655 -0.756  0.000  0.000
       0.960 -0.000  0.000  0.000  0.280
      -0.280  0.000  0.000  0.000  0.960
     occupation matrix ns (before diag.):
       0.251 -0.000 -0.000  0.000  0.000
      -0.000  0.194 -0.000  0.000  0.000
      -0.000 -0.000  0.194  0.000  0.000
       0.000  0.000  0.000  0.126  0.049
       0.000  0.000  0.000  0.049  0.280
     SPIN  2
     eigenvalues:
       0.981  0.988  0.996  0.996  0.997
     eigenvectors (columns):
       1.000 -0.000 -0.000  0.000  0.000
       0.000 -0.000  0.976  0.216 -0.000
       0.000 -0.000  0.216 -0.976 -0.000
       0.000  0.202 -0.000  0.000 -0.979
       0.000  0.979  0.000 -0.000  0.202
     occupation matrix ns (before diag.):
       0.981 -0.000 -0.000 -0.000 -0.000
      -0.000  0.996 -0.000  0.000  0.000
      -0.000 -0.000  0.996  0.000  0.000
      -0.000  0.000  0.000  0.997 -0.002
      -0.000  0.000  0.000 -0.002  0.989

     Number of occupied Hubbard levels =   45.2043

     HUBBARD ENERGY =    0.4025  (Ry)

     total cpu time spent up to now is      249.5 secs

     total energy              =   -3089.21928310 Ry
     estimated scf accuracy    <       0.00124215 Ry

     total magnetization       =     0.00 Bohr mag/cell
     absolute magnetization    =    36.14 Bohr mag/cell

     iteration #  9     ecut=    90.00 Ry     beta= 0.30
     Davidson diagonalization with overlap

---- Real-time Memory Report at c_bands before calling an iterative solver
          1299 MiB given to the printing process from OS
           814 MiB allocation reported by mallinfo(arena+hblkhd)
        673526 MiB available memory on the node where the printing process lives
------------------
     ethr =  3.79E-07,  avg # of iterations =  2.9

     =================== HUBBARD OCCUPATIONS ===================
     ------------------------ ATOM    9 ------------------------
     Tr[ns(  9)] (up, down, total) =   4.86286  0.43019  5.29304
     Atomic magnetic moment for atom   9 =   4.43267
     SPIN  1
     eigenvalues:
       0.946  0.948  0.988  0.988  0.993
     eigenvectors (columns):
      -0.000  1.000 -0.000  0.000 -0.000
      -0.000  0.000  0.994 -0.106 -0.000
      -0.000  0.000 -0.106 -0.994 -0.000
      -0.251 -0.000 -0.000  0.000 -0.968
       0.968  0.000 -0.000  0.000 -0.251
     occupation matrix ns (before diag.):
       0.948 -0.000 -0.000  0.000  0.000
      -0.000  0.988  0.000  0.000  0.000
      -0.000  0.000  0.988  0.000  0.000
       0.000  0.000  0.000  0.990  0.011
       0.000  0.000  0.000  0.011  0.949
     SPIN  2
     eigenvalues:
       0.054  0.064  0.064  0.102  0.146
     eigenvectors (columns):
      -0.000  0.000  0.000  1.000 -0.000
      -0.000 -0.814  0.581 -0.000  0.000
      -0.000  0.581  0.814 -0.000  0.000
       0.975  0.000  0.000  0.000 -0.221
       0.221 -0.000  0.000  0.000  0.975
     occupation matrix ns (before diag.):
       0.102 -0.000 -0.000  0.000  0.000
      -0.000  0.064  0.000  0.000  0.000
      -0.000  0.000  0.064  0.000  0.000
       0.000  0.000  0.000  0.059 -0.020
       0.000  0.000  0.000 -0.020  0.142
     ------------------------ ATOM   10 ------------------------
     Tr[ns( 10)] (up, down, total) =   4.86286  0.43018  5.29304
     Atomic magnetic moment for atom  10 =   4.43268
     SPIN  1
     eigenvalues:
       0.946  0.948  0.988  0.988  0.993
     eigenvectors (columns):
       0.000 -1.000 -0.000  0.000  0.000
      -0.000 -0.000 -0.009 -1.000 -0.000
      -0.000 -0.000  1.000 -0.009 -0.000
      -0.251 -0.000 -0.000  0.000 -0.968
       0.968  0.000 -0.000  0.000 -0.251
     occupation matrix ns (before diag.):
       0.948 -0.000 -0.000 -0.000 -0.000
      -0.000  0.988  0.000  0.000  0.000
      -0.000  0.000  0.988  0.000  0.000
      -0.000  0.000  0.000  0.990  0.011
      -0.000  0.000  0.000  0.011  0.949
     SPIN  2
     eigenvalues:
       0.054  0.064  0.064  0.102  0.146
     eigenvectors (columns):
       0.000 -0.000  0.000 -1.000  0.000
      -0.000 -0.828 -0.561  0.000  0.000
      -0.000 -0.561  0.828  0.000  0.000
       0.975 -0.000  0.000  0.000 -0.221
       0.221 -0.000 -0.000  0.000  0.975
     occupation matrix ns (before diag.):
       0.102 -0.000 -0.000 -0.000  0.000
      -0.000  0.064 -0.000  0.000  0.000
      -0.000 -0.000  0.064  0.000  0.000
      -0.000  0.000  0.000  0.059 -0.020
       0.000  0.000  0.000 -0.020  0.142
     ------------------------ ATOM   11 ------------------------
     Tr[ns( 11)] (up, down, total) =   4.86286  0.43018  5.29304
     Atomic magnetic moment for atom  11 =   4.43268
     SPIN  1
     eigenvalues:
       0.946  0.948  0.988  0.988  0.993
     eigenvectors (columns):
      -0.000  1.000 -0.000  0.000 -0.000
      -0.000  0.000  1.000  0.009 -0.000
      -0.000  0.000  0.009 -1.000 -0.000
      -0.251 -0.000 -0.000  0.000 -0.968
       0.968  0.000 -0.000  0.000 -0.251
     occupation matrix ns (before diag.):
       0.948 -0.000 -0.000  0.000  0.000
      -0.000  0.988 -0.000  0.000  0.000
      -0.000 -0.000  0.988  0.000  0.000
       0.000  0.000  0.000  0.990  0.011
       0.000  0.000  0.000  0.011  0.949
     SPIN  2
     eigenvalues:
       0.054  0.064  0.064  0.102  0.146
     eigenvectors (columns):
      -0.000  0.000  0.000  1.000 -0.000
      -0.000 -0.561  0.828 -0.000  0.000
      -0.000  0.828  0.561 -0.000  0.000
       0.975  0.000  0.000  0.000 -0.221
       0.221 -0.000  0.000  0.000  0.975
     occupation matrix ns (before diag.):
       0.102 -0.000 -0.000  0.000 -0.000
      -0.000  0.064  0.000  0.000  0.000
      -0.000  0.000  0.064  0.000  0.000
       0.000  0.000  0.000  0.059 -0.020
      -0.000  0.000  0.000 -0.020  0.142
     ------------------------ ATOM   12 ------------------------
     Tr[ns( 12)] (up, down, total) =   4.86286  0.43019  5.29304
     Atomic magnetic moment for atom  12 =   4.43267
     SPIN  1
     eigenvalues:
       0.946  0.948  0.988  0.988  0.993
     eigenvectors (columns):
       0.000 -1.000 -0.000  0.000  0.000
      -0.000 -0.000  0.106 -0.994 -0.000
      -0.000 -0.000  0.994  0.106 -0.000
      -0.251 -0.000 -0.000  0.000 -0.968
       0.968  0.000 -0.000  0.000 -0.251
     occupation matrix ns (before diag.):
       0.948 -0.000 -0.000 -0.000 -0.000
      -0.000  0.988 -0.000  0.000  0.000
      -0.000 -0.000  0.988  0.000  0.000
      -0.000  0.000  0.000  0.990  0.011
      -0.000  0.000  0.000  0.011  0.949
     SPIN  2
     eigenvalues:
       0.054  0.064  0.064  0.102  0.146
     eigenvectors (columns):
       0.000 -0.000  0.000 -1.000  0.000
      -0.000 -0.581 -0.814  0.000  0.000
      -0.000 -0.814  0.581  0.000  0.000
       0.975 -0.000  0.000  0.000 -0.221
       0.221 -0.000 -0.000  0.000  0.975
     occupation matrix ns (before diag.):
       0.102 -0.000 -0.000 -0.000 -0.000
      -0.000  0.064 -0.000  0.000  0.000
      -0.000 -0.000  0.064  0.000  0.000
      -0.000  0.000  0.000  0.059 -0.020
      -0.000  0.000  0.000 -0.020  0.142
     ------------------------ ATOM   13 ------------------------
     Tr[ns( 13)] (up, down, total) =   1.05348  4.95936  6.01284
     Atomic magnetic moment for atom  13 =  -3.90587
     SPIN  1
     eigenvalues:
       0.113  0.196  0.196  0.252  0.296
     eigenvectors (columns):
       0.000 -0.000 -0.000 -1.000  0.000
      -0.000  0.746 -0.665  0.000  0.000
      -0.000 -0.665 -0.746  0.000  0.000
       0.960  0.000 -0.000  0.000  0.279
      -0.279  0.000  0.000  0.000  0.960
     occupation matrix ns (before diag.):
       0.252 -0.000 -0.000 -0.000  0.000
      -0.000  0.196  0.000  0.000  0.000
      -0.000  0.000  0.196  0.000  0.000
      -0.000  0.000  0.000  0.127  0.049
       0.000  0.000  0.000  0.049  0.282
     SPIN  2
     eigenvalues:
       0.981  0.988  0.996  0.996  0.997
     eigenvectors (columns):
       1.000 -0.000 -0.000  0.000 -0.000
       0.000 -0.000  0.999 -0.043 -0.000
       0.000 -0.000 -0.043 -0.999 -0.000
      -0.000  0.202 -0.000  0.000 -0.979
       0.000  0.979  0.000 -0.000  0.202
     occupation matrix ns (before diag.):
       0.981 -0.000 -0.000  0.000 -0.000
      -0.000  0.996  0.000  0.000  0.000
      -0.000  0.000  0.996  0.000  0.000
       0.000  0.000  0.000  0.997 -0.002
      -0.000  0.000  0.000 -0.002  0.989
     ------------------------ ATOM   14 ------------------------
     Tr[ns( 14)] (up, down, total) =   1.05348  4.95936  6.01283
     Atomic magnetic moment for atom  14 =  -3.90588
     SPIN  1
     eigenvalues:
       0.113  0.196  0.196  0.252  0.296
     eigenvectors (columns):
      -0.000 -0.000  0.000  1.000 -0.000
      -0.000 -0.825 -0.565 -0.000  0.000
      -0.000 -0.565  0.825 -0.000  0.000
       0.960 -0.000 -0.000  0.000  0.279
      -0.279  0.000 -0.000  0.000  0.960
     occupation matrix ns (before diag.):
       0.252 -0.000 -0.000  0.000 -0.000
      -0.000  0.196 -0.000  0.000  0.000
      -0.000 -0.000  0.196  0.000  0.000
       0.000  0.000  0.000  0.127  0.049
      -0.000  0.000  0.000  0.049  0.282
     SPIN  2
     eigenvalues:
       0.981  0.988  0.996  0.996  0.997
     eigenvectors (columns):
      -1.000  0.000 -0.000 -0.000  0.000
      -0.000 -0.000  0.612 -0.791 -0.000
      -0.000 -0.000  0.791  0.612 -0.000
      -0.000  0.202 -0.000  0.000 -0.979
       0.000  0.979  0.000  0.000  0.202
     occupation matrix ns (before diag.):
       0.981 -0.000 -0.000 -0.000  0.000
      -0.000  0.996 -0.000  0.000  0.000
      -0.000 -0.000  0.996  0.000  0.000
      -0.000  0.000  0.000  0.997 -0.002
       0.000  0.000  0.000 -0.002  0.989
     ------------------------ ATOM   15 ------------------------
     Tr[ns( 15)] (up, down, total) =   1.05348  4.95936  6.01283
     Atomic magnetic moment for atom  15 =  -3.90588
     SPIN  1
     eigenvalues:
       0.113  0.196  0.196  0.252  0.296
     eigenvectors (columns):
       0.000 -0.000 -0.000 -1.000  0.000
      -0.000  0.565 -0.825  0.000  0.000
      -0.000 -0.825 -0.565  0.000  0.000
       0.960  0.000 -0.000  0.000  0.279
      -0.279  0.000  0.000  0.000  0.960
     occupation matrix ns (before diag.):
       0.252 -0.000 -0.000 -0.000  0.000
      -0.000  0.196  0.000  0.000  0.000
      -0.000  0.000  0.196  0.000  0.000
      -0.000  0.000  0.000  0.127  0.049
       0.000  0.000  0.000  0.049  0.282
     SPIN  2
     eigenvalues:
       0.981  0.988  0.996  0.996  0.997
     eigenvectors (columns):
       1.000 -0.000  0.000  0.000 -0.000
       0.000 -0.000  0.791 -0.612 -0.000
       0.000 -0.000 -0.612 -0.791 -0.000
      -0.000  0.202 -0.000  0.000 -0.979
       0.000  0.979 -0.000 -0.000  0.202
     occupation matrix ns (before diag.):
       0.981 -0.000 -0.000  0.000 -0.000
      -0.000  0.996  0.000  0.000  0.000
      -0.000  0.000  0.996  0.000  0.000
       0.000  0.000  0.000  0.997 -0.002
      -0.000  0.000  0.000 -0.002  0.989
     ------------------------ ATOM   16 ------------------------
     Tr[ns( 16)] (up, down, total) =   1.05348  4.95936  6.01284
     Atomic magnetic moment for atom  16 =  -3.90587
     SPIN  1
     eigenvalues:
       0.113  0.196  0.196  0.252  0.296
     eigenvectors (columns):
      -0.000 -0.000  0.000  1.000 -0.000
      -0.000 -0.665 -0.746 -0.000  0.000
      -0.000 -0.746  0.665 -0.000  0.000
       0.960 -0.000 -0.000  0.000  0.279
      -0.279  0.000 -0.000  0.000  0.960
     occupation matrix ns (before diag.):
       0.252 -0.000 -0.000  0.000 -0.000
      -0.000  0.196 -0.000  0.000  0.000
      -0.000 -0.000  0.196  0.000  0.000
       0.000  0.000  0.000  0.127  0.049
      -0.000  0.000  0.000  0.049  0.282
     SPIN  2
     eigenvalues:
       0.981  0.988  0.996  0.996  0.997
     eigenvectors (columns):
      -1.000  0.000 -0.000  0.000  0.000
      -0.000 -0.000  0.043 -0.999 -0.000
      -0.000 -0.000  0.999  0.043 -0.000
      -0.000  0.202 -0.000  0.000 -0.979
       0.000  0.979  0.000 -0.000  0.202
     occupation matrix ns (before diag.):
       0.981 -0.000 -0.000 -0.000  0.000
      -0.000  0.996 -0.000  0.000  0.000
      -0.000 -0.000  0.996  0.000  0.000
      -0.000  0.000  0.000  0.997 -0.002
       0.000  0.000  0.000 -0.002  0.989

     Number of occupied Hubbard levels =   45.2235

     HUBBARD ENERGY =    0.4034  (Ry)

     total cpu time spent up to now is      278.5 secs

     total energy              =   -3089.21938108 Ry
     estimated scf accuracy    <       0.00020575 Ry

     total magnetization       =     0.00 Bohr mag/cell
     absolute magnetization    =    36.13 Bohr mag/cell

     iteration # 10     ecut=    90.00 Ry     beta= 0.30
     Davidson diagonalization with overlap

---- Real-time Memory Report at c_bands before calling an iterative solver
          1311 MiB given to the printing process from OS
           826 MiB allocation reported by mallinfo(arena+hblkhd)
        673714 MiB available memory on the node where the printing process lives
------------------
     ethr =  6.27E-08,  avg # of iterations =  2.4

     =================== HUBBARD OCCUPATIONS ===================
     ------------------------ ATOM    9 ------------------------
     Tr[ns(  9)] (up, down, total) =   4.86282  0.42843  5.29125
     Atomic magnetic moment for atom   9 =   4.43439
     SPIN  1
     eigenvalues:
       0.946  0.948  0.988  0.988  0.993
     eigenvectors (columns):
       0.000 -1.000  0.000  0.000 -0.000
      -0.000 -0.000 -0.966 -0.259 -0.000
      -0.000 -0.000  0.259 -0.966 -0.000
      -0.251 -0.000  0.000  0.000 -0.968
       0.968  0.000  0.000  0.000 -0.251
     occupation matrix ns (before diag.):
       0.948 -0.000 -0.000  0.000 -0.000
      -0.000  0.988  0.000  0.000  0.000
      -0.000  0.000  0.988  0.000  0.000
       0.000  0.000  0.000  0.990  0.011
      -0.000  0.000  0.000  0.011  0.949
     SPIN  2
     eigenvalues:
       0.054  0.063  0.063  0.102  0.146
     eigenvectors (columns):
       0.000 -0.000 -0.000 -1.000  0.000
      -0.000 -0.989  0.145  0.000  0.000
      -0.000 -0.145 -0.989  0.000  0.000
       0.975 -0.000 -0.000 -0.000 -0.221
       0.221 -0.000  0.000  0.000  0.975
     occupation matrix ns (before diag.):
       0.102 -0.000 -0.000 -0.000  0.000
      -0.000  0.063 -0.000  0.000  0.000
      -0.000 -0.000  0.063  0.000  0.000
      -0.000  0.000  0.000  0.058 -0.020
       0.000  0.000  0.000 -0.020  0.141
     ------------------------ ATOM   10 ------------------------
     Tr[ns( 10)] (up, down, total) =   4.86282  0.42843  5.29125
     Atomic magnetic moment for atom  10 =   4.43439
     SPIN  1
     eigenvalues:
       0.946  0.948  0.988  0.988  0.993
     eigenvectors (columns):
      -0.000  1.000 -0.000 -0.000  0.000
      -0.000  0.000  0.051  0.999 -0.000
      -0.000  0.000  0.999 -0.051 -0.000
      -0.251 -0.000 -0.000 -0.000 -0.968
       0.968  0.000 -0.000 -0.000 -0.251
     occupation matrix ns (before diag.):
       0.948 -0.000 -0.000 -0.000  0.000
      -0.000  0.988 -0.000  0.000  0.000
      -0.000 -0.000  0.988  0.000  0.000
      -0.000  0.000  0.000  0.990  0.011
       0.000  0.000  0.000  0.011  0.949
     SPIN  2
     eigenvalues:
       0.054  0.063  0.063  0.102  0.146
     eigenvectors (columns):
       0.000  0.000  0.000  1.000 -0.000
      -0.000 -0.757  0.653 -0.000  0.000
      -0.000  0.653  0.757 -0.000  0.000
       0.975  0.000  0.000 -0.000 -0.221
       0.221 -0.000  0.000  0.000  0.975
     occupation matrix ns (before diag.):
       0.102 -0.000 -0.000 -0.000 -0.000
      -0.000  0.063  0.000  0.000  0.000
      -0.000  0.000  0.063  0.000  0.000
      -0.000  0.000  0.000  0.058 -0.020
      -0.000  0.000  0.000 -0.020  0.141
     ------------------------ ATOM   11 ------------------------
     Tr[ns( 11)] (up, down, total) =   4.86282  0.42843  5.29125
     Atomic magnetic moment for atom  11 =   4.43439
     SPIN  1
     eigenvalues:
       0.946  0.948  0.988  0.988  0.993
     eigenvectors (columns):
       0.000 -1.000  0.000  0.000 -0.000
      -0.000 -0.000 -0.999 -0.051 -0.000
      -0.000 -0.000  0.051 -0.999 -0.000
      -0.251 -0.000  0.000  0.000 -0.968
       0.968  0.000  0.000  0.000 -0.251
     occupation matrix ns (before diag.):
       0.948 -0.000 -0.000  0.000 -0.000
      -0.000  0.988  0.000  0.000  0.000
      -0.000  0.000  0.988  0.000  0.000
       0.000  0.000  0.000  0.990  0.011
      -0.000  0.000  0.000  0.011  0.949
     SPIN  2
     eigenvalues:
       0.054  0.063  0.063  0.102  0.146
     eigenvectors (columns):
      -0.000 -0.000  0.000 -1.000  0.000
      -0.000 -0.653 -0.757  0.000  0.000
      -0.000 -0.757  0.653  0.000  0.000
       0.975 -0.000  0.000 -0.000 -0.221
       0.221 -0.000 -0.000  0.000  0.975
     occupation matrix ns (before diag.):
       0.102 -0.000 -0.000  0.000  0.000
      -0.000  0.063 -0.000  0.000  0.000
      -0.000 -0.000  0.063  0.000  0.000
       0.000  0.000  0.000  0.058 -0.020
       0.000  0.000  0.000 -0.020  0.141
     ------------------------ ATOM   12 ------------------------
     Tr[ns( 12)] (up, down, total) =   4.86282  0.42843  5.29125
     Atomic magnetic moment for atom  12 =   4.43439
     SPIN  1
     eigenvalues:
       0.946  0.948  0.988  0.988  0.993
     eigenvectors (columns):
      -0.000  1.000 -0.000 -0.000  0.000
      -0.000  0.000  0.259  0.966 -0.000
      -0.000  0.000  0.966 -0.259 -0.000
      -0.251 -0.000 -0.000 -0.000 -0.968
       0.968  0.000 -0.000 -0.000 -0.251
     occupation matrix ns (before diag.):
       0.948 -0.000 -0.000 -0.000  0.000
      -0.000  0.988 -0.000  0.000  0.000
      -0.000 -0.000  0.988  0.000  0.000
      -0.000  0.000  0.000  0.990  0.011
       0.000  0.000  0.000  0.011  0.949
     SPIN  2
     eigenvalues:
       0.054  0.063  0.063  0.102  0.146
     eigenvectors (columns):
      -0.000  0.000 -0.000  1.000 -0.000
      -0.000 -0.145 -0.989 -0.000  0.000
      -0.000  0.989 -0.145 -0.000  0.000
       0.975  0.000 -0.000 -0.000 -0.221
       0.221 -0.000 -0.000  0.000  0.975
     occupation matrix ns (before diag.):
       0.102 -0.000 -0.000  0.000 -0.000
      -0.000  0.063  0.000  0.000  0.000
      -0.000  0.000  0.063  0.000  0.000
       0.000  0.000  0.000  0.058 -0.020
      -0.000  0.000  0.000 -0.020  0.141
     ------------------------ ATOM   13 ------------------------
     Tr[ns( 13)] (up, down, total) =   1.04906  4.95945  6.00851
     Atomic magnetic moment for atom  13 =  -3.91038
     SPIN  1
     eigenvalues:
       0.113  0.195  0.195  0.251  0.295
     eigenvectors (columns):
       0.000  0.000 -0.000 -1.000  0.000
      -0.000  0.896 -0.444  0.000  0.000
      -0.000 -0.444 -0.896  0.000  0.000
       0.960  0.000 -0.000  0.000  0.279
      -0.279  0.000  0.000  0.000  0.960
     occupation matrix ns (before diag.):
       0.251 -0.000 -0.000 -0.000  0.000
      -0.000  0.195  0.000  0.000  0.000
      -0.000  0.000  0.195  0.000  0.000
      -0.000  0.000  0.000  0.127  0.049
       0.000  0.000  0.000  0.049  0.281
     SPIN  2
     eigenvalues:
       0.981  0.988  0.996  0.996  0.997
     eigenvectors (columns):
       1.000 -0.000  0.000  0.000 -0.000
       0.000 -0.000  0.308 -0.951 -0.000
       0.000 -0.000 -0.951 -0.308 -0.000
       0.000  0.202  0.000  0.000 -0.979
       0.000  0.979 -0.000 -0.000  0.202
     occupation matrix ns (before diag.):
       0.981 -0.000 -0.000  0.000 -0.000
      -0.000  0.996  0.000  0.000  0.000
      -0.000  0.000  0.996  0.000  0.000
       0.000  0.000  0.000  0.997 -0.002
      -0.000  0.000  0.000 -0.002  0.989
     ------------------------ ATOM   14 ------------------------
     Tr[ns( 14)] (up, down, total) =   1.04907  4.95945  6.00851
     Atomic magnetic moment for atom  14 =  -3.91038
     SPIN  1
     eigenvalues:
       0.113  0.195  0.195  0.251  0.295
     eigenvectors (columns):
       0.000 -0.000 -0.000  1.000 -0.000
      -0.000  0.125 -0.992 -0.000  0.000
      -0.000 -0.992 -0.125 -0.000  0.000
       0.960 -0.000 -0.000  0.000  0.279
      -0.279  0.000  0.000  0.000  0.960
     occupation matrix ns (before diag.):
       0.251 -0.000 -0.000 -0.000 -0.000
      -0.000  0.195  0.000  0.000  0.000
      -0.000  0.000  0.195  0.000  0.000
      -0.000  0.000  0.000  0.127  0.049
      -0.000  0.000  0.000  0.049  0.281
     SPIN  2
     eigenvalues:
       0.981  0.988  0.996  0.996  0.997
     eigenvectors (columns):
      -1.000  0.000 -0.000 -0.000  0.000
      -0.000 -0.000  0.788 -0.616 -0.000
      -0.000 -0.000  0.616  0.788 -0.000
       0.000  0.202 -0.000 -0.000 -0.979
       0.000  0.979  0.000  0.000  0.202
     occupation matrix ns (before diag.):
       0.981 -0.000 -0.000  0.000  0.000
      -0.000  0.996 -0.000  0.000  0.000
      -0.000 -0.000  0.996  0.000  0.000
       0.000  0.000  0.000  0.997 -0.002
       0.000  0.000  0.000 -0.002  0.989
     ------------------------ ATOM   15 ------------------------
     Tr[ns( 15)] (up, down, total) =   1.04907  4.95945  6.00851
     Atomic magnetic moment for atom  15 =  -3.91038
     SPIN  1
     eigenvalues:
       0.113  0.195  0.195  0.251  0.295
     eigenvectors (columns):
      -0.000  0.000 -0.000 -1.000  0.000
      -0.000  0.992  0.125  0.000  0.000
      -0.000  0.125 -0.992  0.000  0.000
       0.960  0.000 -0.000  0.000  0.279
      -0.279 -0.000  0.000  0.000  0.960
     occupation matrix ns (before diag.):
       0.251 -0.000 -0.000  0.000  0.000
      -0.000  0.195 -0.000  0.000  0.000
      -0.000 -0.000  0.195  0.000  0.000
       0.000  0.000  0.000  0.127  0.049
       0.000  0.000  0.000  0.049  0.281
     SPIN  2
     eigenvalues:
       0.981  0.988  0.996  0.996  0.997
     eigenvectors (columns):
       1.000 -0.000  0.000  0.000 -0.000
       0.000 -0.000  0.616 -0.788 -0.000
       0.000 -0.000 -0.788 -0.616 -0.000
       0.000  0.202  0.000  0.000 -0.979
       0.000  0.979 -0.000 -0.000  0.202
     occupation matrix ns (before diag.):
       0.981 -0.000 -0.000 -0.000 -0.000
      -0.000  0.996  0.000  0.000  0.000
      -0.000  0.000  0.996  0.000  0.000
      -0.000  0.000  0.000  0.997 -0.002
      -0.000  0.000  0.000 -0.002  0.989
     ------------------------ ATOM   16 ------------------------
     Tr[ns( 16)] (up, down, total) =   1.04906  4.95945  6.00851
     Atomic magnetic moment for atom  16 =  -3.91038
     SPIN  1
     eigenvalues:
       0.113  0.195  0.195  0.251  0.295
     eigenvectors (columns):
      -0.000 -0.000 -0.000  1.000 -0.000
      -0.000 -0.444 -0.896 -0.000  0.000
      -0.000 -0.896  0.444 -0.000  0.000
       0.960 -0.000 -0.000  0.000  0.279
      -0.279  0.000 -0.000  0.000  0.960
     occupation matrix ns (before diag.):
       0.251 -0.000 -0.000  0.000 -0.000
      -0.000  0.195 -0.000  0.000  0.000
      -0.000 -0.000  0.195  0.000  0.000
       0.000  0.000  0.000  0.127  0.049
      -0.000  0.000  0.000  0.049  0.281
     SPIN  2
     eigenvalues:
       0.981  0.988  0.996  0.996  0.997
     eigenvectors (columns):
      -1.000  0.000 -0.000 -0.000  0.000
      -0.000 -0.000  0.951 -0.308 -0.000
      -0.000 -0.000  0.308  0.951 -0.000
       0.000  0.202 -0.000 -0.000 -0.979
       0.000  0.979  0.000  0.000  0.202
     occupation matrix ns (before diag.):
       0.981 -0.000 -0.000 -0.000  0.000
      -0.000  0.996 -0.000  0.000  0.000
      -0.000 -0.000  0.996  0.000  0.000
      -0.000  0.000  0.000  0.997 -0.002
       0.000  0.000  0.000 -0.002  0.989

     Number of occupied Hubbard levels =   45.1991

     HUBBARD ENERGY =    0.4026  (Ry)

     total cpu time spent up to now is      307.8 secs

     total energy              =   -3089.21938412 Ry
     estimated scf accuracy    <       0.00021799 Ry

     total magnetization       =    -0.00 Bohr mag/cell
     absolute magnetization    =    36.14 Bohr mag/cell

     iteration # 11     ecut=    90.00 Ry     beta= 0.30
     Davidson diagonalization with overlap

---- Real-time Memory Report at c_bands before calling an iterative solver
          1323 MiB given to the printing process from OS
           826 MiB allocation reported by mallinfo(arena+hblkhd)
        673586 MiB available memory on the node where the printing process lives
------------------
     ethr =  6.27E-08,  avg # of iterations =  2.2

     =================== HUBBARD OCCUPATIONS ===================
     ------------------------ ATOM    9 ------------------------
     Tr[ns(  9)] (up, down, total) =   4.86272  0.42874  5.29145
     Atomic magnetic moment for atom   9 =   4.43398
     SPIN  1
     eigenvalues:
       0.946  0.948  0.988  0.988  0.993
     eigenvectors (columns):
       0.000 -1.000  0.000  0.000  0.000
      -0.000 -0.000 -0.998  0.066 -0.000
      -0.000 -0.000 -0.066 -0.998 -0.000
      -0.251 -0.000  0.000  0.000 -0.968
       0.968  0.000  0.000  0.000 -0.251
     occupation matrix ns (before diag.):
       0.948 -0.000 -0.000  0.000 -0.000
      -0.000  0.988 -0.000  0.000  0.000
      -0.000 -0.000  0.988  0.000  0.000
       0.000  0.000  0.000  0.990  0.011
      -0.000  0.000  0.000  0.011  0.949
     SPIN  2
     eigenvalues:
       0.054  0.064  0.064  0.102  0.146
     eigenvectors (columns):
       0.000 -0.000 -0.000 -1.000  0.000
      -0.000 -0.930 -0.368  0.000  0.000
      -0.000  0.368 -0.930  0.000  0.000
       0.975 -0.000 -0.000  0.000 -0.221
       0.221 -0.000 -0.000  0.000  0.975
     occupation matrix ns (before diag.):
       0.102 -0.000 -0.000 -0.000  0.000
      -0.000  0.064  0.000  0.000  0.000
      -0.000  0.000  0.064  0.000  0.000
      -0.000  0.000  0.000  0.058 -0.020
       0.000  0.000  0.000 -0.020  0.141
     ------------------------ ATOM   10 ------------------------
     Tr[ns( 10)] (up, down, total) =   4.86272  0.42874  5.29146
     Atomic magnetic moment for atom  10 =   4.43397
     SPIN  1
     eigenvalues:
       0.946  0.948  0.988  0.988  0.993
     eigenvectors (columns):
      -0.000  1.000 -0.000 -0.000 -0.000
      -0.000  0.000 -0.042  0.999 -0.000
      -0.000  0.000  0.999  0.042 -0.000
      -0.251 -0.000 -0.000 -0.000 -0.968
       0.968  0.000 -0.000 -0.000 -0.251
     occupation matrix ns (before diag.):
       0.948 -0.000 -0.000  0.000  0.000
      -0.000  0.988  0.000  0.000  0.000
      -0.000  0.000  0.988  0.000  0.000
       0.000  0.000  0.000  0.990  0.011
       0.000  0.000  0.000  0.011  0.949
     SPIN  2
     eigenvalues:
       0.054  0.064  0.064  0.102  0.146
     eigenvectors (columns):
       0.000  0.000  0.000  1.000 -0.000
      -0.000 -0.722  0.692 -0.000  0.000
      -0.000  0.692  0.722 -0.000  0.000
       0.975  0.000  0.000 -0.000 -0.221
       0.221 -0.000  0.000  0.000  0.975
     occupation matrix ns (before diag.):
       0.102 -0.000 -0.000 -0.000 -0.000
      -0.000  0.064  0.000  0.000  0.000
      -0.000  0.000  0.064  0.000  0.000
      -0.000  0.000  0.000  0.058 -0.020
      -0.000  0.000  0.000 -0.020  0.141
     ------------------------ ATOM   11 ------------------------
     Tr[ns( 11)] (up, down, total) =   4.86272  0.42874  5.29146
     Atomic magnetic moment for atom  11 =   4.43397
     SPIN  1
     eigenvalues:
       0.946  0.948  0.988  0.988  0.993
     eigenvectors (columns):
       0.000 -1.000  0.000  0.000  0.000
      -0.000 -0.000 -0.999  0.042 -0.000
      -0.000 -0.000 -0.042 -0.999 -0.000
      -0.251 -0.000  0.000  0.000 -0.968
       0.968  0.000  0.000  0.000 -0.251
     occupation matrix ns (before diag.):
       0.948 -0.000 -0.000 -0.000 -0.000
      -0.000  0.988 -0.000  0.000  0.000
      -0.000 -0.000  0.988  0.000  0.000
      -0.000  0.000  0.000  0.990  0.011
      -0.000  0.000  0.000  0.011  0.949
     SPIN  2
     eigenvalues:
       0.054  0.064  0.064  0.102  0.146
     eigenvectors (columns):
      -0.000 -0.000  0.000 -1.000  0.000
      -0.000 -0.692 -0.722  0.000  0.000
      -0.000 -0.722  0.692  0.000  0.000
       0.975 -0.000  0.000 -0.000 -0.221
       0.221 -0.000 -0.000  0.000  0.975
     occupation matrix ns (before diag.):
       0.102 -0.000 -0.000  0.000  0.000
      -0.000  0.064 -0.000  0.000  0.000
      -0.000 -0.000  0.064  0.000  0.000
       0.000  0.000  0.000  0.058 -0.020
       0.000  0.000  0.000 -0.020  0.141
     ------------------------ ATOM   12 ------------------------
     Tr[ns( 12)] (up, down, total) =   4.86272  0.42874  5.29145
     Atomic magnetic moment for atom  12 =   4.43398
     SPIN  1
     eigenvalues:
       0.946  0.948  0.988  0.988  0.993
     eigenvectors (columns):
      -0.000  1.000 -0.000 -0.000 -0.000
      -0.000  0.000 -0.066  0.998 -0.000
      -0.000  0.000  0.998  0.066 -0.000
      -0.251 -0.000 -0.000 -0.000 -0.968
       0.968  0.000 -0.000 -0.000 -0.251
     occupation matrix ns (before diag.):
       0.948 -0.000 -0.000 -0.000  0.000
      -0.000  0.988  0.000  0.000  0.000
      -0.000  0.000  0.988  0.000  0.000
      -0.000  0.000  0.000  0.990  0.011
       0.000  0.000  0.000  0.011  0.949
     SPIN  2
     eigenvalues:
       0.054  0.064  0.064  0.102  0.146
     eigenvectors (columns):
      -0.000  0.000 -0.000  1.000 -0.000
      -0.000  0.368 -0.930 -0.000  0.000
      -0.000  0.930  0.368 -0.000  0.000
       0.975  0.000 -0.000  0.000 -0.221
       0.221  0.000 -0.000  0.000  0.975
     occupation matrix ns (before diag.):
       0.102 -0.000 -0.000  0.000 -0.000
      -0.000  0.064 -0.000  0.000  0.000
      -0.000 -0.000  0.064  0.000  0.000
       0.000  0.000  0.000  0.058 -0.020
      -0.000  0.000  0.000 -0.020  0.141
     ------------------------ ATOM   13 ------------------------
     Tr[ns( 13)] (up, down, total) =   1.05085  4.95949  6.01035
     Atomic magnetic moment for atom  13 =  -3.90864
     SPIN  1
     eigenvalues:
       0.113  0.195  0.195  0.252  0.296
     eigenvectors (columns):
       0.000 -0.000 -0.000 -1.000  0.000
      -0.000  0.639 -0.769  0.000  0.000
      -0.000 -0.769 -0.639  0.000  0.000
       0.960  0.000 -0.000  0.000  0.279
      -0.279  0.000  0.000  0.000  0.960
     occupation matrix ns (before diag.):
       0.252 -0.000 -0.000 -0.000  0.000
      -0.000  0.195  0.000  0.000  0.000
      -0.000  0.000  0.195  0.000  0.000
      -0.000  0.000  0.000  0.127  0.049
       0.000  0.000  0.000  0.049  0.281
     SPIN  2
     eigenvalues:
       0.981  0.988  0.996  0.996  0.997
     eigenvectors (columns):
       1.000 -0.000 -0.000 -0.000 -0.000
       0.000 -0.000 -0.094  0.996 -0.000
       0.000 -0.000  0.996  0.094 -0.000
       0.000  0.202 -0.000 -0.000 -0.979
       0.000  0.979  0.000  0.000  0.202
     occupation matrix ns (before diag.):
       0.981 -0.000 -0.000  0.000 -0.000
      -0.000  0.996  0.000  0.000  0.000
      -0.000  0.000  0.996  0.000  0.000
       0.000  0.000  0.000  0.997 -0.002
      -0.000  0.000  0.000 -0.002  0.989
     ------------------------ ATOM   14 ------------------------
     Tr[ns( 14)] (up, down, total) =   1.05086  4.95949  6.01035
     Atomic magnetic moment for atom  14 =  -3.90863
     SPIN  1
     eigenvalues:
       0.113  0.195  0.195  0.252  0.296
     eigenvectors (columns):
       0.000  0.000 -0.000  1.000 -0.000
      -0.000 -0.508 -0.861 -0.000  0.000
      -0.000  0.861 -0.508 -0.000  0.000
       0.960 -0.000 -0.000  0.000  0.279
      -0.279 -0.000  0.000  0.000  0.960
     occupation matrix ns (before diag.):
       0.252 -0.000 -0.000 -0.000 -0.000
      -0.000  0.195  0.000  0.000  0.000
      -0.000  0.000  0.195  0.000  0.000
      -0.000  0.000  0.000  0.127  0.049
      -0.000  0.000  0.000  0.049  0.281
     SPIN  2
     eigenvalues:
       0.981  0.988  0.996  0.996  0.997
     eigenvectors (columns):
      -1.000  0.000 -0.000 -0.000  0.000
      -0.000 -0.000  0.841 -0.542 -0.000
      -0.000 -0.000  0.542  0.841 -0.000
       0.000  0.202 -0.000 -0.000 -0.979
       0.000  0.979  0.000  0.000  0.202
     occupation matrix ns (before diag.):
       0.981 -0.000 -0.000  0.000  0.000
      -0.000  0.996 -0.000  0.000  0.000
      -0.000 -0.000  0.996  0.000  0.000
       0.000  0.000  0.000  0.997 -0.002
       0.000  0.000  0.000 -0.002  0.989
     ------------------------ ATOM   15 ------------------------
     Tr[ns( 15)] (up, down, total) =   1.05086  4.95949  6.01035
     Atomic magnetic moment for atom  15 =  -3.90863
     SPIN  1
     eigenvalues:
       0.113  0.195  0.195  0.252  0.296
     eigenvectors (columns):
      -0.000 -0.000 -0.000 -1.000  0.000
      -0.000 -0.861  0.508  0.000  0.000
      -0.000 -0.508 -0.861  0.000  0.000
       0.960 -0.000  0.000  0.000  0.279
      -0.279  0.000  0.000  0.000  0.960
     occupation matrix ns (before diag.):
       0.252 -0.000 -0.000  0.000  0.000
      -0.000  0.195 -0.000  0.000  0.000
      -0.000 -0.000  0.195  0.000  0.000
       0.000  0.000  0.000  0.127  0.049
       0.000  0.000  0.000  0.049  0.281
     SPIN  2
     eigenvalues:
       0.981  0.988  0.996  0.996  0.997
     eigenvectors (columns):
       1.000 -0.000  0.000  0.000 -0.000
       0.000 -0.000  0.542 -0.841 -0.000
       0.000 -0.000 -0.841 -0.542 -0.000
       0.000  0.202  0.000  0.000 -0.979
       0.000  0.979 -0.000 -0.000  0.202
     occupation matrix ns (before diag.):
       0.981 -0.000 -0.000 -0.000 -0.000
      -0.000  0.996  0.000  0.000  0.000
      -0.000  0.000  0.996  0.000  0.000
      -0.000  0.000  0.000  0.997 -0.002
      -0.000  0.000  0.000 -0.002  0.989
     ------------------------ ATOM   16 ------------------------
     Tr[ns( 16)] (up, down, total) =   1.05085  4.95949  6.01035
     Atomic magnetic moment for atom  16 =  -3.90864
     SPIN  1
     eigenvalues:
       0.113  0.195  0.195  0.252  0.296
     eigenvectors (columns):
      -0.000 -0.000  0.000  1.000 -0.000
      -0.000 -0.769 -0.639 -0.000  0.000
      -0.000 -0.639  0.769 -0.000  0.000
       0.960 -0.000 -0.000  0.000  0.279
      -0.279  0.000 -0.000  0.000  0.960
     occupation matrix ns (before diag.):
       0.252 -0.000 -0.000  0.000 -0.000
      -0.000  0.195 -0.000  0.000  0.000
      -0.000 -0.000  0.195  0.000  0.000
       0.000  0.000  0.000  0.127  0.049
      -0.000  0.000  0.000  0.049  0.281
     SPIN  2
     eigenvalues:
       0.981  0.988  0.996  0.996  0.997
     eigenvectors (columns):
      -1.000  0.000  0.000  0.000  0.000
      -0.000 -0.000 -0.996  0.094 -0.000
      -0.000 -0.000 -0.094 -0.996 -0.000
       0.000  0.202  0.000  0.000 -0.979
       0.000  0.979 -0.000 -0.000  0.202
     occupation matrix ns (before diag.):
       0.981 -0.000 -0.000 -0.000  0.000
      -0.000  0.996 -0.000  0.000  0.000
      -0.000 -0.000  0.996  0.000  0.000
      -0.000  0.000  0.000  0.997 -0.002
       0.000  0.000  0.000 -0.002  0.989

     Number of occupied Hubbard levels =   45.2072

     HUBBARD ENERGY =    0.4024  (Ry)

     total cpu time spent up to now is      333.0 secs

     total energy              =   -3089.21938356 Ry
     estimated scf accuracy    <       0.00006661 Ry

     total magnetization       =    -0.00 Bohr mag/cell
     absolute magnetization    =    36.14 Bohr mag/cell

     iteration # 12     ecut=    90.00 Ry     beta= 0.30
     Davidson diagonalization with overlap

---- Real-time Memory Report at c_bands before calling an iterative solver
          1323 MiB given to the printing process from OS
           826 MiB allocation reported by mallinfo(arena+hblkhd)
        673506 MiB available memory on the node where the printing process lives
------------------
     ethr =  2.03E-08,  avg # of iterations =  2.0

     =================== HUBBARD OCCUPATIONS ===================
     ------------------------ ATOM    9 ------------------------
     Tr[ns(  9)] (up, down, total) =   4.86269  0.42939  5.29208
     Atomic magnetic moment for atom   9 =   4.43329
     SPIN  1
     eigenvalues:
       0.946  0.948  0.988  0.988  0.993
     eigenvectors (columns):
      -0.000  1.000 -0.000  0.000  0.000
      -0.000  0.000  0.772  0.636 -0.000
      -0.000  0.000  0.636 -0.772 -0.000
      -0.251 -0.000 -0.000  0.000 -0.968
       0.968  0.000 -0.000  0.000 -0.251
     occupation matrix ns (before diag.):
       0.948 -0.000 -0.000 -0.000  0.000
      -0.000  0.988 -0.000  0.000  0.000
      -0.000 -0.000  0.988  0.000  0.000
      -0.000  0.000  0.000  0.990  0.011
       0.000  0.000  0.000  0.011  0.949
     SPIN  2
     eigenvalues:
       0.054  0.064  0.064  0.102  0.146
     eigenvectors (columns):
      -0.000 -0.000 -0.000 -1.000  0.000
      -0.000 -0.986 -0.169  0.000  0.000
      -0.000  0.169 -0.986  0.000  0.000
       0.975 -0.000 -0.000 -0.000 -0.221
       0.221 -0.000  0.000  0.000  0.975
     occupation matrix ns (before diag.):
       0.102 -0.000 -0.000  0.000  0.000
      -0.000  0.064  0.000  0.000  0.000
      -0.000  0.000  0.064  0.000  0.000
       0.000  0.000  0.000  0.059 -0.020
       0.000  0.000  0.000 -0.020  0.142
     ------------------------ ATOM   10 ------------------------
     Tr[ns( 10)] (up, down, total) =   4.86269  0.42939  5.29208
     Atomic magnetic moment for atom  10 =   4.43329
     SPIN  1
     eigenvalues:
       0.946  0.948  0.988  0.988  0.993
     eigenvectors (columns):
      -0.000  1.000  0.000  0.000 -0.000
      -0.000  0.000  0.833 -0.554 -0.000
      -0.000  0.000 -0.554 -0.833 -0.000
      -0.251 -0.000  0.000  0.000 -0.968
       0.968  0.000 -0.000  0.000 -0.251
     occupation matrix ns (before diag.):
       0.948 -0.000 -0.000  0.000  0.000
      -0.000  0.988  0.000  0.000  0.000
      -0.000  0.000  0.988  0.000  0.000
       0.000  0.000  0.000  0.990  0.011
       0.000  0.000  0.000  0.011  0.949
     SPIN  2
     eigenvalues:
       0.054  0.064  0.064  0.102  0.146
     eigenvectors (columns):
       0.000  0.000 -0.000  1.000 -0.000
      -0.000 -0.427 -0.904 -0.000  0.000
      -0.000  0.904 -0.427 -0.000  0.000
       0.975  0.000 -0.000 -0.000 -0.221
       0.221 -0.000 -0.000  0.000  0.975
     occupation matrix ns (before diag.):
       0.102 -0.000 -0.000 -0.000 -0.000
      -0.000  0.064  0.000  0.000  0.000
      -0.000  0.000  0.064  0.000  0.000
      -0.000  0.000  0.000  0.059 -0.020
      -0.000  0.000  0.000 -0.020  0.142
     ------------------------ ATOM   11 ------------------------
     Tr[ns( 11)] (up, down, total) =   4.86269  0.42939  5.29208
     Atomic magnetic moment for atom  11 =   4.43329
     SPIN  1
     eigenvalues:
       0.946  0.948  0.988  0.988  0.993
     eigenvectors (columns):
       0.000 -1.000 -0.000  0.000  0.000
      -0.000 -0.000  0.554 -0.833 -0.000
      -0.000 -0.000  0.833  0.554 -0.000
      -0.251 -0.000 -0.000 -0.000 -0.968
       0.968  0.000 -0.000  0.000 -0.251
     occupation matrix ns (before diag.):
       0.948 -0.000 -0.000 -0.000 -0.000
      -0.000  0.988 -0.000  0.000  0.000
      -0.000 -0.000  0.988  0.000  0.000
      -0.000  0.000  0.000  0.990  0.011
      -0.000  0.000  0.000  0.011  0.949
     SPIN  2
     eigenvalues:
       0.054  0.064  0.064  0.102  0.146
     eigenvectors (columns):
      -0.000 -0.000 -0.000 -1.000  0.000
      -0.000 -0.904  0.427  0.000  0.000
      -0.000 -0.427 -0.904  0.000  0.000
       0.975 -0.000 -0.000 -0.000 -0.221
       0.221 -0.000  0.000  0.000  0.975
     occupation matrix ns (before diag.):
       0.102 -0.000 -0.000  0.000  0.000
      -0.000  0.064 -0.000  0.000  0.000
      -0.000 -0.000  0.064  0.000  0.000
       0.000  0.000  0.000  0.059 -0.020
       0.000  0.000  0.000 -0.020  0.142
     ------------------------ ATOM   12 ------------------------
     Tr[ns( 12)] (up, down, total) =   4.86269  0.42939  5.29208
     Atomic magnetic moment for atom  12 =   4.43329
     SPIN  1
     eigenvalues:
       0.946  0.948  0.988  0.988  0.993
     eigenvectors (columns):
       0.000 -1.000 -0.000  0.000 -0.000
      -0.000 -0.000 -0.636 -0.772 -0.000
      -0.000 -0.000  0.772 -0.636 -0.000
      -0.251 -0.000 -0.000  0.000 -0.968
       0.968  0.000 -0.000  0.000 -0.251
     occupation matrix ns (before diag.):
       0.948 -0.000 -0.000  0.000 -0.000
      -0.000  0.988  0.000  0.000  0.000
      -0.000  0.000  0.988  0.000  0.000
       0.000  0.000  0.000  0.990  0.011
      -0.000  0.000  0.000  0.011  0.949
     SPIN  2
     eigenvalues:
       0.054  0.064  0.064  0.102  0.146
     eigenvectors (columns):
       0.000  0.000 -0.000  1.000 -0.000
      -0.000  0.169 -0.986 -0.000  0.000
      -0.000  0.986  0.169 -0.000  0.000
       0.975  0.000 -0.000 -0.000 -0.221
       0.221 -0.000 -0.000  0.000  0.975
     occupation matrix ns (before diag.):
       0.102 -0.000 -0.000 -0.000 -0.000
      -0.000  0.064 -0.000  0.000  0.000
      -0.000 -0.000  0.064  0.000  0.000
      -0.000  0.000  0.000  0.059 -0.020
      -0.000  0.000  0.000 -0.020  0.142
     ------------------------ ATOM   13 ------------------------
     Tr[ns( 13)] (up, down, total) =   1.05274  4.95947  6.01221
     Atomic magnetic moment for atom  13 =  -3.90673
     SPIN  1
     eigenvalues:
       0.113  0.196  0.196  0.252  0.296
     eigenvectors (columns):
       0.000 -0.000 -0.000 -1.000  0.000
      -0.000  0.669 -0.743  0.000  0.000
      -0.000 -0.743 -0.669  0.000  0.000
       0.960  0.000 -0.000  0.000  0.279
      -0.279  0.000  0.000  0.000  0.960
     occupation matrix ns (before diag.):
       0.252 -0.000 -0.000 -0.000  0.000
      -0.000  0.196  0.000  0.000  0.000
      -0.000  0.000  0.196  0.000  0.000
      -0.000  0.000  0.000  0.128  0.049
       0.000  0.000  0.000  0.049  0.282
     SPIN  2
     eigenvalues:
       0.981  0.988  0.996  0.996  0.997
     eigenvectors (columns):
       1.000 -0.000  0.000  0.000 -0.000
       0.000 -0.000  0.532 -0.847 -0.000
       0.000 -0.000 -0.847 -0.532 -0.000
      -0.000  0.202  0.000  0.000 -0.979
       0.000  0.979 -0.000 -0.000  0.202
     occupation matrix ns (before diag.):
       0.981 -0.000 -0.000  0.000 -0.000
      -0.000  0.996  0.000  0.000  0.000
      -0.000  0.000  0.996  0.000  0.000
       0.000  0.000  0.000  0.997 -0.002
      -0.000  0.000  0.000 -0.002  0.989
     ------------------------ ATOM   14 ------------------------
     Tr[ns( 14)] (up, down, total) =   1.05274  4.95947  6.01221
     Atomic magnetic moment for atom  14 =  -3.90673
     SPIN  1
     eigenvalues:
       0.113  0.196  0.196  0.252  0.296
     eigenvectors (columns):
       0.000 -0.000  0.000  1.000 -0.000
      -0.000 -0.717 -0.697 -0.000  0.000
      -0.000 -0.697  0.717 -0.000  0.000
       0.960 -0.000 -0.000 -0.000  0.279
      -0.279  0.000 -0.000  0.000  0.960
     occupation matrix ns (before diag.):
       0.252 -0.000 -0.000 -0.000 -0.000
      -0.000  0.196 -0.000  0.000  0.000
      -0.000 -0.000  0.196  0.000  0.000
      -0.000  0.000  0.000  0.128  0.049
      -0.000  0.000  0.000  0.049  0.282
     SPIN  2
     eigenvalues:
       0.981  0.988  0.996  0.996  0.997
     eigenvectors (columns):
      -1.000  0.000 -0.000 -0.000  0.000
      -0.000 -0.000  0.785 -0.620 -0.000
      -0.000 -0.000  0.620  0.785 -0.000
       0.000  0.202 -0.000 -0.000 -0.979
       0.000  0.979  0.000  0.000  0.202
     occupation matrix ns (before diag.):
       0.981 -0.000 -0.000  0.000  0.000
      -0.000  0.996 -0.000  0.000  0.000
      -0.000 -0.000  0.996  0.000  0.000
       0.000  0.000  0.000  0.997 -0.002
       0.000  0.000  0.000 -0.002  0.989
     ------------------------ ATOM   15 ------------------------
     Tr[ns( 15)] (up, down, total) =   1.05274  4.95947  6.01221
     Atomic magnetic moment for atom  15 =  -3.90673
     SPIN  1
     eigenvalues:
       0.113  0.196  0.196  0.252  0.296
     eigenvectors (columns):
      -0.000 -0.000 -0.000 -1.000  0.000
      -0.000  0.697 -0.717  0.000  0.000
      -0.000 -0.717 -0.697  0.000  0.000
       0.960  0.000 -0.000 -0.000  0.279
      -0.279  0.000  0.000  0.000  0.960
     occupation matrix ns (before diag.):
       0.252 -0.000 -0.000  0.000  0.000
      -0.000  0.196  0.000  0.000  0.000
      -0.000  0.000  0.196  0.000  0.000
       0.000  0.000  0.000  0.128  0.049
       0.000  0.000  0.000  0.049  0.282
     SPIN  2
     eigenvalues:
       0.981  0.988  0.996  0.996  0.997
     eigenvectors (columns):
       1.000 -0.000  0.000  0.000 -0.000
       0.000 -0.000  0.620 -0.785 -0.000
       0.000 -0.000 -0.785 -0.620 -0.000
       0.000  0.202  0.000  0.000 -0.979
       0.000  0.979 -0.000 -0.000  0.202
     occupation matrix ns (before diag.):
       0.981 -0.000 -0.000 -0.000 -0.000
      -0.000  0.996  0.000  0.000  0.000
      -0.000  0.000  0.996  0.000  0.000
      -0.000  0.000  0.000  0.997 -0.002
      -0.000  0.000  0.000 -0.002  0.989
     ------------------------ ATOM   16 ------------------------
     Tr[ns( 16)] (up, down, total) =   1.05274  4.95947  6.01221
     Atomic magnetic moment for atom  16 =  -3.90673
     SPIN  1
     eigenvalues:
       0.113  0.196  0.196  0.252  0.296
     eigenvectors (columns):
      -0.000 -0.000  0.000  1.000 -0.000
      -0.000 -0.743 -0.669 -0.000  0.000
      -0.000 -0.669  0.743 -0.000  0.000
       0.960 -0.000 -0.000  0.000  0.279
      -0.279  0.000 -0.000  0.000  0.960
     occupation matrix ns (before diag.):
       0.252 -0.000 -0.000  0.000 -0.000
      -0.000  0.196 -0.000  0.000  0.000
      -0.000 -0.000  0.196  0.000  0.000
       0.000  0.000  0.000  0.128  0.049
      -0.000  0.000  0.000  0.049  0.282
     SPIN  2
     eigenvalues:
       0.981  0.988  0.996  0.996  0.997
     eigenvectors (columns):
      -1.000  0.000 -0.000 -0.000  0.000
      -0.000 -0.000  0.847 -0.532 -0.000
      -0.000 -0.000  0.532  0.847 -0.000
      -0.000  0.202 -0.000 -0.000 -0.979
       0.000  0.979  0.000  0.000  0.202
     occupation matrix ns (before diag.):
       0.981 -0.000 -0.000 -0.000  0.000
      -0.000  0.996 -0.000  0.000  0.000
      -0.000 -0.000  0.996  0.000  0.000
      -0.000  0.000  0.000  0.997 -0.002
       0.000  0.000  0.000 -0.002  0.989

     Number of occupied Hubbard levels =   45.2172

     HUBBARD ENERGY =    0.4028  (Ry)

     total cpu time spent up to now is      360.0 secs

     total energy              =   -3089.21939070 Ry
     estimated scf accuracy    <       0.00001259 Ry

     total magnetization       =     0.00 Bohr mag/cell
     absolute magnetization    =    36.13 Bohr mag/cell

     iteration # 13     ecut=    90.00 Ry     beta= 0.30
     Davidson diagonalization with overlap

---- Real-time Memory Report at c_bands before calling an iterative solver
          1323 MiB given to the printing process from OS
           826 MiB allocation reported by mallinfo(arena+hblkhd)
        673439 MiB available memory on the node where the printing process lives
------------------
     ethr =  3.84E-09,  avg # of iterations =  2.7

     =================== HUBBARD OCCUPATIONS ===================
     ------------------------ ATOM    9 ------------------------
     Tr[ns(  9)] (up, down, total) =   4.86289  0.42962  5.29252
     Atomic magnetic moment for atom   9 =   4.43327
     SPIN  1
     eigenvalues:
       0.946  0.948  0.988  0.988  0.993
     eigenvectors (columns):
       0.000 -1.000 -0.000  0.000  0.000
      -0.000 -0.000 -0.148 -0.989 -0.000
      -0.000 -0.000  0.989 -0.148 -0.000
      -0.251 -0.000 -0.000  0.000 -0.968
       0.968  0.000 -0.000  0.000 -0.251
     occupation matrix ns (before diag.):
       0.948 -0.000 -0.000 -0.000 -0.000
      -0.000  0.988  0.000  0.000  0.000
      -0.000  0.000  0.988  0.000  0.000
      -0.000  0.000  0.000  0.990  0.011
      -0.000  0.000  0.000  0.011  0.949
     SPIN  2
     eigenvalues:
       0.054  0.064  0.064  0.102  0.146
     eigenvectors (columns):
      -0.000 -0.000 -0.000 -1.000  0.000
      -0.000 -0.889  0.457  0.000  0.000
      -0.000 -0.457 -0.889  0.000  0.000
       0.975 -0.000 -0.000 -0.000 -0.221
       0.221 -0.000  0.000  0.000  0.975
     occupation matrix ns (before diag.):
       0.102 -0.000 -0.000  0.000  0.000
      -0.000  0.064 -0.000  0.000  0.000
      -0.000 -0.000  0.064  0.000  0.000
       0.000  0.000  0.000  0.059 -0.020
       0.000  0.000  0.000 -0.020  0.142
     ------------------------ ATOM   10 ------------------------
     Tr[ns( 10)] (up, down, total) =   4.86289  0.42962  5.29252
     Atomic magnetic moment for atom  10 =   4.43327
     SPIN  1
     eigenvalues:
       0.946  0.948  0.988  0.988  0.993
     eigenvectors (columns):
      -0.000  1.000 -0.000  0.000 -0.000
      -0.000  0.000  0.916 -0.401 -0.000
      -0.000  0.000 -0.401 -0.916 -0.000
      -0.251 -0.000 -0.000  0.000 -0.968
       0.968  0.000 -0.000  0.000 -0.251
     occupation matrix ns (before diag.):
       0.948 -0.000 -0.000  0.000  0.000
      -0.000  0.988  0.000  0.000  0.000
      -0.000  0.000  0.988  0.000  0.000
       0.000  0.000  0.000  0.990  0.011
       0.000  0.000  0.000  0.011  0.949
     SPIN  2
     eigenvalues:
       0.054  0.064  0.064  0.102  0.146
     eigenvectors (columns):
       0.000  0.000 -0.000  1.000 -0.000
      -0.000 -0.065 -0.998 -0.000  0.000
      -0.000  0.998 -0.065 -0.000  0.000
       0.975  0.000 -0.000 -0.000 -0.221
       0.221 -0.000 -0.000  0.000  0.975
     occupation matrix ns (before diag.):
       0.102 -0.000 -0.000 -0.000 -0.000
      -0.000  0.064  0.000  0.000  0.000
      -0.000  0.000  0.064  0.000  0.000
      -0.000  0.000  0.000  0.059 -0.020
      -0.000  0.000  0.000 -0.020  0.142
     ------------------------ ATOM   11 ------------------------
     Tr[ns( 11)] (up, down, total) =   4.86289  0.42962  5.29252
     Atomic magnetic moment for atom  11 =   4.43327
     SPIN  1
     eigenvalues:
       0.946  0.948  0.988  0.988  0.993
     eigenvectors (columns):
       0.000 -1.000 -0.000  0.000  0.000
      -0.000 -0.000  0.401 -0.916 -0.000
      -0.000 -0.000  0.916  0.401 -0.000
      -0.251 -0.000 -0.000  0.000 -0.968
       0.968  0.000 -0.000  0.000 -0.251
     occupation matrix ns (before diag.):
       0.948 -0.000 -0.000 -0.000 -0.000
      -0.000  0.988 -0.000  0.000  0.000
      -0.000 -0.000  0.988  0.000  0.000
      -0.000  0.000  0.000  0.990  0.011
      -0.000  0.000  0.000  0.011  0.949
     SPIN  2
     eigenvalues:
       0.054  0.064  0.064  0.102  0.146
     eigenvectors (columns):
      -0.000 -0.000 -0.000 -1.000  0.000
      -0.000 -0.998  0.065  0.000  0.000
      -0.000 -0.065 -0.998  0.000  0.000
       0.975 -0.000 -0.000 -0.000 -0.221
       0.221 -0.000  0.000  0.000  0.975
     occupation matrix ns (before diag.):
       0.102 -0.000 -0.000  0.000  0.000
      -0.000  0.064 -0.000  0.000  0.000
      -0.000 -0.000  0.064  0.000  0.000
       0.000  0.000  0.000  0.059 -0.020
       0.000  0.000  0.000 -0.020  0.142
     ------------------------ ATOM   12 ------------------------
     Tr[ns( 12)] (up, down, total) =   4.86289  0.42962  5.29252
     Atomic magnetic moment for atom  12 =   4.43327
     SPIN  1
     eigenvalues:
       0.946  0.948  0.988  0.988  0.993
     eigenvectors (columns):
      -0.000  1.000 -0.000  0.000 -0.000
      -0.000  0.000  0.989  0.148 -0.000
      -0.000  0.000  0.148 -0.989 -0.000
      -0.251 -0.000 -0.000  0.000 -0.968
       0.968  0.000 -0.000  0.000 -0.251
     occupation matrix ns (before diag.):
       0.948 -0.000 -0.000  0.000  0.000
      -0.000  0.988 -0.000  0.000  0.000
      -0.000 -0.000  0.988  0.000  0.000
       0.000  0.000  0.000  0.990  0.011
       0.000  0.000  0.000  0.011  0.949
     SPIN  2
     eigenvalues:
       0.054  0.064  0.064  0.102  0.146
     eigenvectors (columns):
       0.000  0.000 -0.000  1.000 -0.000
      -0.000 -0.457 -0.889 -0.000  0.000
      -0.000  0.889 -0.457 -0.000  0.000
       0.975  0.000 -0.000 -0.000 -0.221
       0.221 -0.000 -0.000  0.000  0.975
     occupation matrix ns (before diag.):
       0.102 -0.000 -0.000 -0.000 -0.000
      -0.000  0.064  0.000  0.000  0.000
      -0.000  0.000  0.064  0.000  0.000
      -0.000  0.000  0.000  0.059 -0.020
      -0.000  0.000  0.000 -0.020  0.142
     ------------------------ ATOM   13 ------------------------
     Tr[ns( 13)] (up, down, total) =   1.05209  4.95942  6.01151
     Atomic magnetic moment for atom  13 =  -3.90732
     SPIN  1
     eigenvalues:
       0.113  0.196  0.196  0.252  0.296
     eigenvectors (columns):
       0.000 -0.000 -0.000 -1.000  0.000
      -0.000  0.669 -0.743  0.000  0.000
      -0.000 -0.743 -0.669  0.000  0.000
       0.960  0.000 -0.000  0.000  0.279
      -0.279  0.000  0.000  0.000  0.960
     occupation matrix ns (before diag.):
       0.252 -0.000 -0.000 -0.000  0.000
      -0.000  0.196  0.000  0.000  0.000
      -0.000  0.000  0.196  0.000  0.000
      -0.000  0.000  0.000  0.128  0.049
       0.000  0.000  0.000  0.049  0.282
     SPIN  2
     eigenvalues:
       0.981  0.988  0.996  0.996  0.997
     eigenvectors (columns):
       1.000 -0.000  0.000  0.000 -0.000
       0.000 -0.000  0.762 -0.648 -0.000
       0.000 -0.000 -0.648 -0.762 -0.000
       0.000  0.202 -0.000  0.000 -0.979
       0.000  0.979 -0.000 -0.000  0.202
     occupation matrix ns (before diag.):
       0.981 -0.000 -0.000  0.000 -0.000
      -0.000  0.996  0.000  0.000  0.000
      -0.000  0.000  0.996  0.000  0.000
       0.000  0.000  0.000  0.997 -0.002
      -0.000  0.000  0.000 -0.002  0.989
     ------------------------ ATOM   14 ------------------------
     Tr[ns( 14)] (up, down, total) =   1.05209  4.95942  6.01151
     Atomic magnetic moment for atom  14 =  -3.90732
     SPIN  1
     eigenvalues:
       0.113  0.196  0.196  0.252  0.296
     eigenvectors (columns):
       0.000 -0.000 -0.000 -1.000  0.000
      -0.000 -0.852  0.523  0.000  0.000
      -0.000 -0.523 -0.852  0.000  0.000
       0.960 -0.000  0.000  0.000  0.279
      -0.279  0.000  0.000  0.000  0.960
     occupation matrix ns (before diag.):
       0.252 -0.000 -0.000 -0.000  0.000
      -0.000  0.196 -0.000  0.000  0.000
      -0.000 -0.000  0.196  0.000  0.000
      -0.000  0.000  0.000  0.128  0.049
       0.000  0.000  0.000  0.049  0.282
     SPIN  2
     eigenvalues:
       0.981  0.988  0.996  0.996  0.997
     eigenvectors (columns):
      -1.000  0.000 -0.000 -0.000  0.000
      -0.000 -0.000  0.828 -0.561 -0.000
      -0.000 -0.000  0.561  0.828 -0.000
      -0.000  0.202 -0.000 -0.000 -0.979
       0.000  0.979  0.000  0.000  0.202
     occupation matrix ns (before diag.):
       0.981 -0.000 -0.000 -0.000  0.000
      -0.000  0.996 -0.000  0.000  0.000
      -0.000 -0.000  0.996  0.000  0.000
      -0.000  0.000  0.000  0.997 -0.002
       0.000  0.000  0.000 -0.002  0.989
     ------------------------ ATOM   15 ------------------------
     Tr[ns( 15)] (up, down, total) =   1.05209  4.95942  6.01151
     Atomic magnetic moment for atom  15 =  -3.90732
     SPIN  1
     eigenvalues:
       0.113  0.196  0.196  0.252  0.296
     eigenvectors (columns):
      -0.000  0.000 -0.000  1.000 -0.000
      -0.000 -0.523 -0.852 -0.000  0.000
      -0.000  0.852 -0.523 -0.000  0.000
       0.960 -0.000 -0.000  0.000  0.279
      -0.279 -0.000  0.000  0.000  0.960
     occupation matrix ns (before diag.):
       0.252 -0.000 -0.000  0.000 -0.000
      -0.000  0.196  0.000  0.000  0.000
      -0.000  0.000  0.196  0.000  0.000
       0.000  0.000  0.000  0.128  0.049
      -0.000  0.000  0.000  0.049  0.282
     SPIN  2
     eigenvalues:
       0.981  0.988  0.996  0.996  0.997
     eigenvectors (columns):
       1.000 -0.000  0.000  0.000 -0.000
       0.000 -0.000  0.561 -0.828 -0.000
       0.000 -0.000 -0.828 -0.561 -0.000
      -0.000  0.202  0.000  0.000 -0.979
       0.000  0.979 -0.000 -0.000  0.202
     occupation matrix ns (before diag.):
       0.981 -0.000 -0.000  0.000 -0.000
      -0.000  0.996  0.000  0.000  0.000
      -0.000  0.000  0.996  0.000  0.000
       0.000  0.000  0.000  0.997 -0.002
      -0.000  0.000  0.000 -0.002  0.989
     ------------------------ ATOM   16 ------------------------
     Tr[ns( 16)] (up, down, total) =   1.05209  4.95942  6.01151
     Atomic magnetic moment for atom  16 =  -3.90732
     SPIN  1
     eigenvalues:
       0.113  0.196  0.196  0.252  0.296
     eigenvectors (columns):
      -0.000 -0.000  0.000  1.000 -0.000
      -0.000 -0.743 -0.669 -0.000  0.000
      -0.000 -0.669  0.743 -0.000  0.000
       0.960 -0.000 -0.000  0.000  0.279
      -0.279  0.000 -0.000  0.000  0.960
     occupation matrix ns (before diag.):
       0.252 -0.000 -0.000  0.000 -0.000
      -0.000  0.196 -0.000  0.000  0.000
      -0.000 -0.000  0.196  0.000  0.000
       0.000  0.000  0.000  0.128  0.049
      -0.000  0.000  0.000  0.049  0.282
     SPIN  2
     eigenvalues:
       0.981  0.988  0.996  0.996  0.997
     eigenvectors (columns):
      -1.000  0.000 -0.000 -0.000  0.000
      -0.000 -0.000  0.648 -0.762 -0.000
      -0.000 -0.000  0.762  0.648 -0.000
       0.000  0.202 -0.000  0.000 -0.979
       0.000  0.979  0.000  0.000  0.202
     occupation matrix ns (before diag.):
       0.981 -0.000 -0.000 -0.000  0.000
      -0.000  0.996 -0.000  0.000  0.000
      -0.000 -0.000  0.996  0.000  0.000
      -0.000  0.000  0.000  0.997 -0.002
       0.000  0.000  0.000 -0.002  0.989

     Number of occupied Hubbard levels =   45.2161

     HUBBARD ENERGY =    0.4027  (Ry)

     total cpu time spent up to now is      387.6 secs

     total energy              =   -3089.21939144 Ry
     estimated scf accuracy    <       0.00000241 Ry

     total magnetization       =     0.00 Bohr mag/cell
     absolute magnetization    =    36.14 Bohr mag/cell

     iteration # 14     ecut=    90.00 Ry     beta= 0.30
     Davidson diagonalization with overlap

---- Real-time Memory Report at c_bands before calling an iterative solver
          1323 MiB given to the printing process from OS
           826 MiB allocation reported by mallinfo(arena+hblkhd)
        673561 MiB available memory on the node where the printing process lives
------------------
     ethr =  7.34E-10,  avg # of iterations =  3.1

     =================== HUBBARD OCCUPATIONS ===================
     ------------------------ ATOM    9 ------------------------
     Tr[ns(  9)] (up, down, total) =   4.86287  0.42973  5.29260
     Atomic magnetic moment for atom   9 =   4.43314
     SPIN  1
     eigenvalues:
       0.946  0.948  0.988  0.988  0.993
     eigenvectors (columns):
       0.000 -1.000 -0.000  0.000  0.000
      -0.000 -0.000 -0.178 -0.984 -0.000
      -0.000 -0.000  0.984 -0.178 -0.000
      -0.251 -0.000 -0.000  0.000 -0.968
       0.968  0.000 -0.000  0.000 -0.251
     occupation matrix ns (before diag.):
       0.948 -0.000 -0.000 -0.000 -0.000
      -0.000  0.988  0.000  0.000  0.000
      -0.000  0.000  0.988  0.000  0.000
      -0.000  0.000  0.000  0.990  0.011
      -0.000  0.000  0.000  0.011  0.949
     SPIN  2
     eigenvalues:
       0.054  0.064  0.064  0.102  0.146
     eigenvectors (columns):
      -0.000 -0.000 -0.000 -1.000  0.000
      -0.000 -0.892  0.452  0.000  0.000
      -0.000 -0.452 -0.892  0.000  0.000
       0.975 -0.000 -0.000 -0.000 -0.221
       0.221 -0.000  0.000  0.000  0.975
     occupation matrix ns (before diag.):
       0.102 -0.000 -0.000  0.000  0.000
      -0.000  0.064 -0.000  0.000  0.000
      -0.000 -0.000  0.064  0.000  0.000
       0.000  0.000  0.000  0.059 -0.020
       0.000  0.000  0.000 -0.020  0.142
     ------------------------ ATOM   10 ------------------------
     Tr[ns( 10)] (up, down, total) =   4.86287  0.42973  5.29260
     Atomic magnetic moment for atom  10 =   4.43314
     SPIN  1
     eigenvalues:
       0.946  0.948  0.988  0.988  0.993
     eigenvectors (columns):
      -0.000  1.000 -0.000  0.000 -0.000
      -0.000  0.000  0.998 -0.067 -0.000
      -0.000  0.000 -0.067 -0.998 -0.000
      -0.251 -0.000 -0.000  0.000 -0.968
       0.968  0.000 -0.000  0.000 -0.251
     occupation matrix ns (before diag.):
       0.948 -0.000 -0.000  0.000  0.000
      -0.000  0.988  0.000  0.000  0.000
      -0.000  0.000  0.988  0.000  0.000
       0.000  0.000  0.000  0.990  0.011
       0.000  0.000  0.000  0.011  0.949
     SPIN  2
     eigenvalues:
       0.054  0.064  0.064  0.102  0.146
     eigenvectors (columns):
       0.000  0.000  0.000  1.000 -0.000
      -0.000 -0.495  0.869 -0.000  0.000
      -0.000  0.869  0.495 -0.000  0.000
       0.975  0.000  0.000 -0.000 -0.221
       0.221 -0.000  0.000  0.000  0.975
     occupation matrix ns (before diag.):
       0.102 -0.000 -0.000 -0.000 -0.000
      -0.000  0.064  0.000  0.000  0.000
      -0.000  0.000  0.064  0.000  0.000
      -0.000  0.000  0.000  0.059 -0.020
      -0.000  0.000  0.000 -0.020  0.142
     ------------------------ ATOM   11 ------------------------
     Tr[ns( 11)] (up, down, total) =   4.86287  0.42973  5.29260
     Atomic magnetic moment for atom  11 =   4.43314
     SPIN  1
     eigenvalues:
       0.946  0.948  0.988  0.988  0.993
     eigenvectors (columns):
       0.000 -1.000 -0.000  0.000  0.000
      -0.000 -0.000  0.067 -0.998 -0.000
      -0.000 -0.000  0.998  0.067 -0.000
      -0.251 -0.000 -0.000  0.000 -0.968
       0.968  0.000 -0.000  0.000 -0.251
     occupation matrix ns (before diag.):
       0.948 -0.000 -0.000 -0.000 -0.000
      -0.000  0.988 -0.000  0.000  0.000
      -0.000 -0.000  0.988  0.000  0.000
      -0.000  0.000  0.000  0.990  0.011
      -0.000  0.000  0.000  0.011  0.949
     SPIN  2
     eigenvalues:
       0.054  0.064  0.064  0.102  0.146
     eigenvectors (columns):
      -0.000 -0.000  0.000 -1.000  0.000
      -0.000 -0.869 -0.495  0.000  0.000
      -0.000 -0.495  0.869  0.000  0.000
       0.975 -0.000  0.000 -0.000 -0.221
       0.221 -0.000 -0.000  0.000  0.975
     occupation matrix ns (before diag.):
       0.102 -0.000 -0.000  0.000  0.000
      -0.000  0.064 -0.000  0.000  0.000
      -0.000 -0.000  0.064  0.000  0.000
       0.000  0.000  0.000  0.059 -0.020
       0.000  0.000  0.000 -0.020  0.142
     ------------------------ ATOM   12 ------------------------
     Tr[ns( 12)] (up, down, total) =   4.86287  0.42973  5.29260
     Atomic magnetic moment for atom  12 =   4.43314
     SPIN  1
     eigenvalues:
       0.946  0.948  0.988  0.988  0.993
     eigenvectors (columns):
      -0.000  1.000 -0.000  0.000 -0.000
      -0.000  0.000  0.984  0.178 -0.000
      -0.000  0.000  0.178 -0.984 -0.000
      -0.251 -0.000 -0.000  0.000 -0.968
       0.968  0.000 -0.000  0.000 -0.251
     occupation matrix ns (before diag.):
       0.948 -0.000 -0.000  0.000  0.000
      -0.000  0.988 -0.000  0.000  0.000
      -0.000 -0.000  0.988  0.000  0.000
       0.000  0.000  0.000  0.990  0.011
       0.000  0.000  0.000  0.011  0.949
     SPIN  2
     eigenvalues:
       0.054  0.064  0.064  0.102  0.146
     eigenvectors (columns):
       0.000  0.000 -0.000  1.000 -0.000
      -0.000 -0.452 -0.892 -0.000  0.000
      -0.000  0.892 -0.452 -0.000  0.000
       0.975  0.000 -0.000 -0.000 -0.221
       0.221 -0.000 -0.000  0.000  0.975
     occupation matrix ns (before diag.):
       0.102 -0.000 -0.000 -0.000 -0.000
      -0.000  0.064  0.000  0.000  0.000
      -0.000  0.000  0.064  0.000  0.000
      -0.000  0.000  0.000  0.059 -0.020
      -0.000  0.000  0.000 -0.020  0.142
     ------------------------ ATOM   13 ------------------------
     Tr[ns( 13)] (up, down, total) =   1.05243  4.95942  6.01185
     Atomic magnetic moment for atom  13 =  -3.90698
     SPIN  1
     eigenvalues:
       0.113  0.196  0.196  0.252  0.296
     eigenvectors (columns):
       0.000 -0.000 -0.000 -1.000  0.000
      -0.000 -0.858  0.513  0.000  0.000
      -0.000 -0.513 -0.858  0.000  0.000
       0.960 -0.000  0.000  0.000  0.279
      -0.279  0.000  0.000  0.000  0.960
     occupation matrix ns (before diag.):
       0.252 -0.000 -0.000 -0.000  0.000
      -0.000  0.196 -0.000  0.000  0.000
      -0.000 -0.000  0.196  0.000  0.000
      -0.000  0.000  0.000  0.128  0.049
       0.000  0.000  0.000  0.049  0.282
     SPIN  2
     eigenvalues:
       0.981  0.988  0.996  0.996  0.997
     eigenvectors (columns):
       1.000 -0.000  0.000  0.000 -0.000
       0.000 -0.000  0.660 -0.751 -0.000
       0.000 -0.000 -0.751 -0.660 -0.000
      -0.000  0.202  0.000  0.000 -0.979
       0.000  0.979 -0.000 -0.000  0.202
     occupation matrix ns (before diag.):
       0.981 -0.000 -0.000  0.000 -0.000
      -0.000  0.996  0.000  0.000  0.000
      -0.000  0.000  0.996  0.000  0.000
       0.000  0.000  0.000  0.997 -0.002
      -0.000  0.000  0.000 -0.002  0.989
     ------------------------ ATOM   14 ------------------------
     Tr[ns( 14)] (up, down, total) =   1.05243  4.95942  6.01185
     Atomic magnetic moment for atom  14 =  -3.90698
     SPIN  1
     eigenvalues:
       0.113  0.196  0.196  0.252  0.296
     eigenvectors (columns):
       0.000 -0.000 -0.000  1.000 -0.000
      -0.000 -0.921  0.390 -0.000  0.000
      -0.000 -0.390 -0.921 -0.000  0.000
       0.960 -0.000  0.000  0.000  0.279
      -0.279  0.000  0.000  0.000  0.960
     occupation matrix ns (before diag.):
       0.252 -0.000 -0.000 -0.000 -0.000
      -0.000  0.196 -0.000  0.000  0.000
      -0.000 -0.000  0.196  0.000  0.000
      -0.000  0.000  0.000  0.128  0.049
      -0.000  0.000  0.000  0.049  0.282
     SPIN  2
     eigenvalues:
       0.981  0.988  0.996  0.996  0.997
     eigenvectors (columns):
      -1.000  0.000 -0.000  0.000  0.000
      -0.000 -0.000  0.510 -0.860 -0.000
      -0.000 -0.000  0.860  0.510 -0.000
      -0.000  0.202 -0.000  0.000 -0.979
       0.000  0.979  0.000 -0.000  0.202
     occupation matrix ns (before diag.):
       0.981 -0.000 -0.000 -0.000  0.000
      -0.000  0.996 -0.000  0.000  0.000
      -0.000 -0.000  0.996  0.000  0.000
      -0.000  0.000  0.000  0.997 -0.002
       0.000  0.000  0.000 -0.002  0.989
     ------------------------ ATOM   15 ------------------------
     Tr[ns( 15)] (up, down, total) =   1.05243  4.95942  6.01185
     Atomic magnetic moment for atom  15 =  -3.90698
     SPIN  1
     eigenvalues:
       0.113  0.196  0.196  0.252  0.296
     eigenvectors (columns):
      -0.000 -0.000  0.000 -1.000  0.000
      -0.000  0.390  0.921  0.000  0.000
      -0.000 -0.921  0.390  0.000  0.000
       0.960  0.000  0.000  0.000  0.279
      -0.279  0.000 -0.000  0.000  0.960
     occupation matrix ns (before diag.):
       0.252 -0.000 -0.000  0.000  0.000
      -0.000  0.196  0.000  0.000  0.000
      -0.000  0.000  0.196  0.000  0.000
       0.000  0.000  0.000  0.128  0.049
       0.000  0.000  0.000  0.049  0.282
     SPIN  2
     eigenvalues:
       0.981  0.988  0.996  0.996  0.997
     eigenvectors (columns):
       1.000 -0.000 -0.000  0.000 -0.000
       0.000 -0.000  0.860 -0.510 -0.000
       0.000 -0.000 -0.510 -0.860 -0.000
      -0.000  0.202 -0.000  0.000 -0.979
       0.000  0.979  0.000 -0.000  0.202
     occupation matrix ns (before diag.):
       0.981 -0.000 -0.000  0.000 -0.000
      -0.000  0.996  0.000  0.000  0.000
      -0.000  0.000  0.996  0.000  0.000
       0.000  0.000  0.000  0.997 -0.002
      -0.000  0.000  0.000 -0.002  0.989
     ------------------------ ATOM   16 ------------------------
     Tr[ns( 16)] (up, down, total) =   1.05243  4.95942  6.01185
     Atomic magnetic moment for atom  16 =  -3.90698
     SPIN  1
     eigenvalues:
       0.113  0.196  0.196  0.252  0.296
     eigenvectors (columns):
      -0.000  0.000 -0.000  1.000 -0.000
      -0.000 -0.513 -0.858 -0.000  0.000
      -0.000  0.858 -0.513 -0.000  0.000
       0.960 -0.000 -0.000  0.000  0.279
      -0.279 -0.000  0.000  0.000  0.960
     occupation matrix ns (before diag.):
       0.252 -0.000 -0.000  0.000 -0.000
      -0.000  0.196  0.000  0.000  0.000
      -0.000  0.000  0.196  0.000  0.000
       0.000  0.000  0.000  0.128  0.049
      -0.000  0.000  0.000  0.049  0.282
     SPIN  2
     eigenvalues:
       0.981  0.988  0.996  0.996  0.997
     eigenvectors (columns):
      -1.000  0.000 -0.000 -0.000  0.000
      -0.000 -0.000  0.751 -0.660 -0.000
      -0.000 -0.000  0.660  0.751 -0.000
      -0.000  0.202 -0.000 -0.000 -0.979
       0.000  0.979  0.000  0.000  0.202
     occupation matrix ns (before diag.):
       0.981 -0.000 -0.000 -0.000  0.000
      -0.000  0.996 -0.000  0.000  0.000
      -0.000 -0.000  0.996  0.000  0.000
      -0.000  0.000  0.000  0.997 -0.002
       0.000  0.000  0.000 -0.002  0.989

     Number of occupied Hubbard levels =   45.2178

     HUBBARD ENERGY =    0.4028  (Ry)

     total cpu time spent up to now is      417.3 secs

     total energy              =   -3089.21939194 Ry
     estimated scf accuracy    <       0.00000079 Ry

     total magnetization       =     0.00 Bohr mag/cell
     absolute magnetization    =    36.13 Bohr mag/cell

     iteration # 15     ecut=    90.00 Ry     beta= 0.30
     Davidson diagonalization with overlap

---- Real-time Memory Report at c_bands before calling an iterative solver
          1323 MiB given to the printing process from OS
           826 MiB allocation reported by mallinfo(arena+hblkhd)
        673470 MiB available memory on the node where the printing process lives
------------------
     ethr =  2.42E-10,  avg # of iterations =  2.0

     =================== HUBBARD OCCUPATIONS ===================
     ------------------------ ATOM    9 ------------------------
     Tr[ns(  9)] (up, down, total) =   4.86287  0.42968  5.29255
     Atomic magnetic moment for atom   9 =   4.43318
     SPIN  1
     eigenvalues:
       0.946  0.948  0.988  0.988  0.993
     eigenvectors (columns):
       0.000 -1.000 -0.000  0.000  0.000
      -0.000 -0.000 -0.806 -0.592 -0.000
      -0.000 -0.000  0.592 -0.806 -0.000
      -0.251 -0.000 -0.000  0.000 -0.968
       0.968  0.000  0.000  0.000 -0.251
     occupation matrix ns (before diag.):
       0.948 -0.000 -0.000 -0.000 -0.000
      -0.000  0.988  0.000  0.000  0.000
      -0.000  0.000  0.988  0.000  0.000
      -0.000  0.000  0.000  0.990  0.011
      -0.000  0.000  0.000  0.011  0.949
     SPIN  2
     eigenvalues:
       0.054  0.064  0.064  0.102  0.146
     eigenvectors (columns):
      -0.000 -0.000 -0.000 -1.000  0.000
      -0.000 -0.995  0.101  0.000  0.000
      -0.000 -0.101 -0.995  0.000  0.000
       0.975 -0.000 -0.000 -0.000 -0.221
       0.221 -0.000  0.000  0.000  0.975
     occupation matrix ns (before diag.):
       0.102 -0.000 -0.000  0.000  0.000
      -0.000  0.064 -0.000  0.000  0.000
      -0.000 -0.000  0.064  0.000  0.000
       0.000  0.000  0.000  0.059 -0.020
       0.000  0.000  0.000 -0.020  0.142
     ------------------------ ATOM   10 ------------------------
     Tr[ns( 10)] (up, down, total) =   4.86287  0.42968  5.29255
     Atomic magnetic moment for atom  10 =   4.43318
     SPIN  1
     eigenvalues:
       0.946  0.948  0.988  0.988  0.993
     eigenvectors (columns):
      -0.000  1.000 -0.000  0.000 -0.000
      -0.000  0.000  0.852  0.523 -0.000
      -0.000  0.000  0.523 -0.852 -0.000
      -0.251 -0.000 -0.000  0.000 -0.968
       0.968  0.000 -0.000  0.000 -0.251
     occupation matrix ns (before diag.):
       0.948 -0.000 -0.000  0.000  0.000
      -0.000  0.988 -0.000  0.000  0.000
      -0.000 -0.000  0.988  0.000  0.000
       0.000  0.000  0.000  0.990  0.011
       0.000  0.000  0.000  0.011  0.949
     SPIN  2
     eigenvalues:
       0.054  0.064  0.064  0.102  0.146
     eigenvectors (columns):
       0.000  0.000  0.000  1.000 -0.000
      -0.000 -0.539  0.842 -0.000  0.000
      -0.000  0.842  0.539 -0.000  0.000
       0.975  0.000  0.000 -0.000 -0.221
       0.221 -0.000  0.000  0.000  0.975
     occupation matrix ns (before diag.):
       0.102 -0.000 -0.000 -0.000 -0.000
      -0.000  0.064  0.000  0.000  0.000
      -0.000  0.000  0.064  0.000  0.000
      -0.000  0.000  0.000  0.059 -0.020
      -0.000  0.000  0.000 -0.020  0.142
     ------------------------ ATOM   11 ------------------------
     Tr[ns( 11)] (up, down, total) =   4.86287  0.42968  5.29255
     Atomic magnetic moment for atom  11 =   4.43318
     SPIN  1
     eigenvalues:
       0.946  0.948  0.988  0.988  0.993
     eigenvectors (columns):
       0.000 -1.000 -0.000  0.000  0.000
      -0.000 -0.000 -0.523 -0.852 -0.000
      -0.000 -0.000  0.852 -0.523 -0.000
      -0.251 -0.000 -0.000  0.000 -0.968
       0.968  0.000 -0.000  0.000 -0.251
     occupation matrix ns (before diag.):
       0.948 -0.000 -0.000 -0.000 -0.000
      -0.000  0.988  0.000  0.000  0.000
      -0.000  0.000  0.988  0.000  0.000
      -0.000  0.000  0.000  0.990  0.011
      -0.000  0.000  0.000  0.011  0.949
     SPIN  2
     eigenvalues:
       0.054  0.064  0.064  0.102  0.146
     eigenvectors (columns):
      -0.000 -0.000  0.000 -1.000  0.000
      -0.000 -0.842 -0.539  0.000  0.000
      -0.000 -0.539  0.842  0.000  0.000
       0.975 -0.000  0.000 -0.000 -0.221
       0.221 -0.000 -0.000  0.000  0.975
     occupation matrix ns (before diag.):
       0.102 -0.000 -0.000  0.000  0.000
      -0.000  0.064 -0.000  0.000  0.000
      -0.000 -0.000  0.064  0.000  0.000
       0.000  0.000  0.000  0.059 -0.020
       0.000  0.000  0.000 -0.020  0.142
     ------------------------ ATOM   12 ------------------------
     Tr[ns( 12)] (up, down, total) =   4.86287  0.42968  5.29255
     Atomic magnetic moment for atom  12 =   4.43318
     SPIN  1
     eigenvalues:
       0.946  0.948  0.988  0.988  0.993
     eigenvectors (columns):
      -0.000  1.000 -0.000 -0.000 -0.000
      -0.000  0.000  0.592  0.806 -0.000
      -0.000  0.000  0.806 -0.592 -0.000
      -0.251 -0.000 -0.000  0.000 -0.968
       0.968  0.000 -0.000 -0.000 -0.251
     occupation matrix ns (before diag.):
       0.948 -0.000 -0.000  0.000  0.000
      -0.000  0.988 -0.000  0.000  0.000
      -0.000 -0.000  0.988  0.000  0.000
       0.000  0.000  0.000  0.990  0.011
       0.000  0.000  0.000  0.011  0.949
     SPIN  2
     eigenvalues:
       0.054  0.064  0.064  0.102  0.146
     eigenvectors (columns):
       0.000  0.000 -0.000  1.000 -0.000
      -0.000 -0.101 -0.995 -0.000  0.000
      -0.000  0.995 -0.101 -0.000  0.000
       0.975  0.000 -0.000 -0.000 -0.221
       0.221 -0.000 -0.000  0.000  0.975
     occupation matrix ns (before diag.):
       0.102 -0.000 -0.000 -0.000 -0.000
      -0.000  0.064  0.000  0.000  0.000
      -0.000  0.000  0.064  0.000  0.000
      -0.000  0.000  0.000  0.059 -0.020
      -0.000  0.000  0.000 -0.020  0.142
     ------------------------ ATOM   13 ------------------------
     Tr[ns( 13)] (up, down, total) =   1.05226  4.95942  6.01168
     Atomic magnetic moment for atom  13 =  -3.90716
     SPIN  1
     eigenvalues:
       0.113  0.196  0.196  0.252  0.296
     eigenvectors (columns):
       0.000  0.000 -0.000 -1.000  0.000
      -0.000  0.995  0.100  0.000  0.000
      -0.000  0.100 -0.995  0.000  0.000
       0.960  0.000 -0.000  0.000  0.279
      -0.279 -0.000  0.000  0.000  0.960
     occupation matrix ns (before diag.):
       0.252 -0.000 -0.000 -0.000  0.000
      -0.000  0.196 -0.000  0.000  0.000
      -0.000 -0.000  0.196  0.000  0.000
      -0.000  0.000  0.000  0.128  0.049
       0.000  0.000  0.000  0.049  0.282
     SPIN  2
     eigenvalues:
       0.981  0.988  0.996  0.996  0.997
     eigenvectors (columns):
       1.000 -0.000  0.000  0.000 -0.000
       0.000 -0.000  0.471 -0.882 -0.000
       0.000 -0.000 -0.882 -0.471 -0.000
      -0.000  0.202  0.000  0.000 -0.979
       0.000  0.979 -0.000 -0.000  0.202
     occupation matrix ns (before diag.):
       0.981 -0.000 -0.000  0.000 -0.000
      -0.000  0.996  0.000  0.000  0.000
      -0.000  0.000  0.996  0.000  0.000
       0.000  0.000  0.000  0.997 -0.002
      -0.000  0.000  0.000 -0.002  0.989
     ------------------------ ATOM   14 ------------------------
     Tr[ns( 14)] (up, down, total) =   1.05226  4.95942  6.01168
     Atomic magnetic moment for atom  14 =  -3.90716
     SPIN  1
     eigenvalues:
       0.113  0.196  0.196  0.252  0.296
     eigenvectors (columns):
       0.000 -0.000 -0.000  1.000 -0.000
      -0.000 -1.000  0.012 -0.000  0.000
      -0.000 -0.012 -1.000 -0.000  0.000
       0.960 -0.000 -0.000  0.000  0.279
      -0.279  0.000  0.000  0.000  0.960
     occupation matrix ns (before diag.):
       0.252 -0.000 -0.000 -0.000 -0.000
      -0.000  0.196 -0.000  0.000  0.000
      -0.000 -0.000  0.196  0.000  0.000
      -0.000  0.000  0.000  0.128  0.049
      -0.000  0.000  0.000  0.049  0.282
     SPIN  2
     eigenvalues:
       0.981  0.988  0.996  0.996  0.997
     eigenvectors (columns):
      -1.000  0.000 -0.000  0.000  0.000
      -0.000 -0.000  0.644 -0.765 -0.000
      -0.000 -0.000  0.765  0.644 -0.000
      -0.000  0.202 -0.000  0.000 -0.979
       0.000  0.979  0.000  0.000  0.202
     occupation matrix ns (before diag.):
       0.981 -0.000 -0.000 -0.000  0.000
      -0.000  0.996 -0.000  0.000  0.000
      -0.000 -0.000  0.996  0.000  0.000
      -0.000  0.000  0.000  0.997 -0.002
       0.000  0.000  0.000 -0.002  0.989
     ------------------------ ATOM   15 ------------------------
     Tr[ns( 15)] (up, down, total) =   1.05226  4.95942  6.01168
     Atomic magnetic moment for atom  15 =  -3.90716
     SPIN  1
     eigenvalues:
       0.113  0.196  0.196  0.252  0.296
     eigenvectors (columns):
      -0.000 -0.000  0.000 -1.000  0.000
      -0.000  0.012  1.000  0.000  0.000
      -0.000 -1.000  0.012  0.000  0.000
       0.960 -0.000  0.000  0.000  0.279
      -0.279  0.000 -0.000  0.000  0.960
     occupation matrix ns (before diag.):
       0.252 -0.000 -0.000  0.000  0.000
      -0.000  0.196  0.000  0.000  0.000
      -0.000  0.000  0.196  0.000  0.000
       0.000  0.000  0.000  0.128  0.049
       0.000  0.000  0.000  0.049  0.282
     SPIN  2
     eigenvalues:
       0.981  0.988  0.996  0.996  0.997
     eigenvectors (columns):
       1.000 -0.000  0.000  0.000 -0.000
       0.000 -0.000  0.765 -0.644 -0.000
       0.000 -0.000 -0.644 -0.765 -0.000
      -0.000  0.202 -0.000  0.000 -0.979
       0.000  0.979 -0.000 -0.000  0.202
     occupation matrix ns (before diag.):
       0.981 -0.000 -0.000  0.000 -0.000
      -0.000  0.996  0.000  0.000  0.000
      -0.000  0.000  0.996  0.000  0.000
       0.000  0.000  0.000  0.997 -0.002
      -0.000  0.000  0.000 -0.002  0.989
     ------------------------ ATOM   16 ------------------------
     Tr[ns( 16)] (up, down, total) =   1.05226  4.95942  6.01168
     Atomic magnetic moment for atom  16 =  -3.90716
     SPIN  1
     eigenvalues:
       0.113  0.196  0.196  0.252  0.296
     eigenvectors (columns):
      -0.000 -0.000 -0.000  1.000 -0.000
      -0.000  0.100 -0.995 -0.000  0.000
      -0.000 -0.995 -0.100 -0.000  0.000
       0.960 -0.000 -0.000  0.000  0.279
      -0.279  0.000  0.000  0.000  0.960
     occupation matrix ns (before diag.):
       0.252 -0.000 -0.000  0.000 -0.000
      -0.000  0.196  0.000  0.000  0.000
      -0.000  0.000  0.196  0.000  0.000
       0.000  0.000  0.000  0.128  0.049
      -0.000  0.000  0.000  0.049  0.282
     SPIN  2
     eigenvalues:
       0.981  0.988  0.996  0.996  0.997
     eigenvectors (columns):
      -1.000  0.000 -0.000 -0.000  0.000
      -0.000 -0.000  0.882 -0.471 -0.000
      -0.000 -0.000  0.471  0.882 -0.000
      -0.000  0.202 -0.000 -0.000 -0.979
       0.000  0.979  0.000  0.000  0.202
     occupation matrix ns (before diag.):
       0.981 -0.000 -0.000 -0.000  0.000
      -0.000  0.996 -0.000  0.000  0.000
      -0.000 -0.000  0.996  0.000  0.000
      -0.000  0.000  0.000  0.997 -0.002
       0.000  0.000  0.000 -0.002  0.989

     Number of occupied Hubbard levels =   45.2169

     HUBBARD ENERGY =    0.4028  (Ry)

     Magnetic moment per site  (integrated on atomic sphere of radius R)
     atom   1 (R=0.206)  charge=  6.8271  magn=  0.0029
     atom   2 (R=0.206)  charge=  6.8271  magn=  0.0029
     atom   3 (R=0.206)  charge=  6.8271  magn=  0.0029
     atom   4 (R=0.206)  charge=  6.8271  magn=  0.0029
     atom   5 (R=0.166)  charge=  7.2865  magn= -0.0017
     atom   6 (R=0.166)  charge=  7.2865  magn= -0.0017
     atom   7 (R=0.166)  charge=  7.2865  magn= -0.0017
     atom   8 (R=0.166)  charge=  7.2865  magn= -0.0017
     atom   9 (R=0.151)  charge= 12.2766  magn=  3.8891
     atom  10 (R=0.151)  charge= 12.2766  magn=  3.8891
     atom  11 (R=0.151)  charge= 12.2766  magn=  3.8891
     atom  12 (R=0.151)  charge= 12.2766  magn=  3.8891
     atom  13 (R=0.140)  charge= 12.8749  magn= -3.6082
     atom  14 (R=0.140)  charge= 12.8749  magn= -3.6082
     atom  15 (R=0.140)  charge= 12.8749  magn= -3.6082
     atom  16 (R=0.140)  charge= 12.8749  magn= -3.6082
     atom  17 (R=0.140)  charge=  5.2807  magn= -0.1182
     atom  18 (R=0.140)  charge=  5.2807  magn= -0.1182
     atom  19 (R=0.140)  charge=  5.2807  magn= -0.1182
     atom  20 (R=0.140)  charge=  5.2807  magn= -0.1182
     atom  21 (R=0.140)  charge=  5.2849  magn= -0.0825
     atom  22 (R=0.140)  charge=  5.2849  magn= -0.0825
     atom  23 (R=0.140)  charge=  5.2849  magn= -0.0825
     atom  24 (R=0.140)  charge=  5.2849  magn= -0.0825
     atom  25 (R=0.140)  charge=  5.2849  magn= -0.0825
     atom  26 (R=0.140)  charge=  5.2849  magn= -0.0825
     atom  27 (R=0.140)  charge=  5.2849  magn= -0.0825
     atom  28 (R=0.140)  charge=  5.2849  magn= -0.0825
     atom  29 (R=0.140)  charge=  5.2849  magn= -0.0825
     atom  30 (R=0.140)  charge=  5.2849  magn= -0.0825
     atom  31 (R=0.140)  charge=  5.2849  magn= -0.0825
     atom  32 (R=0.140)  charge=  5.2849  magn= -0.0825
     atom  33 (R=0.140)  charge=  5.2849  magn= -0.0825
     atom  34 (R=0.140)  charge=  5.2849  magn= -0.0825
     atom  35 (R=0.140)  charge=  5.2849  magn= -0.0825
     atom  36 (R=0.140)  charge=  5.2849  magn= -0.0825

     total cpu time spent up to now is      442.3 secs

     End of self-consistent calculation

 ------ SPIN UP ------------


          k = 0.0000 0.0000 0.0000 ( 48099 PWs)   bands (ev):

   -75.2472 -75.2471 -75.2471 -75.2471 -69.6137 -69.6137 -69.6136 -69.6136
   -41.3006 -41.3006 -41.3005 -41.3005 -41.1380 -41.1380 -41.1380 -41.1380
   -41.1380 -41.1380 -41.1380 -41.1380 -38.6327 -38.6327 -38.6327 -38.6327
   -38.4756 -38.4756 -38.4756 -38.4756 -38.4756 -38.4756 -38.4756 -38.4756
   -30.4173 -30.4173 -30.4023 -30.4022 -16.0259 -16.0252 -15.8926 -15.8920
   -10.8218 -10.8191 -10.8191 -10.8188 -10.8188 -10.8125 -10.5551 -10.5515
   -10.4860 -10.4860 -10.4860 -10.4860  -7.0595  -7.0303  -6.6134  -6.6058
    -6.5900  -6.4627  -6.2365  -6.1582  -6.1582  -6.1344  -6.1344  -6.0840
    -6.0069  -5.9947  -5.9134  -5.8955  -5.8529  -5.8529  -5.8279  -5.8279
    -1.6185  -1.6185  -1.6178  -1.6178  -1.2023  -1.1896  -1.1756  -1.1690
    -1.0369  -1.0369  -1.0363  -1.0363   4.6541   4.7976   5.2878   5.3687
     5.5611   5.8533   5.9061   6.0040   6.0253   6.0595   6.2343   6.2343
     6.2597   6.2736   6.2736   6.3440   6.3480   6.3508   6.3568   6.3656
     6.3923   6.5074   6.5074   6.5272   6.5272   6.6146   7.0580   7.0580
     7.0935   7.0935   7.2371   7.3223   7.3887   7.3887   7.4365   7.4365
     7.7580   7.8698   7.8698   7.9436   7.9854   7.9854   8.4739   8.5449
     8.5449   8.5793   8.7244   8.7373   8.7657   8.7657   8.8301   8.8301
     8.8390   8.8412   8.8412   8.8803   9.0724   9.0724   9.1052   9.1052
     9.1215   9.2735   9.3060   9.3497   9.3609   9.3669   9.4001   9.4001
     9.5760   9.5760   9.6554   9.6554   9.8100   9.8193   9.8193   9.8836
    10.7444  10.7490  10.8973  10.9274  11.9592  12.3440  12.3440  12.3878
    12.3878  12.5266  12.5266  12.5568  12.5568  12.5576  12.5660  12.6625
    12.6645  12.7592  12.7771  13.0570  13.6398  13.6631  13.8912  14.0538
    14.1626  14.1666  14.2825  14.2869  14.5839  14.8276  14.9419  15.3629
    15.3637  15.6122  15.6354  15.6618  15.7812

     occupation numbers 
     1.0000   1.0000   1.0000   1.0000   1.0000   1.0000   1.0000   1.0000
     1.0000   1.0000   1.0000   1.0000   1.0000   1.0000   1.0000   1.0000
     1.0000   1.0000   1.0000   1.0000   1.0000   1.0000   1.0000   1.0000
     1.0000   1.0000   1.0000   1.0000   1.0000   1.0000   1.0000   1.0000
     1.0000   1.0000   1.0000   1.0000   1.0000   1.0000   1.0000   1.0000
     1.0000   1.0000   1.0000   1.0000   1.0000   1.0000   1.0000   1.0000
     1.0000   1.0000   1.0000   1.0000   1.0000   1.0000   1.0000   1.0000
     1.0000   1.0000   1.0000   1.0000   1.0000   1.0000   1.0000   1.0000
     1.0000   1.0000   1.0000   1.0000   1.0000   1.0000   1.0000   1.0000
     1.0000   1.0000   1.0000   1.0000   1.0000   1.0000   1.0000   1.0000
     1.0000   1.0000   1.0000   1.0000   1.0000   1.0000   1.0000   1.0000
     1.0000   1.0000   1.0000   1.0000   1.0000   1.0000   1.0000   1.0000
     1.0000   1.0000   1.0000   1.0000   1.0000   1.0000   1.0000   1.0000
     1.0000   1.0000   1.0000   1.0000   1.0000   1.0000   1.0000   1.0000
     1.0000   1.0000   1.0000   1.0000   1.0000   1.0000   1.0000   1.0000
     1.0000   1.0000   1.0000   1.0000   1.0000   1.0000   1.0000   1.0000
     1.0000   1.0000   1.0000   1.0000   1.0000   1.0000   1.0000   1.0000
     1.0000   1.0000   1.0000   1.0000   1.0000   1.0000   1.0000   1.0000
     1.0000   1.0000   1.0000   1.0000   1.0000   1.0000   1.0000   1.0000
     1.0000   1.0000   1.0000   1.0000   1.0000   1.0000   1.0000   1.0000
     1.0000   1.0000   1.0000   1.0000   0.0000   0.0000   0.0000   0.0000
     0.0000   0.0000   0.0000   0.0000   0.0000   0.0000   0.0000   0.0000
     0.0000   0.0000   0.0000   0.0000   0.0000   0.0000   0.0000   0.0000
     0.0000   0.0000   0.0000   0.0000   0.0000   0.0000   0.0000   0.0000
     0.0000   0.0000   0.0000   0.0000   0.0000

          k = 0.0000 0.0000-0.1842 ( 47896 PWs)   bands (ev):

   -75.2472 -75.2472 -75.2471 -75.2471 -69.6137 -69.6137 -69.6136 -69.6136
   -41.3006 -41.3005 -41.3005 -41.3005 -41.1380 -41.1380 -41.1380 -41.1380
   -41.1380 -41.1380 -41.1380 -41.1380 -38.6327 -38.6327 -38.6327 -38.6327
   -38.4756 -38.4756 -38.4756 -38.4756 -38.4756 -38.4756 -38.4756 -38.4756
   -30.4173 -30.4173 -30.4023 -30.4023 -16.0256 -16.0255 -15.8923 -15.8923
   -10.8189 -10.8189 -10.8189 -10.8189 -10.8171 -10.8171 -10.5533 -10.5533
   -10.4860 -10.4860 -10.4860 -10.4860  -7.0444  -7.0444  -6.6118  -6.6118
    -6.5378  -6.5378  -6.1470  -6.1470  -6.1468  -6.1468  -6.1468  -6.1468
    -6.0014  -6.0014  -5.9038  -5.9038  -5.8399  -5.8399  -5.8399  -5.8399
    -1.6181  -1.6181  -1.6181  -1.6181  -1.1857  -1.1857  -1.1826  -1.1826
    -1.0366  -1.0366  -1.0366  -1.0366   4.7185   4.7185   5.3378   5.3378
     5.6936   5.6936   5.9276   5.9276   6.0433   6.0433   6.2535   6.2535
     6.2535   6.2535   6.3418   6.3418   6.3581   6.3581   6.3619   6.3619
     6.4853   6.4853   6.5176   6.5176   6.5176   6.5176   7.0769   7.0769
     7.0769   7.0769   7.2772   7.2772   7.4112   7.4112   7.4112   7.4112
     7.8658   7.8658   7.9166   7.9166   7.9166   7.9166   8.5280   8.5280
     8.6337   8.6337   8.6337   8.6337   8.7261   8.7261   8.8645   8.8645
     8.9435   8.9435   8.9435   8.9435   9.0080   9.0080   9.0080   9.0080
     9.1820   9.1820   9.3071   9.3071   9.3753   9.3753   9.4649   9.4649
     9.4649   9.4649   9.7663   9.7663   9.7663   9.7663   9.8591   9.8591
    10.7466  10.7466  10.9121  10.9121  12.2520  12.2520  12.3644  12.3644
    12.3644  12.3644  12.5434  12.5434  12.5434  12.5434  12.5618  12.5618
    12.6635  12.6635  13.0323  13.0323  13.7614  13.7614  13.7992  13.7992
    14.1651  14.1651  14.2843  14.2843  14.7827  14.7827  15.1696  15.1696
    15.4336  15.4337  15.6433  15.6433  15.8666

     occupation numbers 
     1.0000   1.0000   1.0000   1.0000   1.0000   1.0000   1.0000   1.0000
     1.0000   1.0000   1.0000   1.0000   1.0000   1.0000   1.0000   1.0000
     1.0000   1.0000   1.0000   1.0000   1.0000   1.0000   1.0000   1.0000
     1.0000   1.0000   1.0000   1.0000   1.0000   1.0000   1.0000   1.0000
     1.0000   1.0000   1.0000   1.0000   1.0000   1.0000   1.0000   1.0000
     1.0000   1.0000   1.0000   1.0000   1.0000   1.0000   1.0000   1.0000
     1.0000   1.0000   1.0000   1.0000   1.0000   1.0000   1.0000   1.0000
     1.0000   1.0000   1.0000   1.0000   1.0000   1.0000   1.0000   1.0000
     1.0000   1.0000   1.0000   1.0000   1.0000   1.0000   1.0000   1.0000
     1.0000   1.0000   1.0000   1.0000   1.0000   1.0000   1.0000   1.0000
     1.0000   1.0000   1.0000   1.0000   1.0000   1.0000   1.0000   1.0000
     1.0000   1.0000   1.0000   1.0000   1.0000   1.0000   1.0000   1.0000
     1.0000   1.0000   1.0000   1.0000   1.0000   1.0000   1.0000   1.0000
     1.0000   1.0000   1.0000   1.0000   1.0000   1.0000   1.0000   1.0000
     1.0000   1.0000   1.0000   1.0000   1.0000   1.0000   1.0000   1.0000
     1.0000   1.0000   1.0000   1.0000   1.0000   1.0000   1.0000   1.0000
     1.0000   1.0000   1.0000   1.0000   1.0000   1.0000   1.0000   1.0000
     1.0000   1.0000   1.0000   1.0000   1.0000   1.0000   1.0000   1.0000
     1.0000   1.0000   1.0000   1.0000   1.0000   1.0000   1.0000   1.0000
     1.0000   1.0000   1.0000   1.0000   1.0000   1.0000   1.0000   1.0000
     1.0000   1.0000   1.0000   1.0000   0.0000   0.0000   0.0000   0.0000
     0.0000   0.0000   0.0000   0.0000   0.0000   0.0000   0.0000   0.0000
     0.0000   0.0000   0.0000   0.0000   0.0000   0.0000   0.0000   0.0000
     0.0000   0.0000   0.0000   0.0000   0.0000   0.0000   0.0000   0.0000
     0.0000   0.0000   0.0000   0.0000   0.0000

          k = 0.0000 0.2500 0.0000 ( 48036 PWs)   bands (ev):

   -75.2472 -75.2471 -75.2471 -75.2471 -69.6137 -69.6137 -69.6136 -69.6136
   -41.3006 -41.3005 -41.3005 -41.3005 -41.1380 -41.1380 -41.1380 -41.1380
   -41.1380 -41.1380 -41.1380 -41.1380 -38.6327 -38.6327 -38.6327 -38.6327
   -38.4756 -38.4756 -38.4756 -38.4756 -38.4756 -38.4756 -38.4756 -38.4756
   -30.4151 -30.4151 -30.4045 -30.4045 -16.0046 -16.0039 -15.9102 -15.9096
   -10.7873 -10.7831 -10.7778 -10.7767 -10.7697 -10.7664 -10.5946 -10.5906
   -10.5458 -10.5457 -10.5370 -10.5368  -6.9147  -6.9016  -6.6811  -6.6708
    -6.6579  -6.4903  -6.2302  -6.1560  -6.1362  -6.1219  -6.1063  -6.1014
    -6.0531  -6.0320  -5.9702  -5.9554  -5.9109  -5.9107  -5.8505  -5.8322
    -1.5396  -1.5371  -1.3649  -1.3602  -1.1901  -1.1810  -1.1740  -1.1682
    -1.1280  -1.1251  -0.9344  -0.9322   4.8934   5.0617   5.4552   5.5541
     5.8481   5.9138   5.9166   5.9259   6.0412   6.1089   6.1870   6.1895
     6.1972   6.2487   6.2616   6.2689   6.2746   6.2790   6.3504   6.4248
     6.4372   6.4502   6.5265   6.5869   6.6984   6.7054   6.8507   6.9296
     7.1401   7.2216   7.2385   7.2928   7.3211   7.3236   7.3734   7.5084
     7.6337   7.6661   7.7628   7.8300   7.8427   8.0409   8.0928   8.1797
     8.2072   8.3046   8.3351   8.3710   8.5648   8.6348   8.7710   8.8794
     8.8838   8.8889   8.9613   8.9880   9.0216   9.0632   9.0811   9.1177
     9.1714   9.2041   9.2250   9.2269   9.2717   9.3138   9.3387   9.3489
     9.4640   9.4886   9.5261   9.5474   9.6631   9.6699   9.8441   9.8641
    10.8202  10.8411  10.9247  10.9285  12.1615  12.3066  12.3744  12.4105
    12.4633  12.4709  12.4883  12.5525  12.5933  12.5973  12.6292  12.6779
    12.6929  12.9088  12.9544  12.9781  13.9533  13.9932  14.0299  14.0746
    14.1832  14.2130  14.3840  14.3903  15.0019  15.0194  15.3976  15.4561
    15.5975  15.6784  15.6795  15.7171  15.8012

     occupation numbers 
     1.0000   1.0000   1.0000   1.0000   1.0000   1.0000   1.0000   1.0000
     1.0000   1.0000   1.0000   1.0000   1.0000   1.0000   1.0000   1.0000
     1.0000   1.0000   1.0000   1.0000   1.0000   1.0000   1.0000   1.0000
     1.0000   1.0000   1.0000   1.0000   1.0000   1.0000   1.0000   1.0000
     1.0000   1.0000   1.0000   1.0000   1.0000   1.0000   1.0000   1.0000
     1.0000   1.0000   1.0000   1.0000   1.0000   1.0000   1.0000   1.0000
     1.0000   1.0000   1.0000   1.0000   1.0000   1.0000   1.0000   1.0000
     1.0000   1.0000   1.0000   1.0000   1.0000   1.0000   1.0000   1.0000
     1.0000   1.0000   1.0000   1.0000   1.0000   1.0000   1.0000   1.0000
     1.0000   1.0000   1.0000   1.0000   1.0000   1.0000   1.0000   1.0000
     1.0000   1.0000   1.0000   1.0000   1.0000   1.0000   1.0000   1.0000
     1.0000   1.0000   1.0000   1.0000   1.0000   1.0000   1.0000   1.0000
     1.0000   1.0000   1.0000   1.0000   1.0000   1.0000   1.0000   1.0000
     1.0000   1.0000   1.0000   1.0000   1.0000   1.0000   1.0000   1.0000
     1.0000   1.0000   1.0000   1.0000   1.0000   1.0000   1.0000   1.0000
     1.0000   1.0000   1.0000   1.0000   1.0000   1.0000   1.0000   1.0000
     1.0000   1.0000   1.0000   1.0000   1.0000   1.0000   1.0000   1.0000
     1.0000   1.0000   1.0000   1.0000   1.0000   1.0000   1.0000   1.0000
     1.0000   1.0000   1.0000   1.0000   1.0000   1.0000   1.0000   1.0000
     1.0000   1.0000   1.0000   1.0000   1.0000   1.0000   1.0000   1.0000
     1.0000   1.0000   1.0000   1.0000   0.0000   0.0000   0.0000   0.0000
     0.0000   0.0000   0.0000   0.0000   0.0000   0.0000   0.0000   0.0000
     0.0000   0.0000   0.0000   0.0000   0.0000   0.0000   0.0000   0.0000
     0.0000   0.0000   0.0000   0.0000   0.0000   0.0000   0.0000   0.0000
     0.0000   0.0000   0.0000   0.0000   0.0000

          k = 0.0000 0.2500-0.1842 ( 48002 PWs)   bands (ev):

   -75.2472 -75.2472 -75.2471 -75.2471 -69.6137 -69.6137 -69.6136 -69.6136
   -41.3006 -41.3005 -41.3005 -41.3005 -41.1380 -41.1380 -41.1380 -41.1380
   -41.1380 -41.1380 -41.1380 -41.1380 -38.6327 -38.6327 -38.6327 -38.6327
   -38.4756 -38.4756 -38.4756 -38.4756 -38.4756 -38.4756 -38.4756 -38.4756
   -30.4151 -30.4151 -30.4045 -30.4045 -16.0042 -16.0042 -15.9099 -15.9099
   -10.7849 -10.7849 -10.7773 -10.7773 -10.7683 -10.7683 -10.5926 -10.5926
   -10.5458 -10.5458 -10.5369 -10.5369  -6.9090  -6.9090  -6.6820  -6.6820
    -6.5788  -6.5788  -6.1586  -6.1586  -6.1421  -6.1421  -6.1118  -6.1118
    -6.0457  -6.0457  -5.9621  -5.9621  -5.9099  -5.9099  -5.8417  -5.8417
    -1.5383  -1.5383  -1.3625  -1.3625  -1.1792  -1.1792  -1.1775  -1.1774
    -1.1266  -1.1265  -0.9332  -0.9332   4.9653   4.9653   5.5246   5.5246
     5.8929   5.8929   5.9576   5.9576   5.9819   5.9819   6.1852   6.1852
     6.2292   6.2292   6.2673   6.2673   6.2819   6.2819   6.4304   6.4304
     6.4606   6.4606   6.5456   6.5456   6.6437   6.6437   6.9297   6.9297
     7.2145   7.2145   7.2448   7.2448   7.3199   7.3199   7.4744   7.4744
     7.5785   7.5785   7.8030   7.8030   7.8883   7.8883   8.1083   8.1083
     8.3541   8.3541   8.4127   8.4127   8.5754   8.5754   8.8156   8.8156
     8.8886   8.8886   8.9667   8.9667   9.0424   9.0424   9.0921   9.0921
     9.1587   9.1587   9.2197   9.2197   9.2829   9.2829   9.4015   9.4015
     9.4092   9.4092   9.6063   9.6063   9.6371   9.6371   9.8520   9.8520
    10.8300  10.8300  10.9274  10.9274  12.2935  12.2935  12.3967  12.3967
    12.4736  12.4737  12.5555  12.5555  12.5685  12.5685  12.6235  12.6235
    12.6853  12.6853  13.0278  13.0278  13.9700  13.9700  14.0564  14.0564
    14.2662  14.2662  14.2945  14.2945  15.1693  15.1693  15.3196  15.3196
    15.4808  15.4808  15.7124  15.7128  15.8345

     occupation numbers 
     1.0000   1.0000   1.0000   1.0000   1.0000   1.0000   1.0000   1.0000
     1.0000   1.0000   1.0000   1.0000   1.0000   1.0000   1.0000   1.0000
     1.0000   1.0000   1.0000   1.0000   1.0000   1.0000   1.0000   1.0000
     1.0000   1.0000   1.0000   1.0000   1.0000   1.0000   1.0000   1.0000
     1.0000   1.0000   1.0000   1.0000   1.0000   1.0000   1.0000   1.0000
     1.0000   1.0000   1.0000   1.0000   1.0000   1.0000   1.0000   1.0000
     1.0000   1.0000   1.0000   1.0000   1.0000   1.0000   1.0000   1.0000
     1.0000   1.0000   1.0000   1.0000   1.0000   1.0000   1.0000   1.0000
     1.0000   1.0000   1.0000   1.0000   1.0000   1.0000   1.0000   1.0000
     1.0000   1.0000   1.0000   1.0000   1.0000   1.0000   1.0000   1.0000
     1.0000   1.0000   1.0000   1.0000   1.0000   1.0000   1.0000   1.0000
     1.0000   1.0000   1.0000   1.0000   1.0000   1.0000   1.0000   1.0000
     1.0000   1.0000   1.0000   1.0000   1.0000   1.0000   1.0000   1.0000
     1.0000   1.0000   1.0000   1.0000   1.0000   1.0000   1.0000   1.0000
     1.0000   1.0000   1.0000   1.0000   1.0000   1.0000   1.0000   1.0000
     1.0000   1.0000   1.0000   1.0000   1.0000   1.0000   1.0000   1.0000
     1.0000   1.0000   1.0000   1.0000   1.0000   1.0000   1.0000   1.0000
     1.0000   1.0000   1.0000   1.0000   1.0000   1.0000   1.0000   1.0000
     1.0000   1.0000   1.0000   1.0000   1.0000   1.0000   1.0000   1.0000
     1.0000   1.0000   1.0000   1.0000   1.0000   1.0000   1.0000   1.0000
     1.0000   1.0000   1.0000   1.0000   0.0000   0.0000   0.0000   0.0000
     0.0000   0.0000   0.0000   0.0000   0.0000   0.0000   0.0000   0.0000
     0.0000   0.0000   0.0000   0.0000   0.0000   0.0000   0.0000   0.0000
     0.0000   0.0000   0.0000   0.0000   0.0000   0.0000   0.0000   0.0000
     0.0000   0.0000   0.0000   0.0000   0.0000

          k = 0.0000-0.5000 0.0000 ( 48052 PWs)   bands (ev):

   -75.2472 -75.2472 -75.2471 -75.2471 -69.6137 -69.6137 -69.6136 -69.6136
   -41.3006 -41.3006 -41.3005 -41.3005 -41.1380 -41.1380 -41.1380 -41.1380
   -41.1380 -41.1380 -41.1380 -41.1380 -38.6327 -38.6327 -38.6327 -38.6327
   -38.4756 -38.4756 -38.4756 -38.4756 -38.4756 -38.4756 -38.4756 -38.4756
   -30.4098 -30.4098 -30.4098 -30.4098 -15.9555 -15.9555 -15.9549 -15.9549
   -10.6916 -10.6916 -10.6868 -10.6868 -10.6712 -10.6711 -10.6709 -10.6709
   -10.6556 -10.6556 -10.6547 -10.6547  -6.7739  -6.7739  -6.7503  -6.7503
    -6.4658  -6.4658  -6.3447  -6.3447  -6.1932  -6.1932  -6.1085  -6.1085
    -6.0285  -6.0285  -6.0148  -6.0148  -5.8990  -5.8990  -5.8813  -5.8813
    -1.3408  -1.3408  -1.3365  -1.3365  -1.1743  -1.1743  -1.1698  -1.1698
    -0.9655  -0.9655  -0.9587  -0.9587   5.3846   5.3846   5.6020   5.6020
     5.7706   5.7706   5.9542   5.9542   6.1636   6.1636   6.1694   6.1694
     6.2280   6.2280   6.2374   6.2374   6.4035   6.4035   6.4623   6.4623
     6.5330   6.5330   6.6303   6.6303   6.7097   6.7097   6.7886   6.7886
     6.9217   6.9217   7.1495   7.1495   7.2759   7.2759   7.4484   7.4484
     7.4567   7.4567   7.5733   7.5733   7.6936   7.6936   7.9776   7.9776
     8.1089   8.1089   8.4177   8.4177   8.5395   8.5395   8.6340   8.6340
     8.6502   8.6502   8.8389   8.8389   8.9183   8.9183   9.1018   9.1018
     9.1937   9.1937   9.3115   9.3115   9.3118   9.3118   9.3831   9.3831
     9.3958   9.3958   9.4270   9.4270   9.6675   9.6675   9.7839   9.7839
    10.8815  10.8815  10.8948  10.8948  12.3217  12.3217  12.3879  12.3879
    12.5672  12.5672  12.5888  12.5888  12.6451  12.6451  12.7131  12.7131
    12.7427  12.7427  13.0409  13.0409  13.8074  13.8074  13.8198  13.8198
    14.9763  14.9764  15.1060  15.1060  15.3913  15.3914  15.6838  15.7013
    15.7014  15.8071  15.8081  15.9035  15.9057

     occupation numbers 
     1.0000   1.0000   1.0000   1.0000   1.0000   1.0000   1.0000   1.0000
     1.0000   1.0000   1.0000   1.0000   1.0000   1.0000   1.0000   1.0000
     1.0000   1.0000   1.0000   1.0000   1.0000   1.0000   1.0000   1.0000
     1.0000   1.0000   1.0000   1.0000   1.0000   1.0000   1.0000   1.0000
     1.0000   1.0000   1.0000   1.0000   1.0000   1.0000   1.0000   1.0000
     1.0000   1.0000   1.0000   1.0000   1.0000   1.0000   1.0000   1.0000
     1.0000   1.0000   1.0000   1.0000   1.0000   1.0000   1.0000   1.0000
     1.0000   1.0000   1.0000   1.0000   1.0000   1.0000   1.0000   1.0000
     1.0000   1.0000   1.0000   1.0000   1.0000   1.0000   1.0000   1.0000
     1.0000   1.0000   1.0000   1.0000   1.0000   1.0000   1.0000   1.0000
     1.0000   1.0000   1.0000   1.0000   1.0000   1.0000   1.0000   1.0000
     1.0000   1.0000   1.0000   1.0000   1.0000   1.0000   1.0000   1.0000
     1.0000   1.0000   1.0000   1.0000   1.0000   1.0000   1.0000   1.0000
     1.0000   1.0000   1.0000   1.0000   1.0000   1.0000   1.0000   1.0000
     1.0000   1.0000   1.0000   1.0000   1.0000   1.0000   1.0000   1.0000
     1.0000   1.0000   1.0000   1.0000   1.0000   1.0000   1.0000   1.0000
     1.0000   1.0000   1.0000   1.0000   1.0000   1.0000   1.0000   1.0000
     1.0000   1.0000   1.0000   1.0000   1.0000   1.0000   1.0000   1.0000
     1.0000   1.0000   1.0000   1.0000   1.0000   1.0000   1.0000   1.0000
     1.0000   1.0000   1.0000   1.0000   1.0000   1.0000   1.0000   1.0000
     1.0000   1.0000   1.0000   1.0000   0.0000   0.0000   0.0000   0.0000
     0.0000   0.0000   0.0000   0.0000   0.0000   0.0000   0.0000   0.0000
     0.0000   0.0000   0.0000   0.0000   0.0000   0.0000   0.0000   0.0000
     0.0000   0.0000   0.0000   0.0000   0.0000   0.0000   0.0000   0.0000
     0.0000   0.0000   0.0000   0.0000   0.0000

          k = 0.0000-0.5000-0.1842 ( 48060 PWs)   bands (ev):

   -75.2472 -75.2472 -75.2471 -75.2471 -69.6137 -69.6137 -69.6136 -69.6136
   -41.3005 -41.3005 -41.3005 -41.3005 -41.1380 -41.1380 -41.1380 -41.1380
   -41.1380 -41.1380 -41.1380 -41.1380 -38.6327 -38.6327 -38.6327 -38.6327
   -38.4756 -38.4756 -38.4756 -38.4756 -38.4756 -38.4756 -38.4756 -38.4756
   -30.4098 -30.4098 -30.4098 -30.4098 -15.9552 -15.9552 -15.9552 -15.9552
   -10.6892 -10.6892 -10.6892 -10.6892 -10.6710 -10.6710 -10.6710 -10.6710
   -10.6552 -10.6552 -10.6552 -10.6552  -6.7633  -6.7633  -6.7633  -6.7633
    -6.4131  -6.4131  -6.4131  -6.4131  -6.1422  -6.1422  -6.1422  -6.1422
    -6.0213  -6.0213  -6.0213  -6.0213  -5.8900  -5.8900  -5.8900  -5.8900
    -1.3386  -1.3386  -1.3386  -1.3386  -1.1721  -1.1721  -1.1721  -1.1721
    -0.9621  -0.9621  -0.9621  -0.9621   5.4643   5.4643   5.4643   5.4643
     5.9026   5.9026   5.9026   5.9026   6.1460   6.1460   6.1460   6.1460
     6.2280   6.2280   6.2280   6.2280   6.4565   6.4565   6.4565   6.4565
     6.5672   6.5672   6.5672   6.5672   6.7291   6.7291   6.7291   6.7291
     7.0864   7.0864   7.0864   7.0864   7.3520   7.3520   7.3520   7.3520
     7.4559   7.4559   7.4559   7.4559   7.8108   7.8108   7.8108   7.8108
     8.3381   8.3381   8.3381   8.3381   8.6052   8.6052   8.6052   8.6052
     8.7607   8.7607   8.7607   8.7607   8.9210   8.9210   8.9210   8.9210
     9.2935   9.2935   9.2935   9.2935   9.3692   9.3692   9.3692   9.3692
     9.3990   9.3990   9.3990   9.3990   9.7197   9.7197   9.7197   9.7197
    10.8879  10.8879  10.8879  10.8879  12.3434  12.3434  12.3434  12.3434
    12.5802  12.5802  12.5802  12.5802  12.7268  12.7268  12.7268  12.7268
    12.8519  12.8519  12.8519  12.8519  13.8140  13.8140  13.8140  13.8140
    15.0424  15.0424  15.0424  15.0424  15.5470  15.5472  15.5472  15.5472
    15.7135  15.7135  15.7135  15.7136  15.9072

     occupation numbers 
     1.0000   1.0000   1.0000   1.0000   1.0000   1.0000   1.0000   1.0000
     1.0000   1.0000   1.0000   1.0000   1.0000   1.0000   1.0000   1.0000
     1.0000   1.0000   1.0000   1.0000   1.0000   1.0000   1.0000   1.0000
     1.0000   1.0000   1.0000   1.0000   1.0000   1.0000   1.0000   1.0000
     1.0000   1.0000   1.0000   1.0000   1.0000   1.0000   1.0000   1.0000
     1.0000   1.0000   1.0000   1.0000   1.0000   1.0000   1.0000   1.0000
     1.0000   1.0000   1.0000   1.0000   1.0000   1.0000   1.0000   1.0000
     1.0000   1.0000   1.0000   1.0000   1.0000   1.0000   1.0000   1.0000
     1.0000   1.0000   1.0000   1.0000   1.0000   1.0000   1.0000   1.0000
     1.0000   1.0000   1.0000   1.0000   1.0000   1.0000   1.0000   1.0000
     1.0000   1.0000   1.0000   1.0000   1.0000   1.0000   1.0000   1.0000
     1.0000   1.0000   1.0000   1.0000   1.0000   1.0000   1.0000   1.0000
     1.0000   1.0000   1.0000   1.0000   1.0000   1.0000   1.0000   1.0000
     1.0000   1.0000   1.0000   1.0000   1.0000   1.0000   1.0000   1.0000
     1.0000   1.0000   1.0000   1.0000   1.0000   1.0000   1.0000   1.0000
     1.0000   1.0000   1.0000   1.0000   1.0000   1.0000   1.0000   1.0000
     1.0000   1.0000   1.0000   1.0000   1.0000   1.0000   1.0000   1.0000
     1.0000   1.0000   1.0000   1.0000   1.0000   1.0000   1.0000   1.0000
     1.0000   1.0000   1.0000   1.0000   1.0000   1.0000   1.0000   1.0000
     1.0000   1.0000   1.0000   1.0000   1.0000   1.0000   1.0000   1.0000
     1.0000   1.0000   1.0000   1.0000   0.0000   0.0000   0.0000   0.0000
     0.0000   0.0000   0.0000   0.0000   0.0000   0.0000   0.0000   0.0000
     0.0000   0.0000   0.0000   0.0000   0.0000   0.0000   0.0000   0.0000
     0.0000   0.0000   0.0000   0.0000   0.0000   0.0000   0.0000   0.0000
     0.0000   0.0000   0.0000   0.0000   0.0000

          k = 0.2500 0.2500 0.0000 ( 47957 PWs)   bands (ev):

   -75.2472 -75.2472 -75.2471 -75.2471 -69.6137 -69.6137 -69.6136 -69.6136
   -41.3006 -41.3005 -41.3005 -41.3005 -41.1380 -41.1380 -41.1380 -41.1380
   -41.1380 -41.1380 -41.1380 -41.1380 -38.6327 -38.6327 -38.6327 -38.6327
   -38.4756 -38.4756 -38.4756 -38.4756 -38.4756 -38.4756 -38.4756 -38.4756
   -30.4135 -30.4135 -30.4060 -30.4060 -15.9887 -15.9880 -15.9219 -15.9213
   -10.8338 -10.8333 -10.7516 -10.7444 -10.6780 -10.6779 -10.6550 -10.6550
   -10.6166 -10.6121 -10.4806 -10.4806  -6.8607  -6.8211  -6.7451  -6.7446
    -6.6934  -6.5051  -6.2588  -6.2405  -6.2030  -6.1606  -6.1378  -6.1207
    -6.0194  -6.0105  -5.9469  -5.9284  -5.9175  -5.9148  -5.8668  -5.8586
    -1.3277  -1.3265  -1.2766  -1.2701  -1.1826  -1.1755  -1.1690  -1.1642
    -1.0363  -1.0311  -0.9584  -0.9577   5.0731   5.2558   5.5177   5.5635
     5.8519   5.9351   5.9541   6.0198   6.0318   6.0742   6.0788   6.0929
     6.1422   6.2851   6.3211   6.3265   6.3376   6.3658   6.4646   6.4803
     6.4868   6.5084   6.6423   6.6533   6.7284   6.7340   6.7830   6.9245
     7.0835   7.1019   7.2204   7.2228   7.2300   7.3540   7.3623   7.3902
     7.4899   7.7022   7.7377   7.8835   7.8972   7.9366   7.9649   7.9793
     7.9975   8.0737   8.2169   8.2331   8.3810   8.4530   8.4780   8.4927
     8.6370   8.7001   8.7206   8.7743   8.8579   8.8927   8.9999   9.0027
     9.0553   9.1413   9.1421   9.2320   9.2415   9.3692   9.4861   9.5119
     9.5353   9.5452   9.5904   9.7392   9.7423   9.7691   9.8833   9.9000
    10.7574  10.7715  10.8338  10.8513  12.2972  12.3350  12.3733  12.3824
    12.4398  12.4528  12.5118  12.5173  12.5595  12.6247  12.6342  12.7000
    12.7099  12.9164  12.9748  12.9899  13.6987  13.7078  13.7260  13.8197
    14.5659  14.7807  14.7812  14.8108  15.1903  15.2960  15.5300  15.6028
    15.6919  15.7189  15.7767  15.8234  15.8608

     occupation numbers 
     1.0000   1.0000   1.0000   1.0000   1.0000   1.0000   1.0000   1.0000
     1.0000   1.0000   1.0000   1.0000   1.0000   1.0000   1.0000   1.0000
     1.0000   1.0000   1.0000   1.0000   1.0000   1.0000   1.0000   1.0000
     1.0000   1.0000   1.0000   1.0000   1.0000   1.0000   1.0000   1.0000
     1.0000   1.0000   1.0000   1.0000   1.0000   1.0000   1.0000   1.0000
     1.0000   1.0000   1.0000   1.0000   1.0000   1.0000   1.0000   1.0000
     1.0000   1.0000   1.0000   1.0000   1.0000   1.0000   1.0000   1.0000
     1.0000   1.0000   1.0000   1.0000   1.0000   1.0000   1.0000   1.0000
     1.0000   1.0000   1.0000   1.0000   1.0000   1.0000   1.0000   1.0000
     1.0000   1.0000   1.0000   1.0000   1.0000   1.0000   1.0000   1.0000
     1.0000   1.0000   1.0000   1.0000   1.0000   1.0000   1.0000   1.0000
     1.0000   1.0000   1.0000   1.0000   1.0000   1.0000   1.0000   1.0000
     1.0000   1.0000   1.0000   1.0000   1.0000   1.0000   1.0000   1.0000
     1.0000   1.0000   1.0000   1.0000   1.0000   1.0000   1.0000   1.0000
     1.0000   1.0000   1.0000   1.0000   1.0000   1.0000   1.0000   1.0000
     1.0000   1.0000   1.0000   1.0000   1.0000   1.0000   1.0000   1.0000
     1.0000   1.0000   1.0000   1.0000   1.0000   1.0000   1.0000   1.0000
     1.0000   1.0000   1.0000   1.0000   1.0000   1.0000   1.0000   1.0000
     1.0000   1.0000   1.0000   1.0000   1.0000   1.0000   1.0000   1.0000
     1.0000   1.0000   1.0000   1.0000   1.0000   1.0000   1.0000   1.0000
     1.0000   1.0000   1.0000   1.0000   0.0000   0.0000   0.0000   0.0000
     0.0000   0.0000   0.0000   0.0000   0.0000   0.0000   0.0000   0.0000
     0.0000   0.0000   0.0000   0.0000   0.0000   0.0000   0.0000   0.0000
     0.0000   0.0000   0.0000   0.0000   0.0000   0.0000   0.0000   0.0000
     0.0000   0.0000   0.0000   0.0000   0.0000

          k = 0.2500 0.2500-0.1842 ( 48026 PWs)   bands (ev):

   -75.2472 -75.2472 -75.2471 -75.2471 -69.6137 -69.6137 -69.6136 -69.6136
   -41.3006 -41.3005 -41.3005 -41.3005 -41.1380 -41.1380 -41.1380 -41.1380
   -41.1380 -41.1380 -41.1380 -41.1380 -38.6327 -38.6327 -38.6327 -38.6327
   -38.4756 -38.4756 -38.4756 -38.4756 -38.4756 -38.4756 -38.4756 -38.4756
   -30.4135 -30.4135 -30.4060 -30.4060 -15.9883 -15.9883 -15.9216 -15.9216
   -10.8336 -10.8336 -10.7480 -10.7480 -10.6779 -10.6779 -10.6550 -10.6550
   -10.6143 -10.6143 -10.4806 -10.4806  -6.8446  -6.8446  -6.7523  -6.7523
    -6.5990  -6.5990  -6.2230  -6.2230  -6.1936  -6.1936  -6.1343  -6.1343
    -6.0140  -6.0140  -5.9377  -5.9377  -5.9145  -5.9145  -5.8643  -5.8643
    -1.3271  -1.3271  -1.2733  -1.2733  -1.1764  -1.1764  -1.1692  -1.1692
    -1.0337  -1.0337  -0.9580  -0.9580   5.1473   5.1473   5.5666   5.5666
     5.8810   5.8810   5.9852   5.9852   6.0561   6.0561   6.0931   6.0931
     6.1894   6.1895   6.3425   6.3425   6.3787   6.3787   6.4260   6.4260
     6.5057   6.5057   6.6574   6.6574   6.6996   6.6996   6.8532   6.8532
     7.1149   7.1149   7.2437   7.2437   7.2995   7.2995   7.4856   7.4856
     7.5462   7.5462   7.6426   7.6426   7.9161   7.9161   7.9301   7.9301
     8.0601   8.0601   8.3619   8.3619   8.4547   8.4547   8.4809   8.4809
     8.6579   8.6579   8.8021   8.8021   8.8262   8.8262   8.9294   8.9294
     9.0893   9.0893   9.1743   9.1743   9.3335   9.3335   9.4913   9.4913
     9.5492   9.5492   9.6463   9.6463   9.8211   9.8211   9.8461   9.8461
    10.7654  10.7654  10.8425  10.8425  12.3387  12.3388  12.3674  12.3674
    12.4752  12.4752  12.5380  12.5380  12.6206  12.6206  12.6490  12.6490
    12.7173  12.7173  13.0028  13.0028  13.6890  13.6890  13.7818  13.7818
    14.6421  14.6421  14.8300  14.8300  15.3950  15.3950  15.4873  15.4873
    15.6898  15.6899  15.7335  15.7394  15.8428

     occupation numbers 
     1.0000   1.0000   1.0000   1.0000   1.0000   1.0000   1.0000   1.0000
     1.0000   1.0000   1.0000   1.0000   1.0000   1.0000   1.0000   1.0000
     1.0000   1.0000   1.0000   1.0000   1.0000   1.0000   1.0000   1.0000
     1.0000   1.0000   1.0000   1.0000   1.0000   1.0000   1.0000   1.0000
     1.0000   1.0000   1.0000   1.0000   1.0000   1.0000   1.0000   1.0000
     1.0000   1.0000   1.0000   1.0000   1.0000   1.0000   1.0000   1.0000
     1.0000   1.0000   1.0000   1.0000   1.0000   1.0000   1.0000   1.0000
     1.0000   1.0000   1.0000   1.0000   1.0000   1.0000   1.0000   1.0000
     1.0000   1.0000   1.0000   1.0000   1.0000   1.0000   1.0000   1.0000
     1.0000   1.0000   1.0000   1.0000   1.0000   1.0000   1.0000   1.0000
     1.0000   1.0000   1.0000   1.0000   1.0000   1.0000   1.0000   1.0000
     1.0000   1.0000   1.0000   1.0000   1.0000   1.0000   1.0000   1.0000
     1.0000   1.0000   1.0000   1.0000   1.0000   1.0000   1.0000   1.0000
     1.0000   1.0000   1.0000   1.0000   1.0000   1.0000   1.0000   1.0000
     1.0000   1.0000   1.0000   1.0000   1.0000   1.0000   1.0000   1.0000
     1.0000   1.0000   1.0000   1.0000   1.0000   1.0000   1.0000   1.0000
     1.0000   1.0000   1.0000   1.0000   1.0000   1.0000   1.0000   1.0000
     1.0000   1.0000   1.0000   1.0000   1.0000   1.0000   1.0000   1.0000
     1.0000   1.0000   1.0000   1.0000   1.0000   1.0000   1.0000   1.0000
     1.0000   1.0000   1.0000   1.0000   1.0000   1.0000   1.0000   1.0000
     1.0000   1.0000   1.0000   1.0000   0.0000   0.0000   0.0000   0.0000
     0.0000   0.0000   0.0000   0.0000   0.0000   0.0000   0.0000   0.0000
     0.0000   0.0000   0.0000   0.0000   0.0000   0.0000   0.0000   0.0000
     0.0000   0.0000   0.0000   0.0000   0.0000   0.0000   0.0000   0.0000
     0.0000   0.0000   0.0000   0.0000   0.0000

          k = 0.2500-0.5000 0.0000 ( 47996 PWs)   bands (ev):

   -75.2472 -75.2472 -75.2471 -75.2471 -69.6137 -69.6137 -69.6136 -69.6136
   -41.3005 -41.3005 -41.3005 -41.3005 -41.1380 -41.1380 -41.1380 -41.1380
   -41.1380 -41.1380 -41.1380 -41.1380 -38.6327 -38.6327 -38.6327 -38.6327
   -38.4756 -38.4756 -38.4756 -38.4756 -38.4756 -38.4756 -38.4756 -38.4756
   -30.4098 -30.4098 -30.4098 -30.4097 -15.9531 -15.9531 -15.9526 -15.9526
   -10.7963 -10.7958 -10.7957 -10.7953 -10.6823 -10.6813 -10.6766 -10.6756
   -10.5321 -10.5321 -10.5317 -10.5316  -6.8285  -6.8269  -6.8182  -6.8172
    -6.4422  -6.4395  -6.3601  -6.3564  -6.2806  -6.2784  -6.2078  -6.2063
    -5.9767  -5.9642  -5.9480  -5.9265  -5.9184  -5.8831  -5.8821  -5.8561
    -1.1796  -1.1738  -1.1709  -1.1631  -1.1616  -1.1590  -1.1522  -1.1515
    -0.9471  -0.9453  -0.9437  -0.9418   5.3776   5.3913   5.5219   5.5458
     5.8177   5.8545   5.9782   5.9961   6.0579   6.0605   6.0614   6.0695
     6.1763   6.1924   6.3154   6.3897   6.4620   6.5032   6.5445   6.5701
     6.6056   6.6680   6.7218   6.7307   6.7659   6.8616   6.8852   6.8884
     7.0689   7.0840   7.1583   7.1932   7.2449   7.2632   7.3094   7.3359
     7.3778   7.4156   7.4260   7.4722   7.5774   7.5805   7.8630   7.9020
     8.0638   8.0886   8.1674   8.2245   8.2456   8.2648   8.4015   8.4698
     8.5137   8.5728   8.5749   8.6060   8.6104   8.6285   8.8595   8.8942
     8.9844   8.9987   9.2037   9.2210   9.3262   9.3571   9.4929   9.5999
     9.6128   9.6213   9.6979   9.7319   9.7797   9.7989   9.9017   9.9048
    10.7449  10.7535  10.7586  10.7894  12.3147  12.3212  12.3907  12.4171
    12.4957  12.5483  12.5839  12.6285  12.6390  12.6421  12.6446  12.6712
    12.6981  12.7194  12.9499  12.9765  13.4560  13.4840  13.5571  13.5682
    15.2388  15.2529  15.2554  15.2873  15.5101  15.5213  15.6741  15.7029
    15.7544  15.7576  15.8677  15.8905  16.1269

     occupation numbers 
     1.0000   1.0000   1.0000   1.0000   1.0000   1.0000   1.0000   1.0000
     1.0000   1.0000   1.0000   1.0000   1.0000   1.0000   1.0000   1.0000
     1.0000   1.0000   1.0000   1.0000   1.0000   1.0000   1.0000   1.0000
     1.0000   1.0000   1.0000   1.0000   1.0000   1.0000   1.0000   1.0000
     1.0000   1.0000   1.0000   1.0000   1.0000   1.0000   1.0000   1.0000
     1.0000   1.0000   1.0000   1.0000   1.0000   1.0000   1.0000   1.0000
     1.0000   1.0000   1.0000   1.0000   1.0000   1.0000   1.0000   1.0000
     1.0000   1.0000   1.0000   1.0000   1.0000   1.0000   1.0000   1.0000
     1.0000   1.0000   1.0000   1.0000   1.0000   1.0000   1.0000   1.0000
     1.0000   1.0000   1.0000   1.0000   1.0000   1.0000   1.0000   1.0000
     1.0000   1.0000   1.0000   1.0000   1.0000   1.0000   1.0000   1.0000
     1.0000   1.0000   1.0000   1.0000   1.0000   1.0000   1.0000   1.0000
     1.0000   1.0000   1.0000   1.0000   1.0000   1.0000   1.0000   1.0000
     1.0000   1.0000   1.0000   1.0000   1.0000   1.0000   1.0000   1.0000
     1.0000   1.0000   1.0000   1.0000   1.0000   1.0000   1.0000   1.0000
     1.0000   1.0000   1.0000   1.0000   1.0000   1.0000   1.0000   1.0000
     1.0000   1.0000   1.0000   1.0000   1.0000   1.0000   1.0000   1.0000
     1.0000   1.0000   1.0000   1.0000   1.0000   1.0000   1.0000   1.0000
     1.0000   1.0000   1.0000   1.0000   1.0000   1.0000   1.0000   1.0000
     1.0000   1.0000   1.0000   1.0000   1.0000   1.0000   1.0000   1.0000
     1.0000   1.0000   1.0000   1.0000   0.0000   0.0000   0.0000   0.0000
     0.0000   0.0000   0.0000   0.0000   0.0000   0.0000   0.0000   0.0000
     0.0000   0.0000   0.0000   0.0000   0.0000   0.0000   0.0000   0.0000
     0.0000   0.0000   0.0000   0.0000   0.0000   0.0000   0.0000   0.0000
     0.0000   0.0000   0.0000   0.0000   0.0000

          k = 0.2500-0.5000-0.1842 ( 48016 PWs)   bands (ev):

   -75.2472 -75.2472 -75.2472 -75.2472 -69.6136 -69.6136 -69.6136 -69.6136
   -41.3005 -41.3005 -41.3005 -41.3005 -41.1380 -41.1380 -41.1380 -41.1380
   -41.1380 -41.1380 -41.1380 -41.1380 -38.6327 -38.6327 -38.6327 -38.6327
   -38.4756 -38.4756 -38.4756 -38.4756 -38.4756 -38.4756 -38.4756 -38.4756
   -30.4098 -30.4098 -30.4098 -30.4098 -15.9529 -15.9529 -15.9528 -15.9528
   -10.7961 -10.7960 -10.7955 -10.7955 -10.6795 -10.6795 -10.6784 -10.6784
   -10.5321 -10.5321 -10.5317 -10.5317  -6.8234  -6.8234  -6.8222  -6.8222
    -6.4113  -6.4113  -6.4032  -6.4032  -6.2405  -6.2405  -6.2324  -6.2324
    -5.9698  -5.9698  -5.9358  -5.9358  -5.9013  -5.9013  -5.8685  -5.8685
    -1.1765  -1.1765  -1.1677  -1.1677  -1.1605  -1.1605  -1.1512  -1.1512
    -0.9454  -0.9454  -0.9435  -0.9435   5.4359   5.4359   5.4580   5.4580
     5.9084   5.9084   5.9439   5.9439   6.0482   6.0482   6.0664   6.0665
     6.2293   6.2293   6.3069   6.3069   6.4542   6.4542   6.5453   6.5453
     6.6256   6.6256   6.7191   6.7191   6.8784   6.8784   6.8979   6.8979
     7.1652   7.1652   7.1898   7.1898   7.2369   7.2369   7.2672   7.2672
     7.4191   7.4191   7.4843   7.4843   7.5462   7.5462   7.6521   7.6521
     8.1463   8.1463   8.2246   8.2246   8.3469   8.3469   8.4683   8.4683
     8.4994   8.4994   8.5846   8.5846   8.7524   8.7524   8.8156   8.8157
     8.9927   8.9927   9.0317   9.0317   9.4324   9.4324   9.5654   9.5654
     9.6153   9.6153   9.7408   9.7408   9.8206   9.8206   9.8284   9.8284
    10.7464  10.7464  10.7789  10.7789  12.3364  12.3364  12.3531  12.3531
    12.5494  12.5494  12.6136  12.6137  12.6484  12.6484  12.6660  12.6660
    12.8211  12.8211  12.8463  12.8463  13.4998  13.4998  13.5174  13.5174
    15.1739  15.1739  15.3714  15.3714  15.5875  15.5875  15.6242  15.6242
    15.7928  15.7928  15.9254  15.9258  16.0058

     occupation numbers 
     1.0000   1.0000   1.0000   1.0000   1.0000   1.0000   1.0000   1.0000
     1.0000   1.0000   1.0000   1.0000   1.0000   1.0000   1.0000   1.0000
     1.0000   1.0000   1.0000   1.0000   1.0000   1.0000   1.0000   1.0000
     1.0000   1.0000   1.0000   1.0000   1.0000   1.0000   1.0000   1.0000
     1.0000   1.0000   1.0000   1.0000   1.0000   1.0000   1.0000   1.0000
     1.0000   1.0000   1.0000   1.0000   1.0000   1.0000   1.0000   1.0000
     1.0000   1.0000   1.0000   1.0000   1.0000   1.0000   1.0000   1.0000
     1.0000   1.0000   1.0000   1.0000   1.0000   1.0000   1.0000   1.0000
     1.0000   1.0000   1.0000   1.0000   1.0000   1.0000   1.0000   1.0000
     1.0000   1.0000   1.0000   1.0000   1.0000   1.0000   1.0000   1.0000
     1.0000   1.0000   1.0000   1.0000   1.0000   1.0000   1.0000   1.0000
     1.0000   1.0000   1.0000   1.0000   1.0000   1.0000   1.0000   1.0000
     1.0000   1.0000   1.0000   1.0000   1.0000   1.0000   1.0000   1.0000
     1.0000   1.0000   1.0000   1.0000   1.0000   1.0000   1.0000   1.0000
     1.0000   1.0000   1.0000   1.0000   1.0000   1.0000   1.0000   1.0000
     1.0000   1.0000   1.0000   1.0000   1.0000   1.0000   1.0000   1.0000
     1.0000   1.0000   1.0000   1.0000   1.0000   1.0000   1.0000   1.0000
     1.0000   1.0000   1.0000   1.0000   1.0000   1.0000   1.0000   1.0000
     1.0000   1.0000   1.0000   1.0000   1.0000   1.0000   1.0000   1.0000
     1.0000   1.0000   1.0000   1.0000   1.0000   1.0000   1.0000   1.0000
     1.0000   1.0000   1.0000   1.0000   0.0000   0.0000   0.0000   0.0000
     0.0000   0.0000   0.0000   0.0000   0.0000   0.0000   0.0000   0.0000
     0.0000   0.0000   0.0000   0.0000   0.0000   0.0000   0.0000   0.0000
     0.0000   0.0000   0.0000   0.0000   0.0000   0.0000   0.0000   0.0000
     0.0000   0.0000   0.0000   0.0000   0.0000

          k =-0.5000-0.5000 0.0000 ( 48100 PWs)   bands (ev):

   -75.2472 -75.2472 -75.2472 -75.2472 -69.6136 -69.6136 -69.6136 -69.6136
   -41.3006 -41.3006 -41.3005 -41.3005 -41.1380 -41.1380 -41.1380 -41.1380
   -41.1380 -41.1380 -41.1380 -41.1380 -38.6327 -38.6327 -38.6327 -38.6327
   -38.4756 -38.4756 -38.4756 -38.4756 -38.4756 -38.4756 -38.4756 -38.4756
   -30.4098 -30.4098 -30.4097 -30.4097 -15.9508 -15.9508 -15.9502 -15.9502
   -10.8480 -10.8480 -10.8473 -10.8473 -10.6777 -10.6777 -10.6721 -10.6721
   -10.4753 -10.4753 -10.4753 -10.4753  -6.8999  -6.8999  -6.8645  -6.8645
    -6.4057  -6.4057  -6.3557  -6.3557  -6.3439  -6.3439  -6.2638  -6.2638
    -5.9934  -5.9934  -5.9488  -5.9488  -5.8625  -5.8625  -5.8150  -5.8150
    -1.1726  -1.1726  -1.1555  -1.1555  -1.0250  -1.0250  -1.0231  -1.0231
    -0.8762  -0.8762  -0.8754  -0.8754   5.3634   5.3634   5.4771   5.4771
     5.8460   5.8460   5.9767   5.9767   5.9830   5.9830   6.0923   6.0923
     6.1075   6.1075   6.2961   6.2961   6.6326   6.6326   6.6524   6.6524
     6.7756   6.7756   6.8201   6.8201   6.8996   6.8996   7.0777   7.0777
     7.1330   7.1330   7.1914   7.1914   7.3084   7.3084   7.4128   7.4128
     7.4198   7.4198   7.4307   7.4307   7.5473   7.5473   7.6371   7.6371
     7.7094   7.7094   7.9383   7.9383   8.0752   8.0752   8.1216   8.1217
     8.2190   8.2190   8.2595   8.2595   8.5358   8.5358   8.8201   8.8201
     9.0530   9.0530   9.3461   9.3461   9.4725   9.4725   9.6162   9.6162
     9.6480   9.6480   9.8145   9.8145   9.8284   9.8284   9.9979   9.9979
    10.6291  10.6291  10.6739  10.6739  12.3227  12.3227  12.3827  12.3827
    12.5195  12.5195  12.5607  12.5607  12.5655  12.5655  12.5796  12.5796
    12.7633  12.7633  12.8690  12.8690  13.2417  13.2417  13.4300  13.4300
    15.2646  15.2646  15.5164  15.5164  15.6638  15.6638  15.6725  15.6725
    15.8572  15.8576  15.9030  15.9032  16.0204

     occupation numbers 
     1.0000   1.0000   1.0000   1.0000   1.0000   1.0000   1.0000   1.0000
     1.0000   1.0000   1.0000   1.0000   1.0000   1.0000   1.0000   1.0000
     1.0000   1.0000   1.0000   1.0000   1.0000   1.0000   1.0000   1.0000
     1.0000   1.0000   1.0000   1.0000   1.0000   1.0000   1.0000   1.0000
     1.0000   1.0000   1.0000   1.0000   1.0000   1.0000   1.0000   1.0000
     1.0000   1.0000   1.0000   1.0000   1.0000   1.0000   1.0000   1.0000
     1.0000   1.0000   1.0000   1.0000   1.0000   1.0000   1.0000   1.0000
     1.0000   1.0000   1.0000   1.0000   1.0000   1.0000   1.0000   1.0000
     1.0000   1.0000   1.0000   1.0000   1.0000   1.0000   1.0000   1.0000
     1.0000   1.0000   1.0000   1.0000   1.0000   1.0000   1.0000   1.0000
     1.0000   1.0000   1.0000   1.0000   1.0000   1.0000   1.0000   1.0000
     1.0000   1.0000   1.0000   1.0000   1.0000   1.0000   1.0000   1.0000
     1.0000   1.0000   1.0000   1.0000   1.0000   1.0000   1.0000   1.0000
     1.0000   1.0000   1.0000   1.0000   1.0000   1.0000   1.0000   1.0000
     1.0000   1.0000   1.0000   1.0000   1.0000   1.0000   1.0000   1.0000
     1.0000   1.0000   1.0000   1.0000   1.0000   1.0000   1.0000   1.0000
     1.0000   1.0000   1.0000   1.0000   1.0000   1.0000   1.0000   1.0000
     1.0000   1.0000   1.0000   1.0000   1.0000   1.0000   1.0000   1.0000
     1.0000   1.0000   1.0000   1.0000   1.0000   1.0000   1.0000   1.0000
     1.0000   1.0000   1.0000   1.0000   1.0000   1.0000   1.0000   1.0000
     1.0000   1.0000   1.0000   1.0000   0.0000   0.0000   0.0000   0.0000
     0.0000   0.0000   0.0000   0.0000   0.0000   0.0000   0.0000   0.0000
     0.0000   0.0000   0.0000   0.0000   0.0000   0.0000   0.0000   0.0000
     0.0000   0.0000   0.0000   0.0000   0.0000   0.0000   0.0000   0.0000
     0.0000   0.0000   0.0000   0.0000   0.0000

          k =-0.5000-0.5000-0.1842 ( 47960 PWs)   bands (ev):

   -75.2472 -75.2472 -75.2472 -75.2472 -69.6136 -69.6136 -69.6136 -69.6136
   -41.3005 -41.3005 -41.3005 -41.3005 -41.1380 -41.1380 -41.1380 -41.1380
   -41.1380 -41.1380 -41.1380 -41.1380 -38.6327 -38.6327 -38.6327 -38.6327
   -38.4756 -38.4756 -38.4756 -38.4756 -38.4756 -38.4756 -38.4756 -38.4756
   -30.4098 -30.4098 -30.4098 -30.4098 -15.9505 -15.9505 -15.9505 -15.9505
   -10.8477 -10.8477 -10.8477 -10.8477 -10.6751 -10.6751 -10.6747 -10.6747
   -10.4753 -10.4753 -10.4753 -10.4753  -6.8830  -6.8830  -6.8830  -6.8830
    -6.3843  -6.3843  -6.3792  -6.3792  -6.3053  -6.3053  -6.3053  -6.3053
    -5.9689  -5.9689  -5.9688  -5.9688  -5.8425  -5.8425  -5.8330  -5.8329
    -1.1709  -1.1709  -1.1571  -1.1571  -1.0240  -1.0240  -1.0240  -1.0240
    -0.8758  -0.8758  -0.8758  -0.8758   5.4133   5.4133   5.4133   5.4133
     5.9194   5.9194   5.9194   5.9194   6.0694   6.0694   6.1017   6.1017
     6.1017   6.1017   6.1404   6.1404   6.6250   6.6250   6.6528   6.6528
     6.7980   6.7980   6.7980   6.7980   7.0208   7.0208   7.0528   7.0528
     7.2519   7.2519   7.2863   7.2863   7.2863   7.2863   7.2935   7.2935
     7.4399   7.4399   7.4624   7.4624   7.5962   7.5962   7.5962   7.5962
     7.6035   7.6035   7.6568   7.6568   8.0997   8.0997   8.0997   8.0997
     8.3562   8.3562   8.4276   8.4276   8.6642   8.6642   8.6728   8.6728
     9.0857   9.0857   9.1289   9.1289   9.6372   9.6372   9.6372   9.6372
     9.6424   9.6424   9.7697   9.7697   9.9008   9.9008   9.9008   9.9008
    10.6557  10.6557  10.6557  10.6557  12.3337  12.3337  12.3665  12.3665
    12.5366  12.5366  12.5659  12.5659  12.5659  12.5659  12.5677  12.5677
    12.8243  12.8243  12.8243  12.8243  13.3259  13.3259  13.3259  13.3259
    15.2352  15.2352  15.5821  15.5821  15.6603  15.6606  15.6703  15.6703
    15.9454  15.9482  15.9482  15.9482  15.9482

     occupation numbers 
     1.0000   1.0000   1.0000   1.0000   1.0000   1.0000   1.0000   1.0000
     1.0000   1.0000   1.0000   1.0000   1.0000   1.0000   1.0000   1.0000
     1.0000   1.0000   1.0000   1.0000   1.0000   1.0000   1.0000   1.0000
     1.0000   1.0000   1.0000   1.0000   1.0000   1.0000   1.0000   1.0000
     1.0000   1.0000   1.0000   1.0000   1.0000   1.0000   1.0000   1.0000
     1.0000   1.0000   1.0000   1.0000   1.0000   1.0000   1.0000   1.0000
     1.0000   1.0000   1.0000   1.0000   1.0000   1.0000   1.0000   1.0000
     1.0000   1.0000   1.0000   1.0000   1.0000   1.0000   1.0000   1.0000
     1.0000   1.0000   1.0000   1.0000   1.0000   1.0000   1.0000   1.0000
     1.0000   1.0000   1.0000   1.0000   1.0000   1.0000   1.0000   1.0000
     1.0000   1.0000   1.0000   1.0000   1.0000   1.0000   1.0000   1.0000
     1.0000   1.0000   1.0000   1.0000   1.0000   1.0000   1.0000   1.0000
     1.0000   1.0000   1.0000   1.0000   1.0000   1.0000   1.0000   1.0000
     1.0000   1.0000   1.0000   1.0000   1.0000   1.0000   1.0000   1.0000
     1.0000   1.0000   1.0000   1.0000   1.0000   1.0000   1.0000   1.0000
     1.0000   1.0000   1.0000   1.0000   1.0000   1.0000   1.0000   1.0000
     1.0000   1.0000   1.0000   1.0000   1.0000   1.0000   1.0000   1.0000
     1.0000   1.0000   1.0000   1.0000   1.0000   1.0000   1.0000   1.0000
     1.0000   1.0000   1.0000   1.0000   1.0000   1.0000   1.0000   1.0000
     1.0000   1.0000   1.0000   1.0000   1.0000   1.0000   1.0000   1.0000
     1.0000   1.0000   1.0000   1.0000   0.0000   0.0000   0.0000   0.0000
     0.0000   0.0000   0.0000   0.0000   0.0000   0.0000   0.0000   0.0000
     0.0000   0.0000   0.0000   0.0000   0.0000   0.0000   0.0000   0.0000
     0.0000   0.0000   0.0000   0.0000   0.0000   0.0000   0.0000   0.0000
     0.0000   0.0000   0.0000   0.0000   0.0000

 ------ SPIN DOWN ----------


          k = 0.0000 0.0000 0.0000 ( 48099 PWs)   bands (ev):

   -79.5872 -79.5872 -79.5872 -79.5872 -65.2179 -65.2178 -65.2178 -65.2178
   -45.7626 -45.7626 -45.7626 -45.7626 -45.7093 -45.7093 -45.7093 -45.7093
   -45.7093 -45.7093 -45.7093 -45.7093 -33.9984 -33.9984 -33.9983 -33.9983
   -33.8058 -33.8058 -33.8058 -33.8058 -33.8058 -33.8058 -33.8058 -33.8058
   -30.4194 -30.4194 -30.4040 -30.4040 -16.0244 -16.0236 -15.8895 -15.8891
   -10.8405 -10.8310 -10.8307 -10.8307 -10.8304 -10.8304 -10.5646 -10.5610
   -10.4895 -10.4895 -10.4894 -10.4894  -7.1906  -7.1726  -6.8285  -6.8195
    -6.8110  -6.6852  -6.3750  -6.3036  -6.3036  -6.2815  -6.2815  -6.2378
    -6.1732  -6.1616  -6.0873  -6.0703  -5.9897  -5.9897  -5.9663  -5.9663
    -1.6251  -1.6251  -1.6244  -1.6244  -1.2002  -1.1867  -1.1717  -1.1683
    -1.0375  -1.0375  -1.0369  -1.0369   4.4861   4.5139   4.5917   4.6502
     4.6991   4.8819   4.8858   4.9413   4.9439   5.0276   5.0331   5.0535
     5.0862   5.0862   5.1189   5.1189   5.1643   5.1643   5.1783   5.1924
     5.1924   5.1963   5.2158   5.6721   6.3392   6.3686   6.5290   6.5290
     6.5728   6.5728   6.9580   6.9580   6.9846   6.9846   7.1906   7.3172
     7.4397   7.4495   7.4500   7.4805   7.9003   7.9003   8.0169   8.1677
     8.1677   8.2013   8.2603   8.2603   8.5059   8.5059   8.5712   8.5712
     8.6146   8.7090   8.7468   8.7468   8.8090   8.8090   8.9036   8.9079
     8.9429   8.9429   8.9618   9.1509   9.1509   9.1603   9.1900   9.2978
     9.2978   9.3137   9.3137   9.3494   9.3938   9.3938   9.4632   9.4980
    10.2488  10.2518  10.4073  10.4378  13.2430  13.4142  13.4808  13.5991
    13.8499  14.1081  14.2796  14.2796  14.3028  14.3028  14.3380  14.3380
    14.3661  14.3661  14.3776  14.3959  14.5433  14.6008  14.6546  14.9352
    15.1831  15.1971  15.6100  15.6100  15.6120  15.6226  15.6710  15.7308
    15.7509  15.7799  15.7881  15.7881  15.9755

     occupation numbers 
     1.0000   1.0000   1.0000   1.0000   1.0000   1.0000   1.0000   1.0000
     1.0000   1.0000   1.0000   1.0000   1.0000   1.0000   1.0000   1.0000
     1.0000   1.0000   1.0000   1.0000   1.0000   1.0000   1.0000   1.0000
     1.0000   1.0000   1.0000   1.0000   1.0000   1.0000   1.0000   1.0000
     1.0000   1.0000   1.0000   1.0000   1.0000   1.0000   1.0000   1.0000
     1.0000   1.0000   1.0000   1.0000   1.0000   1.0000   1.0000   1.0000
     1.0000   1.0000   1.0000   1.0000   1.0000   1.0000   1.0000   1.0000
     1.0000   1.0000   1.0000   1.0000   1.0000   1.0000   1.0000   1.0000
     1.0000   1.0000   1.0000   1.0000   1.0000   1.0000   1.0000   1.0000
     1.0000   1.0000   1.0000   1.0000   1.0000   1.0000   1.0000   1.0000
     1.0000   1.0000   1.0000   1.0000   1.0000   1.0000   1.0000   1.0000
     1.0000   1.0000   1.0000   1.0000   1.0000   1.0000   1.0000   1.0000
     1.0000   1.0000   1.0000   1.0000   1.0000   1.0000   1.0000   1.0000
     1.0000   1.0000   1.0000   1.0000   1.0000   1.0000   1.0000   1.0000
     1.0000   1.0000   1.0000   1.0000   1.0000   1.0000   1.0000   1.0000
     1.0000   1.0000   1.0000   1.0000   1.0000   1.0000   1.0000   1.0000
     1.0000   1.0000   1.0000   1.0000   1.0000   1.0000   1.0000   1.0000
     1.0000   1.0000   1.0000   1.0000   1.0000   1.0000   1.0000   1.0000
     1.0000   1.0000   1.0000   1.0000   1.0000   1.0000   1.0000   1.0000
     1.0000   1.0000   1.0000   1.0000   1.0000   1.0000   1.0000   1.0000
     1.0000   1.0000   1.0000   1.0000   0.0000   0.0000   0.0000   0.0000
     0.0000   0.0000   0.0000   0.0000   0.0000   0.0000   0.0000   0.0000
     0.0000   0.0000   0.0000   0.0000   0.0000   0.0000   0.0000   0.0000
     0.0000   0.0000   0.0000   0.0000   0.0000   0.0000   0.0000   0.0000
     0.0000   0.0000   0.0000   0.0000   0.0000

          k = 0.0000 0.0000-0.1842 ( 47896 PWs)   bands (ev):

   -79.5872 -79.5872 -79.5872 -79.5872 -65.2179 -65.2178 -65.2178 -65.2178
   -45.7626 -45.7626 -45.7626 -45.7626 -45.7093 -45.7093 -45.7093 -45.7093
   -45.7093 -45.7093 -45.7093 -45.7093 -33.9984 -33.9984 -33.9983 -33.9983
   -33.8058 -33.8058 -33.8058 -33.8058 -33.8058 -33.8058 -33.8058 -33.8058
   -30.4194 -30.4194 -30.4040 -30.4040 -16.0240 -16.0240 -15.8893 -15.8893
   -10.8358 -10.8358 -10.8306 -10.8306 -10.8306 -10.8306 -10.5628 -10.5628
   -10.4894 -10.4894 -10.4894 -10.4894  -7.1811  -7.1811  -6.8272  -6.8272
    -6.7550  -6.7550  -6.2968  -6.2968  -6.2930  -6.2930  -6.2930  -6.2930
    -6.1680  -6.1680  -6.0783  -6.0783  -5.9776  -5.9776  -5.9776  -5.9776
    -1.6248  -1.6248  -1.6248  -1.6248  -1.1843  -1.1843  -1.1792  -1.1792
    -1.0372  -1.0372  -1.0372  -1.0372   4.4742   4.4742   4.6841   4.6841
     4.7735   4.7735   4.9120   4.9120   4.9441   4.9441   5.0319   5.0319
     5.0996   5.0996   5.0996   5.0996   5.1317   5.1317   5.1813   5.1813
     5.1813   5.1813   5.5346   5.5346   6.3515   6.3515   6.5501   6.5501
     6.5501   6.5501   6.9720   6.9720   6.9720   6.9720   7.3105   7.3105
     7.3513   7.3513   7.4928   7.4928   7.9901   7.9901   7.9901   7.9901
     8.1002   8.1002   8.4021   8.4021   8.4021   8.4021   8.6699   8.6699
     8.6977   8.6977   8.6977   8.6977   8.8591   8.8591   8.8591   8.8591
     8.9133   8.9133   9.0823   9.0823   9.2063   9.2063   9.2063   9.2063
     9.2768   9.2768   9.3746   9.3746   9.3747   9.3747   9.4532   9.4532
    10.2502  10.2502  10.4223  10.4223  13.3066  13.3066  13.7196  13.7196
    13.7786  13.7786  14.2876  14.2876  14.2876  14.2876  14.3552  14.3552
    14.3552  14.3552  14.3871  14.3871  14.6280  14.6280  14.7569  14.7569
    15.1829  15.1829  15.6793  15.6793  15.6793  15.6793  15.6894  15.6894
    15.6933  15.6933  15.7388  15.7388  15.8118

     occupation numbers 
     1.0000   1.0000   1.0000   1.0000   1.0000   1.0000   1.0000   1.0000
     1.0000   1.0000   1.0000   1.0000   1.0000   1.0000   1.0000   1.0000
     1.0000   1.0000   1.0000   1.0000   1.0000   1.0000   1.0000   1.0000
     1.0000   1.0000   1.0000   1.0000   1.0000   1.0000   1.0000   1.0000
     1.0000   1.0000   1.0000   1.0000   1.0000   1.0000   1.0000   1.0000
     1.0000   1.0000   1.0000   1.0000   1.0000   1.0000   1.0000   1.0000
     1.0000   1.0000   1.0000   1.0000   1.0000   1.0000   1.0000   1.0000
     1.0000   1.0000   1.0000   1.0000   1.0000   1.0000   1.0000   1.0000
     1.0000   1.0000   1.0000   1.0000   1.0000   1.0000   1.0000   1.0000
     1.0000   1.0000   1.0000   1.0000   1.0000   1.0000   1.0000   1.0000
     1.0000   1.0000   1.0000   1.0000   1.0000   1.0000   1.0000   1.0000
     1.0000   1.0000   1.0000   1.0000   1.0000   1.0000   1.0000   1.0000
     1.0000   1.0000   1.0000   1.0000   1.0000   1.0000   1.0000   1.0000
     1.0000   1.0000   1.0000   1.0000   1.0000   1.0000   1.0000   1.0000
     1.0000   1.0000   1.0000   1.0000   1.0000   1.0000   1.0000   1.0000
     1.0000   1.0000   1.0000   1.0000   1.0000   1.0000   1.0000   1.0000
     1.0000   1.0000   1.0000   1.0000   1.0000   1.0000   1.0000   1.0000
     1.0000   1.0000   1.0000   1.0000   1.0000   1.0000   1.0000   1.0000
     1.0000   1.0000   1.0000   1.0000   1.0000   1.0000   1.0000   1.0000
     1.0000   1.0000   1.0000   1.0000   1.0000   1.0000   1.0000   1.0000
     1.0000   1.0000   1.0000   1.0000   0.0000   0.0000   0.0000   0.0000
     0.0000   0.0000   0.0000   0.0000   0.0000   0.0000   0.0000   0.0000
     0.0000   0.0000   0.0000   0.0000   0.0000   0.0000   0.0000   0.0000
     0.0000   0.0000   0.0000   0.0000   0.0000   0.0000   0.0000   0.0000
     0.0000   0.0000   0.0000   0.0000   0.0000

          k = 0.0000 0.2500 0.0000 ( 48036 PWs)   bands (ev):

   -79.5872 -79.5872 -79.5872 -79.5872 -65.2179 -65.2178 -65.2178 -65.2178
   -45.7626 -45.7626 -45.7626 -45.7626 -45.7093 -45.7093 -45.7093 -45.7093
   -45.7093 -45.7093 -45.7093 -45.7093 -33.9984 -33.9984 -33.9983 -33.9983
   -33.8059 -33.8059 -33.8058 -33.8058 -33.8058 -33.8058 -33.8058 -33.8058
   -30.4171 -30.4171 -30.4062 -30.4062 -16.0027 -16.0020 -15.9072 -15.9067
   -10.8029 -10.7968 -10.7895 -10.7888 -10.7816 -10.7797 -10.6055 -10.6014
   -10.5513 -10.5511 -10.5419 -10.5418  -7.0667  -7.0336  -6.8903  -6.8771
    -6.8739  -6.6994  -6.3743  -6.2999  -6.2863  -6.2703  -6.2645  -6.2441
    -6.1949  -6.1794  -6.1391  -6.1232  -6.0517  -6.0497  -6.0114  -5.9880
    -1.5454  -1.5430  -1.3754  -1.3709  -1.1871  -1.1787  -1.1709  -1.1662
    -1.1295  -1.1267  -0.9391  -0.9368   4.6146   4.6165   4.6942   4.7080
     4.8221   4.8606   4.9028   4.9055   4.9233   4.9511   4.9889   4.9952
     5.0072   5.0815   5.1163   5.1205   5.1368   5.1597   5.1790   5.2029
     5.2404   5.3625   5.4612   5.7346   6.3820   6.4359   6.4414   6.4795
     6.7251   6.8020   6.8066   6.8429   7.0449   7.0876   7.0915   7.1076
     7.4431   7.5115   7.5545   7.5742   7.7881   7.9209   7.9485   7.9643
     8.0117   8.1096   8.1946   8.3031   8.3405   8.3521   8.3627   8.4446
     8.4505   8.4586   8.5637   8.7015   8.7076   8.7150   8.7865   8.8020
     8.8186   8.8985   8.8995   8.9938   9.0116   9.0543   9.0677   9.1373
     9.1745   9.2002   9.2132   9.2449   9.2517   9.3366   9.3896   9.4854
    10.2700  10.2705  10.4072  10.4123  13.4351  13.7174  13.8003  14.1310
    14.1939  14.2513  14.3030  14.3048  14.3207  14.3325  14.3475  14.3585
    14.3988  14.4560  14.5391  14.5649  14.6219  14.6433  14.8955  15.2784
    15.3744  15.4857  15.5581  15.5725  15.6367  15.6922  15.7526  15.8116
    15.8372  15.8921  15.9512  16.0171  16.0801

     occupation numbers 
     1.0000   1.0000   1.0000   1.0000   1.0000   1.0000   1.0000   1.0000
     1.0000   1.0000   1.0000   1.0000   1.0000   1.0000   1.0000   1.0000
     1.0000   1.0000   1.0000   1.0000   1.0000   1.0000   1.0000   1.0000
     1.0000   1.0000   1.0000   1.0000   1.0000   1.0000   1.0000   1.0000
     1.0000   1.0000   1.0000   1.0000   1.0000   1.0000   1.0000   1.0000
     1.0000   1.0000   1.0000   1.0000   1.0000   1.0000   1.0000   1.0000
     1.0000   1.0000   1.0000   1.0000   1.0000   1.0000   1.0000   1.0000
     1.0000   1.0000   1.0000   1.0000   1.0000   1.0000   1.0000   1.0000
     1.0000   1.0000   1.0000   1.0000   1.0000   1.0000   1.0000   1.0000
     1.0000   1.0000   1.0000   1.0000   1.0000   1.0000   1.0000   1.0000
     1.0000   1.0000   1.0000   1.0000   1.0000   1.0000   1.0000   1.0000
     1.0000   1.0000   1.0000   1.0000   1.0000   1.0000   1.0000   1.0000
     1.0000   1.0000   1.0000   1.0000   1.0000   1.0000   1.0000   1.0000
     1.0000   1.0000   1.0000   1.0000   1.0000   1.0000   1.0000   1.0000
     1.0000   1.0000   1.0000   1.0000   1.0000   1.0000   1.0000   1.0000
     1.0000   1.0000   1.0000   1.0000   1.0000   1.0000   1.0000   1.0000
     1.0000   1.0000   1.0000   1.0000   1.0000   1.0000   1.0000   1.0000
     1.0000   1.0000   1.0000   1.0000   1.0000   1.0000   1.0000   1.0000
     1.0000   1.0000   1.0000   1.0000   1.0000   1.0000   1.0000   1.0000
     1.0000   1.0000   1.0000   1.0000   1.0000   1.0000   1.0000   1.0000
     1.0000   1.0000   1.0000   1.0000   0.0000   0.0000   0.0000   0.0000
     0.0000   0.0000   0.0000   0.0000   0.0000   0.0000   0.0000   0.0000
     0.0000   0.0000   0.0000   0.0000   0.0000   0.0000   0.0000   0.0000
     0.0000   0.0000   0.0000   0.0000   0.0000   0.0000   0.0000   0.0000
     0.0000   0.0000   0.0000   0.0000   0.0000

          k = 0.0000 0.2500-0.1842 ( 48002 PWs)   bands (ev):

   -79.5872 -79.5872 -79.5872 -79.5872 -65.2178 -65.2178 -65.2178 -65.2178
   -45.7626 -45.7626 -45.7626 -45.7626 -45.7093 -45.7093 -45.7093 -45.7093
   -45.7093 -45.7093 -45.7093 -45.7093 -33.9984 -33.9984 -33.9983 -33.9983
   -33.8059 -33.8059 -33.8058 -33.8058 -33.8058 -33.8058 -33.8058 -33.8058
   -30.4171 -30.4171 -30.4062 -30.4062 -16.0023 -16.0023 -15.9070 -15.9070
   -10.7997 -10.7997 -10.7892 -10.7892 -10.7808 -10.7808 -10.6034 -10.6034
   -10.5512 -10.5512 -10.5418 -10.5418  -7.0534  -7.0534  -6.8914  -6.8914
    -6.7842  -6.7842  -6.3137  -6.3137  -6.2908  -6.2908  -6.2543  -6.2543
    -6.1911  -6.1911  -6.1298  -6.1298  -6.0508  -6.0508  -5.9994  -5.9994
    -1.5442  -1.5442  -1.3731  -1.3731  -1.1767  -1.1767  -1.1747  -1.1747
    -1.1281  -1.1281  -0.9379  -0.9379   4.5877   4.5877   4.7891   4.7891
     4.8345   4.8345   4.8764   4.8764   4.9102   4.9102   4.9543   4.9543
     5.0801   5.0801   5.1274   5.1274   5.1317   5.1317   5.1947   5.1947
     5.2681   5.2681   5.6411   5.6411   6.3456   6.3456   6.5948   6.5948
     6.6699   6.6699   6.8242   6.8242   7.0667   7.0667   7.1261   7.1261
     7.4719   7.4719   7.5759   7.5759   7.8725   7.8725   7.9295   7.9295
     7.9889   7.9889   8.2675   8.2675   8.3461   8.3461   8.4037   8.4037
     8.5377   8.5377   8.6280   8.6280   8.6842   8.6842   8.8091   8.8091
     8.8786   8.8786   8.8902   8.8902   9.0302   9.0302   9.1148   9.1148
     9.1792   9.1792   9.2420   9.2420   9.3446   9.3446   9.3924   9.3924
    10.2702  10.2702  10.4099  10.4099  13.5276  13.5276  14.0405  14.0405
    14.1764  14.1764  14.2721  14.2721  14.3617  14.3617  14.3713  14.3713
    14.4162  14.4162  14.5634  14.5634  14.6234  14.6234  15.0536  15.0536
    15.4072  15.4072  15.5140  15.5141  15.6698  15.6698  15.8092  15.8093
    15.9624  15.9627  16.0046  16.0055  16.0350

     occupation numbers 
     1.0000   1.0000   1.0000   1.0000   1.0000   1.0000   1.0000   1.0000
     1.0000   1.0000   1.0000   1.0000   1.0000   1.0000   1.0000   1.0000
     1.0000   1.0000   1.0000   1.0000   1.0000   1.0000   1.0000   1.0000
     1.0000   1.0000   1.0000   1.0000   1.0000   1.0000   1.0000   1.0000
     1.0000   1.0000   1.0000   1.0000   1.0000   1.0000   1.0000   1.0000
     1.0000   1.0000   1.0000   1.0000   1.0000   1.0000   1.0000   1.0000
     1.0000   1.0000   1.0000   1.0000   1.0000   1.0000   1.0000   1.0000
     1.0000   1.0000   1.0000   1.0000   1.0000   1.0000   1.0000   1.0000
     1.0000   1.0000   1.0000   1.0000   1.0000   1.0000   1.0000   1.0000
     1.0000   1.0000   1.0000   1.0000   1.0000   1.0000   1.0000   1.0000
     1.0000   1.0000   1.0000   1.0000   1.0000   1.0000   1.0000   1.0000
     1.0000   1.0000   1.0000   1.0000   1.0000   1.0000   1.0000   1.0000
     1.0000   1.0000   1.0000   1.0000   1.0000   1.0000   1.0000   1.0000
     1.0000   1.0000   1.0000   1.0000   1.0000   1.0000   1.0000   1.0000
     1.0000   1.0000   1.0000   1.0000   1.0000   1.0000   1.0000   1.0000
     1.0000   1.0000   1.0000   1.0000   1.0000   1.0000   1.0000   1.0000
     1.0000   1.0000   1.0000   1.0000   1.0000   1.0000   1.0000   1.0000
     1.0000   1.0000   1.0000   1.0000   1.0000   1.0000   1.0000   1.0000
     1.0000   1.0000   1.0000   1.0000   1.0000   1.0000   1.0000   1.0000
     1.0000   1.0000   1.0000   1.0000   1.0000   1.0000   1.0000   1.0000
     1.0000   1.0000   1.0000   1.0000   0.0000   0.0000   0.0000   0.0000
     0.0000   0.0000   0.0000   0.0000   0.0000   0.0000   0.0000   0.0000
     0.0000   0.0000   0.0000   0.0000   0.0000   0.0000   0.0000   0.0000
     0.0000   0.0000   0.0000   0.0000   0.0000   0.0000   0.0000   0.0000
     0.0000   0.0000   0.0000   0.0000   0.0000

          k = 0.0000-0.5000 0.0000 ( 48052 PWs)   bands (ev):

   -79.5872 -79.5872 -79.5872 -79.5872 -65.2178 -65.2178 -65.2178 -65.2178
   -45.7626 -45.7626 -45.7626 -45.7626 -45.7093 -45.7093 -45.7093 -45.7093
   -45.7093 -45.7093 -45.7093 -45.7092 -33.9983 -33.9983 -33.9983 -33.9983
   -33.8059 -33.8059 -33.8059 -33.8059 -33.8058 -33.8058 -33.8058 -33.8058
   -30.4116 -30.4116 -30.4116 -30.4116 -15.9530 -15.9530 -15.9524 -15.9524
   -10.7050 -10.7050 -10.6998 -10.6998 -10.6805 -10.6805 -10.6804 -10.6804
   -10.6640 -10.6640 -10.6633 -10.6633  -6.9664  -6.9664  -6.9484  -6.9484
    -6.6159  -6.6159  -6.5168  -6.5168  -6.3244  -6.3244  -6.2586  -6.2586
    -6.1670  -6.1670  -6.1519  -6.1519  -6.0699  -6.0699  -6.0482  -6.0482
    -1.3445  -1.3445  -1.3404  -1.3404  -1.1734  -1.1734  -1.1690  -1.1690
    -0.9750  -0.9750  -0.9682  -0.9682   4.7282   4.7282   4.7632   4.7632
     4.8503   4.8503   4.8858   4.8858   4.8877   4.8877   4.9711   4.9711
     5.0570   5.0570   5.0713   5.0713   5.1660   5.1660   5.1703   5.1703
     5.6669   5.6669   5.6949   5.6949   6.1246   6.1246   6.3500   6.3500
     6.7593   6.7593   7.0563   7.0563   7.1766   7.1766   7.2224   7.2224
     7.5155   7.5155   7.5379   7.5379   7.7494   7.7494   7.8039   7.8039
     7.9514   7.9514   8.0116   8.0116   8.1180   8.1180   8.2269   8.2269
     8.3899   8.3900   8.4587   8.4587   8.5819   8.5819   8.6613   8.6613
     8.6827   8.6827   8.8754   8.8754   8.9040   8.9040   9.0836   9.0836
     9.0993   9.0993   9.1762   9.1762   9.2766   9.2766   9.4582   9.4582
    10.3526  10.3526  10.3533  10.3533  13.8868  13.8868  14.0999  14.0999
    14.3214  14.3214  14.3444  14.3444  14.4352  14.4352  14.4642  14.4642
    14.5826  14.5826  14.5895  14.5895  15.3064  15.3064  15.3358  15.3358
    15.5463  15.5463  15.6580  15.6580  15.7918  15.7918  15.8158  15.8159
    15.9659  15.9660  15.9836  15.9843  16.1668

     occupation numbers 
     1.0000   1.0000   1.0000   1.0000   1.0000   1.0000   1.0000   1.0000
     1.0000   1.0000   1.0000   1.0000   1.0000   1.0000   1.0000   1.0000
     1.0000   1.0000   1.0000   1.0000   1.0000   1.0000   1.0000   1.0000
     1.0000   1.0000   1.0000   1.0000   1.0000   1.0000   1.0000   1.0000
     1.0000   1.0000   1.0000   1.0000   1.0000   1.0000   1.0000   1.0000
     1.0000   1.0000   1.0000   1.0000   1.0000   1.0000   1.0000   1.0000
     1.0000   1.0000   1.0000   1.0000   1.0000   1.0000   1.0000   1.0000
     1.0000   1.0000   1.0000   1.0000   1.0000   1.0000   1.0000   1.0000
     1.0000   1.0000   1.0000   1.0000   1.0000   1.0000   1.0000   1.0000
     1.0000   1.0000   1.0000   1.0000   1.0000   1.0000   1.0000   1.0000
     1.0000   1.0000   1.0000   1.0000   1.0000   1.0000   1.0000   1.0000
     1.0000   1.0000   1.0000   1.0000   1.0000   1.0000   1.0000   1.0000
     1.0000   1.0000   1.0000   1.0000   1.0000   1.0000   1.0000   1.0000
     1.0000   1.0000   1.0000   1.0000   1.0000   1.0000   1.0000   1.0000
     1.0000   1.0000   1.0000   1.0000   1.0000   1.0000   1.0000   1.0000
     1.0000   1.0000   1.0000   1.0000   1.0000   1.0000   1.0000   1.0000
     1.0000   1.0000   1.0000   1.0000   1.0000   1.0000   1.0000   1.0000
     1.0000   1.0000   1.0000   1.0000   1.0000   1.0000   1.0000   1.0000
     1.0000   1.0000   1.0000   1.0000   1.0000   1.0000   1.0000   1.0000
     1.0000   1.0000   1.0000   1.0000   1.0000   1.0000   1.0000   1.0000
     1.0000   1.0000   1.0000   1.0000   0.0000   0.0000   0.0000   0.0000
     0.0000   0.0000   0.0000   0.0000   0.0000   0.0000   0.0000   0.0000
     0.0000   0.0000   0.0000   0.0000   0.0000   0.0000   0.0000   0.0000
     0.0000   0.0000   0.0000   0.0000   0.0000   0.0000   0.0000   0.0000
     0.0000   0.0000   0.0000   0.0000   0.0000

          k = 0.0000-0.5000-0.1842 ( 48060 PWs)   bands (ev):

   -79.5872 -79.5872 -79.5872 -79.5872 -65.2178 -65.2178 -65.2178 -65.2178
   -45.7626 -45.7626 -45.7626 -45.7626 -45.7093 -45.7093 -45.7093 -45.7093
   -45.7093 -45.7093 -45.7093 -45.7092 -33.9983 -33.9983 -33.9983 -33.9983
   -33.8059 -33.8059 -33.8059 -33.8059 -33.8058 -33.8058 -33.8058 -33.8058
   -30.4116 -30.4116 -30.4116 -30.4116 -15.9527 -15.9527 -15.9527 -15.9527
   -10.7024 -10.7024 -10.7024 -10.7024 -10.6805 -10.6805 -10.6805 -10.6805
   -10.6637 -10.6637 -10.6637 -10.6637  -6.9581  -6.9581  -6.9581  -6.9581
    -6.5713  -6.5713  -6.5713  -6.5713  -6.2860  -6.2860  -6.2860  -6.2860
    -6.1598  -6.1598  -6.1598  -6.1598  -6.0586  -6.0586  -6.0586  -6.0586
    -1.3425  -1.3424  -1.3424  -1.3424  -1.1712  -1.1712  -1.1712  -1.1712
    -0.9716  -0.9716  -0.9716  -0.9716   4.7383   4.7383   4.7383   4.7383
     4.8855   4.8855   4.8855   4.8855   4.9171   4.9171   4.9171   4.9171
     5.0669   5.0669   5.0669   5.0669   5.1677   5.1677   5.1677   5.1677
     5.6762   5.6762   5.6762   5.6762   6.2261   6.2261   6.2261   6.2261
     6.9220   6.9220   6.9220   6.9220   7.1947   7.1947   7.1947   7.1947
     7.5300   7.5300   7.5300   7.5300   7.7701   7.7701   7.7701   7.7701
     7.9766   7.9766   7.9766   7.9766   8.1710   8.1710   8.1710   8.1710
     8.4798   8.4798   8.4798   8.4798   8.5713   8.5713   8.5713   8.5713
     8.7771   8.7772   8.7772   8.7772   8.9724   8.9724   8.9724   8.9724
     9.1556   9.1556   9.1556   9.1556   9.3837   9.3837   9.3837   9.3837
    10.3529  10.3529  10.3529  10.3529  13.9688  13.9688  13.9688  13.9688
    14.3697  14.3697  14.3697  14.3697  14.4521  14.4521  14.4521  14.4521
    14.5757  14.5757  14.5757  14.5757  15.3202  15.3202  15.3203  15.3203
    15.5798  15.5798  15.5799  15.5799  15.8155  15.8155  15.8156  15.8156
    16.0245  16.0271  16.0272  16.0274  16.0796

     occupation numbers 
     1.0000   1.0000   1.0000   1.0000   1.0000   1.0000   1.0000   1.0000
     1.0000   1.0000   1.0000   1.0000   1.0000   1.0000   1.0000   1.0000
     1.0000   1.0000   1.0000   1.0000   1.0000   1.0000   1.0000   1.0000
     1.0000   1.0000   1.0000   1.0000   1.0000   1.0000   1.0000   1.0000
     1.0000   1.0000   1.0000   1.0000   1.0000   1.0000   1.0000   1.0000
     1.0000   1.0000   1.0000   1.0000   1.0000   1.0000   1.0000   1.0000
     1.0000   1.0000   1.0000   1.0000   1.0000   1.0000   1.0000   1.0000
     1.0000   1.0000   1.0000   1.0000   1.0000   1.0000   1.0000   1.0000
     1.0000   1.0000   1.0000   1.0000   1.0000   1.0000   1.0000   1.0000
     1.0000   1.0000   1.0000   1.0000   1.0000   1.0000   1.0000   1.0000
     1.0000   1.0000   1.0000   1.0000   1.0000   1.0000   1.0000   1.0000
     1.0000   1.0000   1.0000   1.0000   1.0000   1.0000   1.0000   1.0000
     1.0000   1.0000   1.0000   1.0000   1.0000   1.0000   1.0000   1.0000
     1.0000   1.0000   1.0000   1.0000   1.0000   1.0000   1.0000   1.0000
     1.0000   1.0000   1.0000   1.0000   1.0000   1.0000   1.0000   1.0000
     1.0000   1.0000   1.0000   1.0000   1.0000   1.0000   1.0000   1.0000
     1.0000   1.0000   1.0000   1.0000   1.0000   1.0000   1.0000   1.0000
     1.0000   1.0000   1.0000   1.0000   1.0000   1.0000   1.0000   1.0000
     1.0000   1.0000   1.0000   1.0000   1.0000   1.0000   1.0000   1.0000
     1.0000   1.0000   1.0000   1.0000   1.0000   1.0000   1.0000   1.0000
     1.0000   1.0000   1.0000   1.0000   0.0000   0.0000   0.0000   0.0000
     0.0000   0.0000   0.0000   0.0000   0.0000   0.0000   0.0000   0.0000
     0.0000   0.0000   0.0000   0.0000   0.0000   0.0000   0.0000   0.0000
     0.0000   0.0000   0.0000   0.0000   0.0000   0.0000   0.0000   0.0000
     0.0000   0.0000   0.0000   0.0000   0.0000

          k = 0.2500 0.2500 0.0000 ( 47957 PWs)   bands (ev):

   -79.5872 -79.5872 -79.5872 -79.5872 -65.2179 -65.2178 -65.2178 -65.2178
   -45.7626 -45.7626 -45.7626 -45.7626 -45.7093 -45.7093 -45.7093 -45.7093
   -45.7093 -45.7093 -45.7093 -45.7093 -33.9983 -33.9983 -33.9983 -33.9983
   -33.8059 -33.8059 -33.8059 -33.8059 -33.8058 -33.8058 -33.8058 -33.8058
   -30.4155 -30.4155 -30.4078 -30.4078 -15.9865 -15.9858 -15.9189 -15.9184
   -10.8458 -10.8453 -10.7681 -10.7607 -10.6868 -10.6866 -10.6633 -10.6633
   -10.6283 -10.6237 -10.4841 -10.4841  -7.0285  -6.9870  -6.9488  -6.9437
    -6.8713  -6.6941  -6.4062  -6.3825  -6.3550  -6.3187  -6.2864  -6.2661
    -6.1729  -6.1627  -6.1063  -6.0861  -6.0652  -6.0579  -6.0282  -6.0056
    -1.3438  -1.3427  -1.2795  -1.2732  -1.1791  -1.1735  -1.1665  -1.1616
    -1.0476  -1.0423  -0.9578  -0.9571   4.6329   4.6431   4.6525   4.7010
     4.7835   4.8380   4.8702   4.8757   4.9165   4.9716   5.0127   5.0304
     5.0799   5.1097   5.1101   5.1160   5.1335   5.1522   5.1522   5.1688
     5.3709   5.4950   5.5674   5.7545   6.4603   6.5824   6.5839   6.6703
     6.6840   6.7984   6.8134   6.9199   6.9517   7.0277   7.0470   7.1948
     7.4556   7.4885   7.4975   7.6275   7.6321   7.7669   7.8819   7.9387
     8.0072   8.0458   8.1209   8.1645   8.1932   8.2289   8.2482   8.2787
     8.3133   8.3760   8.3912   8.4646   8.5738   8.5791   8.6157   8.6371
     8.8410   8.8515   8.8713   8.9100   8.9489   8.9521   9.0093   9.0242
     9.0972   9.1477   9.1640   9.2397   9.2726   9.3371   9.3563   9.5118
    10.0896  10.1025  10.2251  10.2301  13.5983  13.8907  14.0136  14.2286
    14.2847  14.3267  14.3448  14.3980  14.4135  14.4214  14.4289  14.4673
    14.5579  14.5795  14.6196  14.6652  14.7023  14.8001  15.0949  15.3203
    15.4404  15.4719  15.5156  15.5675  15.6743  15.7120  15.7655  15.8651
    15.9452  15.9849  16.0218  16.0544  16.2065

     occupation numbers 
     1.0000   1.0000   1.0000   1.0000   1.0000   1.0000   1.0000   1.0000
     1.0000   1.0000   1.0000   1.0000   1.0000   1.0000   1.0000   1.0000
     1.0000   1.0000   1.0000   1.0000   1.0000   1.0000   1.0000   1.0000
     1.0000   1.0000   1.0000   1.0000   1.0000   1.0000   1.0000   1.0000
     1.0000   1.0000   1.0000   1.0000   1.0000   1.0000   1.0000   1.0000
     1.0000   1.0000   1.0000   1.0000   1.0000   1.0000   1.0000   1.0000
     1.0000   1.0000   1.0000   1.0000   1.0000   1.0000   1.0000   1.0000
     1.0000   1.0000   1.0000   1.0000   1.0000   1.0000   1.0000   1.0000
     1.0000   1.0000   1.0000   1.0000   1.0000   1.0000   1.0000   1.0000
     1.0000   1.0000   1.0000   1.0000   1.0000   1.0000   1.0000   1.0000
     1.0000   1.0000   1.0000   1.0000   1.0000   1.0000   1.0000   1.0000
     1.0000   1.0000   1.0000   1.0000   1.0000   1.0000   1.0000   1.0000
     1.0000   1.0000   1.0000   1.0000   1.0000   1.0000   1.0000   1.0000
     1.0000   1.0000   1.0000   1.0000   1.0000   1.0000   1.0000   1.0000
     1.0000   1.0000   1.0000   1.0000   1.0000   1.0000   1.0000   1.0000
     1.0000   1.0000   1.0000   1.0000   1.0000   1.0000   1.0000   1.0000
     1.0000   1.0000   1.0000   1.0000   1.0000   1.0000   1.0000   1.0000
     1.0000   1.0000   1.0000   1.0000   1.0000   1.0000   1.0000   1.0000
     1.0000   1.0000   1.0000   1.0000   1.0000   1.0000   1.0000   1.0000
     1.0000   1.0000   1.0000   1.0000   1.0000   1.0000   1.0000   1.0000
     1.0000   1.0000   1.0000   1.0000   0.0000   0.0000   0.0000   0.0000
     0.0000   0.0000   0.0000   0.0000   0.0000   0.0000   0.0000   0.0000
     0.0000   0.0000   0.0000   0.0000   0.0000   0.0000   0.0000   0.0000
     0.0000   0.0000   0.0000   0.0000   0.0000   0.0000   0.0000   0.0000
     0.0000   0.0000   0.0000   0.0000   0.0000

          k = 0.2500 0.2500-0.1842 ( 48026 PWs)   bands (ev):

   -79.5872 -79.5872 -79.5872 -79.5872 -65.2178 -65.2178 -65.2178 -65.2178
   -45.7626 -45.7626 -45.7626 -45.7626 -45.7093 -45.7093 -45.7093 -45.7093
   -45.7093 -45.7093 -45.7093 -45.7093 -33.9983 -33.9983 -33.9983 -33.9983
   -33.8059 -33.8059 -33.8059 -33.8059 -33.8058 -33.8058 -33.8058 -33.8058
   -30.4155 -30.4155 -30.4078 -30.4078 -15.9862 -15.9862 -15.9186 -15.9186
   -10.8456 -10.8456 -10.7644 -10.7644 -10.6867 -10.6867 -10.6633 -10.6633
   -10.6260 -10.6260 -10.4841 -10.4841  -7.0101  -7.0101  -6.9552  -6.9552
    -6.7793  -6.7793  -6.3722  -6.3722  -6.3490  -6.3490  -6.2793  -6.2793
    -6.1674  -6.1674  -6.0959  -6.0959  -6.0607  -6.0607  -6.0176  -6.0176
    -1.3432  -1.3432  -1.2764  -1.2763  -1.1736  -1.1736  -1.1667  -1.1667
    -1.0449  -1.0449  -0.9575  -0.9575   4.6162   4.6162   4.7073   4.7073
     4.8102   4.8102   4.8678   4.8678   4.9440   4.9440   5.0193   5.0193
     5.0889   5.0889   5.1131   5.1131   5.1398   5.1398   5.1663   5.1663
     5.4014   5.4014   5.6989   5.6989   6.5148   6.5148   6.6462   6.6462
     6.6729   6.6729   6.9069   6.9069   6.9684   6.9684   7.1627   7.1627
     7.4769   7.4769   7.5605   7.5605   7.6901   7.6901   7.8973   7.8973
     7.9801   7.9801   8.1621   8.1621   8.2029   8.2030   8.3053   8.3053
     8.3857   8.3857   8.3931   8.3932   8.5595   8.5595   8.6939   8.6939
     8.7883   8.7883   8.9032   8.9033   8.9630   8.9630   8.9821   8.9821
     9.0915   9.0915   9.2308   9.2308   9.3198   9.3198   9.4359   9.4359
    10.0960  10.0960  10.2269  10.2269  13.7034  13.7034  14.1680  14.1680
    14.2755  14.2755  14.3797  14.3797  14.4209  14.4209  14.4575  14.4575
    14.5790  14.5790  14.6445  14.6445  14.7457  14.7457  15.2348  15.2348
    15.4525  15.4525  15.5410  15.5410  15.6417  15.6418  15.7872  15.7872
    15.9391  15.9392  16.0798  16.0799  16.1537

     occupation numbers 
     1.0000   1.0000   1.0000   1.0000   1.0000   1.0000   1.0000   1.0000
     1.0000   1.0000   1.0000   1.0000   1.0000   1.0000   1.0000   1.0000
     1.0000   1.0000   1.0000   1.0000   1.0000   1.0000   1.0000   1.0000
     1.0000   1.0000   1.0000   1.0000   1.0000   1.0000   1.0000   1.0000
     1.0000   1.0000   1.0000   1.0000   1.0000   1.0000   1.0000   1.0000
     1.0000   1.0000   1.0000   1.0000   1.0000   1.0000   1.0000   1.0000
     1.0000   1.0000   1.0000   1.0000   1.0000   1.0000   1.0000   1.0000
     1.0000   1.0000   1.0000   1.0000   1.0000   1.0000   1.0000   1.0000
     1.0000   1.0000   1.0000   1.0000   1.0000   1.0000   1.0000   1.0000
     1.0000   1.0000   1.0000   1.0000   1.0000   1.0000   1.0000   1.0000
     1.0000   1.0000   1.0000   1.0000   1.0000   1.0000   1.0000   1.0000
     1.0000   1.0000   1.0000   1.0000   1.0000   1.0000   1.0000   1.0000
     1.0000   1.0000   1.0000   1.0000   1.0000   1.0000   1.0000   1.0000
     1.0000   1.0000   1.0000   1.0000   1.0000   1.0000   1.0000   1.0000
     1.0000   1.0000   1.0000   1.0000   1.0000   1.0000   1.0000   1.0000
     1.0000   1.0000   1.0000   1.0000   1.0000   1.0000   1.0000   1.0000
     1.0000   1.0000   1.0000   1.0000   1.0000   1.0000   1.0000   1.0000
     1.0000   1.0000   1.0000   1.0000   1.0000   1.0000   1.0000   1.0000
     1.0000   1.0000   1.0000   1.0000   1.0000   1.0000   1.0000   1.0000
     1.0000   1.0000   1.0000   1.0000   1.0000   1.0000   1.0000   1.0000
     1.0000   1.0000   1.0000   1.0000   0.0000   0.0000   0.0000   0.0000
     0.0000   0.0000   0.0000   0.0000   0.0000   0.0000   0.0000   0.0000
     0.0000   0.0000   0.0000   0.0000   0.0000   0.0000   0.0000   0.0000
     0.0000   0.0000   0.0000   0.0000   0.0000   0.0000   0.0000   0.0000
     0.0000   0.0000   0.0000   0.0000   0.0000

          k = 0.2500-0.5000 0.0000 ( 47996 PWs)   bands (ev):

   -79.5872 -79.5872 -79.5872 -79.5872 -65.2178 -65.2178 -65.2178 -65.2178
   -45.7626 -45.7626 -45.7626 -45.7626 -45.7093 -45.7093 -45.7093 -45.7093
   -45.7093 -45.7093 -45.7093 -45.7093 -33.9983 -33.9983 -33.9983 -33.9983
   -33.8059 -33.8059 -33.8059 -33.8059 -33.8058 -33.8058 -33.8058 -33.8058
   -30.4116 -30.4116 -30.4116 -30.4116 -15.9504 -15.9504 -15.9498 -15.9498
   -10.8074 -10.8072 -10.8069 -10.8068 -10.6964 -10.6955 -10.6906 -10.6896
   -10.5376 -10.5375 -10.5366 -10.5365  -7.0215  -7.0211  -7.0119  -7.0116
    -6.5906  -6.5865  -6.5273  -6.5176  -6.4230  -6.4094  -6.3681  -6.3563
    -6.1300  -6.1116  -6.1112  -6.0962  -6.0540  -6.0422  -6.0211  -6.0098
    -1.1867  -1.1815  -1.1757  -1.1754  -1.1672  -1.1590  -1.1541  -1.1516
    -0.9526  -0.9511  -0.9493  -0.9476   4.6083   4.6221   4.6317   4.6573
     4.8247   4.8275   4.8592   4.8663   4.9609   4.9717   4.9978   5.0187
     5.0910   5.0945   5.1009   5.1096   5.1203   5.1415   5.1440   5.1502
     5.6664   5.7054   5.7180   5.7316   6.3877   6.4074   6.5504   6.6678
     6.8467   6.8567   6.9694   7.0022   7.0394   7.1483   7.1885   7.1998
     7.4166   7.4876   7.4976   7.6382   7.6528   7.7033   7.7102   7.7731
     7.8780   7.8975   7.9011   7.9810   8.0657   8.0968   8.1243   8.2203
     8.2435   8.2940   8.2998   8.3356   8.3810   8.4080   8.4853   8.5350
     8.5776   8.6781   8.7821   8.7859   8.8880   8.9408   8.9764   8.9775
     9.0638   9.0940   9.1027   9.1361   9.3833   9.3840   9.4775   9.5028
    10.0219  10.0362  10.0375  10.0499  13.9782  14.0082  14.1422  14.1625
    14.3606  14.3940  14.4066  14.4126  14.4272  14.4611  14.4706  14.4920
    14.6514  14.6550  14.6668  14.6922  15.2338  15.2767  15.3222  15.3767
    15.4537  15.4550  15.5228  15.5802  15.7426  15.7639  15.8925  15.9160
    15.9280  15.9507  16.0121  16.0352  16.1958

     occupation numbers 
     1.0000   1.0000   1.0000   1.0000   1.0000   1.0000   1.0000   1.0000
     1.0000   1.0000   1.0000   1.0000   1.0000   1.0000   1.0000   1.0000
     1.0000   1.0000   1.0000   1.0000   1.0000   1.0000   1.0000   1.0000
     1.0000   1.0000   1.0000   1.0000   1.0000   1.0000   1.0000   1.0000
     1.0000   1.0000   1.0000   1.0000   1.0000   1.0000   1.0000   1.0000
     1.0000   1.0000   1.0000   1.0000   1.0000   1.0000   1.0000   1.0000
     1.0000   1.0000   1.0000   1.0000   1.0000   1.0000   1.0000   1.0000
     1.0000   1.0000   1.0000   1.0000   1.0000   1.0000   1.0000   1.0000
     1.0000   1.0000   1.0000   1.0000   1.0000   1.0000   1.0000   1.0000
     1.0000   1.0000   1.0000   1.0000   1.0000   1.0000   1.0000   1.0000
     1.0000   1.0000   1.0000   1.0000   1.0000   1.0000   1.0000   1.0000
     1.0000   1.0000   1.0000   1.0000   1.0000   1.0000   1.0000   1.0000
     1.0000   1.0000   1.0000   1.0000   1.0000   1.0000   1.0000   1.0000
     1.0000   1.0000   1.0000   1.0000   1.0000   1.0000   1.0000   1.0000
     1.0000   1.0000   1.0000   1.0000   1.0000   1.0000   1.0000   1.0000
     1.0000   1.0000   1.0000   1.0000   1.0000   1.0000   1.0000   1.0000
     1.0000   1.0000   1.0000   1.0000   1.0000   1.0000   1.0000   1.0000
     1.0000   1.0000   1.0000   1.0000   1.0000   1.0000   1.0000   1.0000
     1.0000   1.0000   1.0000   1.0000   1.0000   1.0000   1.0000   1.0000
     1.0000   1.0000   1.0000   1.0000   1.0000   1.0000   1.0000   1.0000
     1.0000   1.0000   1.0000   1.0000   0.0000   0.0000   0.0000   0.0000
     0.0000   0.0000   0.0000   0.0000   0.0000   0.0000   0.0000   0.0000
     0.0000   0.0000   0.0000   0.0000   0.0000   0.0000   0.0000   0.0000
     0.0000   0.0000   0.0000   0.0000   0.0000   0.0000   0.0000   0.0000
     0.0000   0.0000   0.0000   0.0000   0.0000

          k = 0.2500-0.5000-0.1842 ( 48016 PWs)   bands (ev):

   -79.5872 -79.5872 -79.5872 -79.5872 -65.2178 -65.2178 -65.2178 -65.2178
   -45.7626 -45.7626 -45.7626 -45.7626 -45.7093 -45.7093 -45.7093 -45.7093
   -45.7093 -45.7093 -45.7093 -45.7093 -33.9983 -33.9983 -33.9983 -33.9983
   -33.8059 -33.8059 -33.8059 -33.8059 -33.8058 -33.8058 -33.8058 -33.8058
   -30.4116 -30.4116 -30.4116 -30.4116 -15.9501 -15.9501 -15.9501 -15.9501
   -10.8071 -10.8071 -10.8070 -10.8070 -10.6935 -10.6935 -10.6925 -10.6925
   -10.5375 -10.5375 -10.5365 -10.5365  -7.0169  -7.0169  -7.0163  -7.0163
    -6.5646  -6.5646  -6.5548  -6.5548  -6.3924  -6.3924  -6.3793  -6.3793
    -6.1208  -6.1208  -6.1027  -6.1027  -6.0391  -6.0391  -6.0236  -6.0236
    -1.1843  -1.1843  -1.1748  -1.1747  -1.1646  -1.1646  -1.1520  -1.1519
    -0.9510  -0.9510  -0.9493  -0.9493   4.6195   4.6195   4.6389   4.6389
     4.8372   4.8372   4.8474   4.8474   4.9845   4.9845   4.9955   4.9955
     5.0957   5.0957   5.1038   5.1038   5.1328   5.1328   5.1445   5.1445
     5.6875   5.6875   5.7193   5.7193   6.4435   6.4435   6.5168   6.5168
     6.9747   6.9747   6.9893   6.9893   7.0398   7.0398   7.1532   7.1532
     7.4824   7.4824   7.5779   7.5779   7.6602   7.6602   7.7130   7.7130
     7.9092   7.9092   7.9595   7.9595   8.0278   8.0278   8.1795   8.1795
     8.2424   8.2424   8.3024   8.3024   8.4918   8.4918   8.5603   8.5603
     8.6437   8.6437   8.6843   8.6843   8.8943   8.8943   8.9817   8.9817
     9.0682   9.0682   9.1377   9.1377   9.4376   9.4376   9.4540   9.4540
    10.0302  10.0302  10.0416  10.0416  14.0518  14.0518  14.0716  14.0716
    14.3856  14.3856  14.4072  14.4072  14.4568  14.4568  14.4812  14.4812
    14.6552  14.6552  14.6805  14.6805  15.2543  15.2543  15.3754  15.3754
    15.4140  15.4140  15.5646  15.5646  15.7915  15.7917  15.9271  15.9274
    15.9638  15.9645  15.9956  15.9957  16.1196

     occupation numbers 
     1.0000   1.0000   1.0000   1.0000   1.0000   1.0000   1.0000   1.0000
     1.0000   1.0000   1.0000   1.0000   1.0000   1.0000   1.0000   1.0000
     1.0000   1.0000   1.0000   1.0000   1.0000   1.0000   1.0000   1.0000
     1.0000   1.0000   1.0000   1.0000   1.0000   1.0000   1.0000   1.0000
     1.0000   1.0000   1.0000   1.0000   1.0000   1.0000   1.0000   1.0000
     1.0000   1.0000   1.0000   1.0000   1.0000   1.0000   1.0000   1.0000
     1.0000   1.0000   1.0000   1.0000   1.0000   1.0000   1.0000   1.0000
     1.0000   1.0000   1.0000   1.0000   1.0000   1.0000   1.0000   1.0000
     1.0000   1.0000   1.0000   1.0000   1.0000   1.0000   1.0000   1.0000
     1.0000   1.0000   1.0000   1.0000   1.0000   1.0000   1.0000   1.0000
     1.0000   1.0000   1.0000   1.0000   1.0000   1.0000   1.0000   1.0000
     1.0000   1.0000   1.0000   1.0000   1.0000   1.0000   1.0000   1.0000
     1.0000   1.0000   1.0000   1.0000   1.0000   1.0000   1.0000   1.0000
     1.0000   1.0000   1.0000   1.0000   1.0000   1.0000   1.0000   1.0000
     1.0000   1.0000   1.0000   1.0000   1.0000   1.0000   1.0000   1.0000
     1.0000   1.0000   1.0000   1.0000   1.0000   1.0000   1.0000   1.0000
     1.0000   1.0000   1.0000   1.0000   1.0000   1.0000   1.0000   1.0000
     1.0000   1.0000   1.0000   1.0000   1.0000   1.0000   1.0000   1.0000
     1.0000   1.0000   1.0000   1.0000   1.0000   1.0000   1.0000   1.0000
     1.0000   1.0000   1.0000   1.0000   1.0000   1.0000   1.0000   1.0000
     1.0000   1.0000   1.0000   1.0000   0.0000   0.0000   0.0000   0.0000
     0.0000   0.0000   0.0000   0.0000   0.0000   0.0000   0.0000   0.0000
     0.0000   0.0000   0.0000   0.0000   0.0000   0.0000   0.0000   0.0000
     0.0000   0.0000   0.0000   0.0000   0.0000   0.0000   0.0000   0.0000
     0.0000   0.0000   0.0000   0.0000   0.0000

          k =-0.5000-0.5000 0.0000 ( 48100 PWs)   bands (ev):

   -79.5872 -79.5872 -79.5872 -79.5872 -65.2179 -65.2179 -65.2178 -65.2178
   -45.7626 -45.7626 -45.7626 -45.7626 -45.7093 -45.7093 -45.7093 -45.7093
   -45.7093 -45.7093 -45.7093 -45.7093 -33.9983 -33.9983 -33.9983 -33.9983
   -33.8059 -33.8059 -33.8059 -33.8059 -33.8058 -33.8058 -33.8058 -33.8058
   -30.4115 -30.4115 -30.4115 -30.4115 -15.9479 -15.9479 -15.9473 -15.9473
   -10.8604 -10.8604 -10.8596 -10.8596 -10.6916 -10.6916 -10.6859 -10.6859
   -10.4789 -10.4789 -10.4789 -10.4789  -7.0892  -7.0892  -7.0586  -7.0586
    -6.5493  -6.5493  -6.5016  -6.5016  -6.4984  -6.4984  -6.4295  -6.4295
    -6.1500  -6.1500  -6.1118  -6.1118  -6.0032  -6.0032  -5.9585  -5.9585
    -1.1712  -1.1712  -1.1545  -1.1545  -1.0463  -1.0463  -1.0442  -1.0442
    -0.8744  -0.8744  -0.8736  -0.8736   4.5241   4.5241   4.5644   4.5644
     4.8466   4.8466   4.8869   4.8869   4.9286   4.9286   4.9662   4.9662
     5.1090   5.1090   5.1201   5.1201   5.1256   5.1256   5.1260   5.1260
     5.7366   5.7366   5.7874   5.7874   6.7611   6.7611   6.8314   6.8314
     6.9036   6.9036   6.9476   6.9476   7.0670   7.0670   7.0783   7.0783
     7.3020   7.3020   7.4486   7.4486   7.7189   7.7189   7.7441   7.7441
     7.8417   7.8417   7.9624   7.9624   7.9783   7.9783   8.1586   8.1586
     8.1902   8.1902   8.1948   8.1948   8.2073   8.2073   8.2496   8.2496
     8.5399   8.5399   8.7539   8.7539   8.8375   8.8375   8.8752   8.8752
     9.1292   9.1292   9.1846   9.1846   9.4538   9.4538   9.4725   9.4725
     9.7059   9.7059   9.7817   9.7817  14.1851  14.1851  14.1853  14.1853
    14.3106  14.3106  14.3641  14.3641  14.4809  14.4809  14.5830  14.5830
    14.7185  14.7185  14.7205  14.7205  15.2423  15.2423  15.2879  15.2879
    15.4289  15.4289  15.5352  15.5352  15.8533  15.8533  15.8543  15.8544
    15.8756  15.8756  16.0379  16.0382  16.0607

     occupation numbers 
     1.0000   1.0000   1.0000   1.0000   1.0000   1.0000   1.0000   1.0000
     1.0000   1.0000   1.0000   1.0000   1.0000   1.0000   1.0000   1.0000
     1.0000   1.0000   1.0000   1.0000   1.0000   1.0000   1.0000   1.0000
     1.0000   1.0000   1.0000   1.0000   1.0000   1.0000   1.0000   1.0000
     1.0000   1.0000   1.0000   1.0000   1.0000   1.0000   1.0000   1.0000
     1.0000   1.0000   1.0000   1.0000   1.0000   1.0000   1.0000   1.0000
     1.0000   1.0000   1.0000   1.0000   1.0000   1.0000   1.0000   1.0000
     1.0000   1.0000   1.0000   1.0000   1.0000   1.0000   1.0000   1.0000
     1.0000   1.0000   1.0000   1.0000   1.0000   1.0000   1.0000   1.0000
     1.0000   1.0000   1.0000   1.0000   1.0000   1.0000   1.0000   1.0000
     1.0000   1.0000   1.0000   1.0000   1.0000   1.0000   1.0000   1.0000
     1.0000   1.0000   1.0000   1.0000   1.0000   1.0000   1.0000   1.0000
     1.0000   1.0000   1.0000   1.0000   1.0000   1.0000   1.0000   1.0000
     1.0000   1.0000   1.0000   1.0000   1.0000   1.0000   1.0000   1.0000
     1.0000   1.0000   1.0000   1.0000   1.0000   1.0000   1.0000   1.0000
     1.0000   1.0000   1.0000   1.0000   1.0000   1.0000   1.0000   1.0000
     1.0000   1.0000   1.0000   1.0000   1.0000   1.0000   1.0000   1.0000
     1.0000   1.0000   1.0000   1.0000   1.0000   1.0000   1.0000   1.0000
     1.0000   1.0000   1.0000   1.0000   1.0000   1.0000   1.0000   1.0000
     1.0000   1.0000   1.0000   1.0000   1.0000   1.0000   1.0000   1.0000
     1.0000   1.0000   1.0000   1.0000   0.0000   0.0000   0.0000   0.0000
     0.0000   0.0000   0.0000   0.0000   0.0000   0.0000   0.0000   0.0000
     0.0000   0.0000   0.0000   0.0000   0.0000   0.0000   0.0000   0.0000
     0.0000   0.0000   0.0000   0.0000   0.0000   0.0000   0.0000   0.0000
     0.0000   0.0000   0.0000   0.0000   0.0000

          k =-0.5000-0.5000-0.1842 ( 47960 PWs)   bands (ev):

   -79.5872 -79.5872 -79.5872 -79.5872 -65.2179 -65.2179 -65.2178 -65.2178
   -45.7626 -45.7626 -45.7626 -45.7626 -45.7093 -45.7093 -45.7093 -45.7093
   -45.7093 -45.7093 -45.7093 -45.7093 -33.9983 -33.9983 -33.9983 -33.9983
   -33.8059 -33.8059 -33.8059 -33.8059 -33.8058 -33.8058 -33.8058 -33.8058
   -30.4115 -30.4115 -30.4115 -30.4115 -15.9476 -15.9476 -15.9476 -15.9476
   -10.8600 -10.8600 -10.8600 -10.8600 -10.6890 -10.6890 -10.6886 -10.6886
   -10.4789 -10.4789 -10.4789 -10.4789  -7.0745  -7.0745  -7.0745  -7.0745
    -6.5286  -6.5286  -6.5241  -6.5241  -6.4651  -6.4651  -6.4651  -6.4651
    -6.1292  -6.1292  -6.1292  -6.1292  -5.9843  -5.9843  -5.9755  -5.9755
    -1.1695  -1.1695  -1.1561  -1.1561  -1.0453  -1.0453  -1.0453  -1.0453
    -0.8740  -0.8740  -0.8740  -0.8740   4.5432   4.5432   4.5432   4.5432
     4.8676   4.8676   4.8676   4.8676   4.9422   4.9422   4.9538   4.9538
     5.1149   5.1149   5.1181   5.1181   5.1233   5.1233   5.1233   5.1233
     5.7618   5.7618   5.7618   5.7618   6.7122   6.7122   6.8677   6.8677
     6.9564   6.9564   6.9999   6.9999   6.9999   6.9999   7.0079   7.0079
     7.4153   7.4153   7.5004   7.5004   7.6718   7.6718   7.7187   7.7187
     7.8017   7.8017   7.8017   7.8017   8.0588   8.0588   8.0588   8.0588
     8.1631   8.1631   8.1895   8.1895   8.4009   8.4009   8.4088   8.4088
     8.5557   8.5557   8.5790   8.5790   8.8526   8.8526   8.8526   8.8526
     9.0897   9.0897   9.2351   9.2351   9.4655   9.4655   9.4655   9.4655
     9.7456   9.7456   9.7456   9.7456  14.1847  14.1847  14.1847  14.1847
    14.3099  14.3099  14.3734  14.3734  14.4858  14.4858  14.5700  14.5700
    14.7191  14.7191  14.7191  14.7191  15.2633  15.2633  15.3334  15.3335
    15.3335  15.3335  15.5636  15.5636  15.8556  15.8556  15.8915  15.8916
    15.9289  15.9289  16.0479  16.1022  16.1027

     occupation numbers 
     1.0000   1.0000   1.0000   1.0000   1.0000   1.0000   1.0000   1.0000
     1.0000   1.0000   1.0000   1.0000   1.0000   1.0000   1.0000   1.0000
     1.0000   1.0000   1.0000   1.0000   1.0000   1.0000   1.0000   1.0000
     1.0000   1.0000   1.0000   1.0000   1.0000   1.0000   1.0000   1.0000
     1.0000   1.0000   1.0000   1.0000   1.0000   1.0000   1.0000   1.0000
     1.0000   1.0000   1.0000   1.0000   1.0000   1.0000   1.0000   1.0000
     1.0000   1.0000   1.0000   1.0000   1.0000   1.0000   1.0000   1.0000
     1.0000   1.0000   1.0000   1.0000   1.0000   1.0000   1.0000   1.0000
     1.0000   1.0000   1.0000   1.0000   1.0000   1.0000   1.0000   1.0000
     1.0000   1.0000   1.0000   1.0000   1.0000   1.0000   1.0000   1.0000
     1.0000   1.0000   1.0000   1.0000   1.0000   1.0000   1.0000   1.0000
     1.0000   1.0000   1.0000   1.0000   1.0000   1.0000   1.0000   1.0000
     1.0000   1.0000   1.0000   1.0000   1.0000   1.0000   1.0000   1.0000
     1.0000   1.0000   1.0000   1.0000   1.0000   1.0000   1.0000   1.0000
     1.0000   1.0000   1.0000   1.0000   1.0000   1.0000   1.0000   1.0000
     1.0000   1.0000   1.0000   1.0000   1.0000   1.0000   1.0000   1.0000
     1.0000   1.0000   1.0000   1.0000   1.0000   1.0000   1.0000   1.0000
     1.0000   1.0000   1.0000   1.0000   1.0000   1.0000   1.0000   1.0000
     1.0000   1.0000   1.0000   1.0000   1.0000   1.0000   1.0000   1.0000
     1.0000   1.0000   1.0000   1.0000   1.0000   1.0000   1.0000   1.0000
     1.0000   1.0000   1.0000   1.0000   0.0000   0.0000   0.0000   0.0000
     0.0000   0.0000   0.0000   0.0000   0.0000   0.0000   0.0000   0.0000
     0.0000   0.0000   0.0000   0.0000   0.0000   0.0000   0.0000   0.0000
     0.0000   0.0000   0.0000   0.0000   0.0000   0.0000   0.0000   0.0000
     0.0000   0.0000   0.0000   0.0000   0.0000

     the Fermi energy is    11.5736 ev

!    total energy              =   -3089.21939199 Ry
     estimated scf accuracy    <       0.00000008 Ry
     smearing contrib. (-TS)   =      -0.00000000 Ry
     internal energy E=F+TS    =   -3089.21939199 Ry

     The total energy is F=E-TS. E is the sum of the following terms:
     one-electron contribution =   -1467.63939820 Ry
     hartree contribution      =     913.15224179 Ry
     xc contribution           =    -575.02035495 Ry
     ewald contribution        =   -1960.11463469 Ry
     Hubbard energy            =       0.40275407 Ry

     total magnetization       =     0.00 Bohr mag/cell
     absolute magnetization    =    36.14 Bohr mag/cell

     convergence has been achieved in  15 iterations

     Writing all to output data dir /tmp/scratch/single/single.save/ :
     XML data file, charge density, pseudopotentials, collected wavefunctions

     init_run     :     12.93s CPU     14.12s WALL (       1 calls)
     electrons    :    391.75s CPU    428.20s WALL (       1 calls)

     Called by init_run:
     wfcinit      :     10.69s CPU     11.64s WALL (       1 calls)
     wfcinit:atom :      0.07s CPU      0.08s WALL (       2 calls)
     wfcinit:wfcr :      7.96s CPU      8.79s WALL (       2 calls)
     potinit      :      0.91s CPU      1.04s WALL (       1 calls)
     hinit0       :      1.04s CPU      1.10s WALL (       1 calls)

     Called by electrons:
     c_bands      :    325.71s CPU    354.37s WALL (      15 calls)
     sum_band     :     49.19s CPU     55.90s WALL (      15 calls)
     v_of_rho     :      5.96s CPU      6.39s WALL (      16 calls)
     v_h          :      0.23s CPU      0.28s WALL (      16 calls)
     v_xc         :      5.73s CPU      6.11s WALL (      16 calls)
     mix_rho      :      6.41s CPU      6.96s WALL (      15 calls)

     Called by c_bands:
     init_us_2    :      3.57s CPU      3.74s WALL (      64 calls)
     cegterg      :    294.31s CPU    321.79s WALL (      30 calls)

     Called by sum_band:
     sum_band:wei :      0.02s CPU      0.02s WALL (      15 calls)
     sum_band:loo :     44.13s CPU     49.91s WALL (      15 calls)
     sum_band:buf :      0.43s CPU      0.46s WALL (      30 calls)
     sum_band:ini :      1.55s CPU      1.62s WALL (      30 calls)

     Called by *egterg:
     cdiaghg      :      5.16s CPU      5.43s WALL (     157 calls)
     cegterg:over :     22.73s CPU     23.62s WALL (     127 calls)
     cegterg:upda :     12.47s CPU     13.03s WALL (     127 calls)
     cegterg:last :     22.22s CPU     23.04s WALL (      59 calls)
     h_psi        :    227.11s CPU    252.55s WALL (     159 calls)
     g_psi        :      0.92s CPU      1.00s WALL (     127 calls)

     Called by h_psi:
     h_psi:calbec :     30.03s CPU     31.19s WALL (     159 calls)
     vloc_psi     :    161.00s CPU    183.73s WALL (     159 calls)
                                        0.00s GPU  (     159 calls)
     add_vuspsi   :     28.85s CPU     29.88s WALL (     159 calls)
     vhpsi        :      5.96s CPU      6.34s WALL (     159 calls)

     General routines
     calbec       :     34.94s CPU     36.35s WALL (     350 calls)
     fft          :      2.73s CPU      3.02s WALL (     302 calls)
     ffts         :      3.22s CPU      3.72s WALL (     482 calls)
     fftw         :    165.14s CPU    193.62s WALL (   34134 calls)

     Parallel routines

     Hubbard U routines
     new_ns       :      1.79s CPU      1.89s WALL (      15 calls)
     vhpsi        :      5.96s CPU      6.34s WALL (     159 calls)

     PWSCF        :   6m45.28s CPU   7m23.58s WALL


   This run was terminated on:   7:48:56   2Oct2026            

=------------------------------------------------------------------------------=
   JOB DONE.
=------------------------------------------------------------------------------=
