
     Program PWSCF v.7.5 starts on  4Oct2026 at 20: 4:53 

     This program is part of the open-source Quantum ESPRESSO suite
     for quantum simulation of materials; please cite
         "P. Giannozzi et al., J. Phys.:Condens. Matter 21 395502 (2009);
         "P. Giannozzi et al., J. Phys.:Condens. Matter 29 465901 (2017);
         "P. Giannozzi et al., J. Chem. Phys. 152 154105 (2020);
          URL http://www.quantum-espresso.org", 
     in publications or presentations arising from this work. More details at
     http://www.quantum-espresso.org/quote

     Parallel version (MPI & OpenMP), running on      32 processor cores
     Number of MPI processes:                32
     Threads/MPI process:                     1

     MPI processes distributed on     1 nodes
     695383 MiB available memory on the printing compute node when the environment starts

     Reading input from /tmp/work/materials/KV_Cr_CN6/runs/A_pbeu_relax_scf_nscf_Ugrid/KVCr_LCM_nscf.repro.in

     Current dimensions of program PWSCF are:
     Max number of different atomic species (ntypx) = 10
     Max number of k-points (npk) =  40000
     Max angular momentum in pseudopotentials (lmaxx) =  4
     file K.pbe-spn-kjpaw_psl.1.0.0.UPF: wavefunction(s)  3S renormalized
     file C.pbe-n-kjpaw_psl.1.0.0.UPF: wavefunction(s)  2S 2P renormalized

     Atomic positions and unit cell read from directory:
     /tmp/scratch/65640244/KVCr_LCM/KVCr_LCM.save/

     Message from routine setup:
     using ibrav=0 with symmetry is DISCOURAGED, use correct ibrav instead

     K-points division:     npool     =       8
     R & G space division:  proc/nbgrp/npool/nimage =       4
     Subspace diagonalization in iterative solution of the eigenvalue problem:
     a serial algorithm will be used


     Parallelization info
     --------------------
     sticks:   dense  smooth     PW     G-vecs:    dense   smooth      PW
     Min        1684     841    232                91278    32259    4720
     Max        1686     842    233                91279    32262    4721
     Sum        6739    3367    931               365115   129045   18883

     Using Slab Decomposition



     bravais-lattice index     =            0
     lattice parameter (alat)  =      14.2709  a.u.
     unit-cell volume          =    2055.1352 (a.u.)^3
     number of atoms/cell      =           15
     number of atomic types    =            5
     number of electrons       =        90.00
     number of Kohn-Sham states=           54
     kinetic-energy cutoff     =      60.0000  Ry
     charge density cutoff     =     480.0000  Ry
     Exchange-correlation= PBE
                           (   1   4   3   4   0   0   0)
     Hubbard projectors: ortho-atomic
     Hubbard parameters of DFT+U (Dudarev formulation) in eV:
     U(V-3d) =  3.0000
     U(Cr-3d) =  3.0000

     Internal variables: lda_plus_u =T, lda_plus_u_kind = 0

     Internal variables: orbital_resolved =F, hub_pot_fix =F, apply_U = F

     celldm(1)=  14.270914  celldm(2)=   0.000000  celldm(3)=   0.000000
     celldm(4)=   0.000000  celldm(5)=   0.000000  celldm(6)=   0.000000

     crystal axes: (cart. coord. in units of alat)
               a(1) = (   0.000000   0.707107   0.707107 )  
               a(2) = (   0.707107   0.000000   0.707107 )  
               a(3) = (   0.707107   0.707107   0.000000 )  

     reciprocal axes: (cart. coord. in units 2 pi/alat)
               b(1) = ( -0.707107  0.707107  0.707107 )  
               b(2) = (  0.707107 -0.707107  0.707107 )  
               b(3) = (  0.707107  0.707107 -0.707107 )  


     PseudoPot. # 1 for K  read from file:
     /tmp/pseudo/K.pbe-spn-kjpaw_psl.1.0.0.UPF
     MD5 check sum: 7d58810084cac21f60fbe77ea2b688fd
     Pseudo is Projector augmented-wave + core cor, Zval =  9.0
     Generated using "atomic" code by A. Dal Corso  v.5.1
     Shape of augmentation charge: PSQ
     Using radial grid of 1165 points,  6 beta functions with: 
                l(1) =   0
                l(2) =   0
                l(3) =   1
                l(4) =   1
                l(5) =   2
                l(6) =   2
     Q(r) pseudized with 0 coefficients 


     PseudoPot. # 2 for V  read from file:
     /tmp/pseudo/v_pbe_v1.4.uspp.F.UPF
     MD5 check sum: 22b79981416ebb76fdaf5b1b8640f6fb
     Pseudo is Ultrasoft + core correction, Zval = 13.0
     Generated by new atomic code, or converted to UPF format
     Using radial grid of  853 points,  6 beta functions with: 
                l(1) =   0
                l(2) =   0
                l(3) =   1
                l(4) =   1
                l(5) =   2
                l(6) =   2
     Q(r) pseudized with  8 coefficients,  rinner =    1.100   1.100   1.100
                                                       1.100   1.100

     PseudoPot. # 3 for Cr read from file:
     /tmp/pseudo/cr_pbe_v1.5.uspp.F.UPF
     MD5 check sum: 0d52af634a40206e4dee301ad30da4bf
     Pseudo is Ultrasoft + core correction, Zval = 14.0
     Generated by new atomic code, or converted to UPF format
     Using radial grid of  857 points,  6 beta functions with: 
                l(1) =   0
                l(2) =   0
                l(3) =   1
                l(4) =   1
                l(5) =   2
                l(6) =   2
     Q(r) pseudized with  8 coefficients,  rinner =    0.950   0.950   0.950
                                                       0.950   0.950

     PseudoPot. # 4 for C  read from file:
     /tmp/pseudo/C.pbe-n-kjpaw_psl.1.0.0.UPF
     MD5 check sum: 5d2aebdfa2cae82b50a7e79e9516da0f
     Pseudo is Projector augmented-wave + core cor, Zval =  4.0
     Generated using "atomic" code by A. Dal Corso  v.5.1
     Shape of augmentation charge: PSQ
     Using radial grid of 1073 points,  4 beta functions with: 
                l(1) =   0
                l(2) =   0
                l(3) =   1
                l(4) =   1
     Q(r) pseudized with 0 coefficients 


     PseudoPot. # 5 for N  read from file:
     /tmp/pseudo/N.pbe-n-radius_5.UPF
     MD5 check sum: 16739722b17309cd8fe442a2ace49922
     Pseudo is Ultrasoft + core correction, Zval =  5.0
     Generated using "atomic" code by A. Dal Corso  v.5.1
     Using radial grid of 1085 points,  4 beta functions with: 
                l(1) =   0
                l(2) =   0
                l(3) =   1
                l(4) =   1
     Q(r) pseudized with 0 coefficients 


     atomic species   valence    mass     pseudopotential
     K                 9.00    39.09830     K ( 1.00)
     V                13.00    50.94150     V ( 1.00)
     Cr               14.00    51.99610     Cr( 1.00)
     C                 4.00    12.01100     C ( 1.00)
     N                 5.00    14.00700     N ( 1.00)

     Starting magnetic structure 
     atomic species   magnetization
     K               0.000
     V              -0.231
     Cr              0.214
     C               0.000
     N               0.000

     24 Sym. Ops. (no inversion) found


                                    s                        frac. trans.

      isym =  1     identity                                     

 cryst.   s( 1) = (     1          0          0      )
                  (     0          1          0      )
                  (     0          0          1      )

 cart.    s( 1) = (  1.0000000  0.0000000  0.0000000 )
                  (  0.0000000  1.0000000  0.0000000 )
                  (  0.0000000  0.0000000  1.0000000 )


      isym =  2     180 deg rotation - cart. axis [0,0,1]        

 cryst.   s( 2) = (     0          1         -1      )
                  (     1          0         -1      )
                  (     0          0         -1      )

 cart.    s( 2) = ( -1.0000000  0.0000000  0.0000000 )
                  (  0.0000000 -1.0000000  0.0000000 )
                  (  0.0000000  0.0000000  1.0000000 )


      isym =  3     180 deg rotation - cart. axis [0,1,0]        

 cryst.   s( 3) = (     0         -1          1      )
                  (     0         -1          0      )
                  (     1         -1          0      )

 cart.    s( 3) = ( -1.0000000  0.0000000  0.0000000 )
                  (  0.0000000  1.0000000  0.0000000 )
                  (  0.0000000  0.0000000 -1.0000000 )


      isym =  4     180 deg rotation - cart. axis [1,0,0]        

 cryst.   s( 4) = (    -1          0          0      )
                  (    -1          0          1      )
                  (    -1          1          0      )

 cart.    s( 4) = (  1.0000000  0.0000000  0.0000000 )
                  (  0.0000000 -1.0000000  0.0000000 )
                  (  0.0000000  0.0000000 -1.0000000 )


      isym =  5     120 deg rotation - cart. axis [-1,-1,-1]     

 cryst.   s( 5) = (     0          0          1      )
                  (     1          0          0      )
                  (     0          1          0      )

 cart.    s( 5) = (  0.0000000  1.0000000  0.0000000 )
                  (  0.0000000  0.0000000  1.0000000 )
                  (  1.0000000  0.0000000  0.0000000 )


      isym =  6     120 deg rotation - cart. axis [-1,1,1]       

 cryst.   s( 6) = (     1         -1          0      )
                  (     0         -1          1      )
                  (     0         -1          0      )

 cart.    s( 6) = (  0.0000000 -1.0000000  0.0000000 )
                  (  0.0000000  0.0000000  1.0000000 )
                  ( -1.0000000  0.0000000  0.0000000 )


      isym =  7     120 deg rotation - cart. axis [1,1,-1]       

 cryst.   s( 7) = (    -1          1          0      )
                  (    -1          0          0      )
                  (    -1          0          1      )

 cart.    s( 7) = (  0.0000000  1.0000000  0.0000000 )
                  (  0.0000000  0.0000000 -1.0000000 )
                  ( -1.0000000  0.0000000  0.0000000 )


      isym =  8     120 deg rotation - cart. axis [1,-1,1]       

 cryst.   s( 8) = (     0          0         -1      )
                  (     0          1         -1      )
                  (     1          0         -1      )

 cart.    s( 8) = (  0.0000000 -1.0000000  0.0000000 )
                  (  0.0000000  0.0000000 -1.0000000 )
                  (  1.0000000  0.0000000  0.0000000 )


      isym =  9     120 deg rotation - cart. axis [1,1,1]        

 cryst.   s( 9) = (     0          1          0      )
                  (     0          0          1      )
                  (     1          0          0      )

 cart.    s( 9) = (  0.0000000  0.0000000  1.0000000 )
                  (  1.0000000  0.0000000  0.0000000 )
                  (  0.0000000  1.0000000  0.0000000 )


      isym = 10     120 deg rotation - cart. axis [-1,1,-1]      

 cryst.   s(10) = (    -1          0          1      )
                  (    -1          1          0      )
                  (    -1          0          0      )

 cart.    s(10) = (  0.0000000  0.0000000  1.0000000 )
                  ( -1.0000000  0.0000000  0.0000000 )
                  (  0.0000000 -1.0000000  0.0000000 )


      isym = 11     120 deg rotation - cart. axis [1,-1,-1]      

 cryst.   s(11) = (     1          0         -1      )
                  (     0          0         -1      )
                  (     0          1         -1      )

 cart.    s(11) = (  0.0000000  0.0000000 -1.0000000 )
                  ( -1.0000000  0.0000000  0.0000000 )
                  (  0.0000000  1.0000000  0.0000000 )


      isym = 12     120 deg rotation - cart. axis [-1,-1,1]      

 cryst.   s(12) = (     0         -1          0      )
                  (     1         -1          0      )
                  (     0         -1          1      )

 cart.    s(12) = (  0.0000000  0.0000000 -1.0000000 )
                  (  1.0000000  0.0000000  0.0000000 )
                  (  0.0000000 -1.0000000  0.0000000 )


      isym = 13     inv. 180 deg rotation - cart. axis [1,1,0]   

 cryst.   s(13) = (     1          0         -1      )
                  (     0          1         -1      )
                  (     0          0         -1      )

 cart.    s(13) = (  0.0000000 -1.0000000  0.0000000 )
                  ( -1.0000000  0.0000000  0.0000000 )
                  (  0.0000000  0.0000000  1.0000000 )


      isym = 14     inv. 180 deg rotation - cart. axis [1,-1,0]  

 cryst.   s(14) = (     0          1          0      )
                  (     1          0          0      )
                  (     0          0          1      )

 cart.    s(14) = (  0.0000000  1.0000000  0.0000000 )
                  (  1.0000000  0.0000000  0.0000000 )
                  (  0.0000000  0.0000000  1.0000000 )


      isym = 15     inv.  90 deg rotation - cart. axis [0,0,-1]  

 cryst.   s(15) = (     0         -1          0      )
                  (     0         -1          1      )
                  (     1         -1          0      )

 cart.    s(15) = (  0.0000000 -1.0000000  0.0000000 )
                  (  1.0000000  0.0000000  0.0000000 )
                  (  0.0000000  0.0000000 -1.0000000 )


      isym = 16     inv.  90 deg rotation - cart. axis [0,0,1]   

 cryst.   s(16) = (    -1          0          1      )
                  (    -1          0          0      )
                  (    -1          1          0      )

 cart.    s(16) = (  0.0000000  1.0000000  0.0000000 )
                  ( -1.0000000  0.0000000  0.0000000 )
                  (  0.0000000  0.0000000 -1.0000000 )


      isym = 17     inv. 180 deg rotation - cart. axis [1,0,1]   

 cryst.   s(17) = (     1         -1          0      )
                  (     0         -1          0      )
                  (     0         -1          1      )

 cart.    s(17) = (  0.0000000  0.0000000 -1.0000000 )
                  (  0.0000000  1.0000000  0.0000000 )
                  ( -1.0000000  0.0000000  0.0000000 )


      isym = 18     inv. 180 deg rotation - cart. axis [-1,0,1]  

 cryst.   s(18) = (     0          0          1      )
                  (     0          1          0      )
                  (     1          0          0      )

 cart.    s(18) = (  0.0000000  0.0000000  1.0000000 )
                  (  0.0000000  1.0000000  0.0000000 )
                  (  1.0000000  0.0000000  0.0000000 )


      isym = 19     inv.  90 deg rotation - cart. axis [0,1,0]   

 cryst.   s(19) = (     0          0         -1      )
                  (     1          0         -1      )
                  (     0          1         -1      )

 cart.    s(19) = (  0.0000000  0.0000000 -1.0000000 )
                  (  0.0000000 -1.0000000  0.0000000 )
                  (  1.0000000  0.0000000  0.0000000 )


      isym = 20     inv.  90 deg rotation - cart. axis [0,-1,0]  

 cryst.   s(20) = (    -1          1          0      )
                  (    -1          0          1      )
                  (    -1          0          0      )

 cart.    s(20) = (  0.0000000  0.0000000  1.0000000 )
                  (  0.0000000 -1.0000000  0.0000000 )
                  ( -1.0000000  0.0000000  0.0000000 )


      isym = 21     inv. 180 deg rotation - cart. axis [0,1,1]   

 cryst.   s(21) = (    -1          0          0      )
                  (    -1          1          0      )
                  (    -1          0          1      )

 cart.    s(21) = (  1.0000000  0.0000000  0.0000000 )
                  (  0.0000000  0.0000000 -1.0000000 )
                  (  0.0000000 -1.0000000  0.0000000 )


      isym = 22     inv. 180 deg rotation - cart. axis [0,1,-1]  

 cryst.   s(22) = (     1          0          0      )
                  (     0          0          1      )
                  (     0          1          0      )

 cart.    s(22) = (  1.0000000  0.0000000  0.0000000 )
                  (  0.0000000  0.0000000  1.0000000 )
                  (  0.0000000  1.0000000  0.0000000 )


      isym = 23     inv.  90 deg rotation - cart. axis [-1,0,0]  

 cryst.   s(23) = (     0          1         -1      )
                  (     0          0         -1      )
                  (     1          0         -1      )

 cart.    s(23) = ( -1.0000000  0.0000000  0.0000000 )
                  (  0.0000000  0.0000000 -1.0000000 )
                  (  0.0000000  1.0000000  0.0000000 )


      isym = 24     inv.  90 deg rotation - cart. axis [1,0,0]   

 cryst.   s(24) = (     0         -1          1      )
                  (     1         -1          0      )
                  (     0         -1          0      )

 cart.    s(24) = ( -1.0000000  0.0000000  0.0000000 )
                  (  0.0000000  0.0000000  1.0000000 )
                  (  0.0000000 -1.0000000  0.0000000 )


   Cartesian axes

     site n.     atom                  positions (alat units)
         1        K      tau(   1) = (   0.3535534   0.3535534   0.3535534  )
         2        V      tau(   2) = (   0.0000000   0.0000000   0.0000000  )
         3        Cr     tau(   3) = (   0.7071068   0.7071068   0.7071068  )
         4        C      tau(   4) = (   0.4343911   0.7071068   0.7071068  )
         5        C      tau(   5) = (   0.9798225   0.7071068   0.7071068  )
         6        C      tau(   6) = (   0.7071068   0.4343911   0.7071068  )
         7        C      tau(   7) = (   0.7071068   0.9798225   0.7071068  )
         8        C      tau(   8) = (   0.7071068   0.7071068   0.4343911  )
         9        C      tau(   9) = (   0.7071068   0.7071068   0.9798225  )
        10        N      tau(  10) = (   0.2796732   0.7071068   0.7071068  )
        11        N      tau(  11) = (   1.1345404   0.7071068   0.7071068  )
        12        N      tau(  12) = (   0.7071068   0.2796732   0.7071068  )
        13        N      tau(  13) = (   0.7071068   1.1345404   0.7071068  )
        14        N      tau(  14) = (   0.7071068   0.7071068   0.2796732  )
        15        N      tau(  15) = (   0.7071068   0.7071068   1.1345404  )

   Crystallographic axes

     site n.     atom                  positions (cryst. coord.)
         1        K      tau(   1) = (  0.2500000  0.2500000  0.2500000  )
         2        V      tau(   2) = (  0.0000000  0.0000000  0.0000000  )
         3        Cr     tau(   3) = (  0.5000000  0.5000000  0.5000000  )
         4        C      tau(   4) = (  0.6928391  0.3071609  0.3071609  )
         5        C      tau(   5) = (  0.3071609  0.6928391  0.6928391  )
         6        C      tau(   6) = (  0.3071609  0.6928391  0.3071609  )
         7        C      tau(   7) = (  0.6928391  0.3071609  0.6928391  )
         8        C      tau(   8) = (  0.3071609  0.3071609  0.6928391  )
         9        C      tau(   9) = (  0.6928391  0.6928391  0.3071609  )
        10        N      tau(  10) = (  0.8022412  0.1977588  0.1977588  )
        11        N      tau(  11) = (  0.1977588  0.8022412  0.8022412  )
        12        N      tau(  12) = (  0.1977588  0.8022412  0.1977588  )
        13        N      tau(  13) = (  0.8022412  0.1977588  0.8022412  )
        14        N      tau(  14) = (  0.1977588  0.1977588  0.8022412  )
        15        N      tau(  15) = (  0.8022412  0.8022412  0.1977588  )

     number of k points=    29  Gaussian smearing, width (Ry)=  0.0050
                       cart. coord. in units 2pi/alat
        k(    1) = (   0.0000000   0.0000000   0.0000000), wk =   0.0019531
        k(    2) = (   0.0883883   0.0883883  -0.0883883), wk =   0.0156250
        k(    3) = (   0.1767767   0.1767767  -0.1767767), wk =   0.0156250
        k(    4) = (   0.2651650   0.2651650  -0.2651650), wk =   0.0156250
        k(    5) = (  -0.3535534  -0.3535534   0.3535534), wk =   0.0078125
        k(    6) = (   0.1767767   0.0000000   0.0000000), wk =   0.0117188
        k(    7) = (   0.2651650   0.0883883  -0.0883883), wk =   0.0468750
        k(    8) = (   0.3535534   0.1767767  -0.1767767), wk =   0.0468750
        k(    9) = (  -0.2651650  -0.4419417   0.4419417), wk =   0.0468750
        k(   10) = (  -0.1767767  -0.3535534   0.3535534), wk =   0.0468750
        k(   11) = (  -0.0883883  -0.2651650   0.2651650), wk =   0.0468750
        k(   12) = (   0.0000000  -0.1767767   0.1767767), wk =   0.0234375
        k(   13) = (   0.3535534   0.0000000   0.0000000), wk =   0.0117188
        k(   14) = (   0.4419417   0.0883883  -0.0883883), wk =   0.0468750
        k(   15) = (  -0.1767767  -0.5303301   0.5303301), wk =   0.0468750
        k(   16) = (  -0.0883883  -0.4419417   0.4419417), wk =   0.0468750
        k(   17) = (   0.0000000  -0.3535534   0.3535534), wk =   0.0234375
        k(   18) = (   0.5303301   0.0000000   0.0000000), wk =   0.0117188
        k(   19) = (  -0.0883883  -0.6187184   0.6187184), wk =   0.0468750
        k(   20) = (   0.0000000  -0.5303301   0.5303301), wk =   0.0234375
        k(   21) = (  -0.7071068   0.0000000   0.0000000), wk =   0.0058594
        k(   22) = (   0.3535534   0.1767767   0.0000000), wk =   0.0468750
        k(   23) = (  -0.2651650  -0.4419417   0.6187184), wk =   0.0937500
        k(   24) = (  -0.1767767  -0.3535534   0.5303301), wk =   0.0468750
        k(   25) = (  -0.1767767  -0.5303301   0.7071068), wk =   0.0468750
        k(   26) = (  -0.0883883  -0.4419417   0.6187184), wk =   0.0937500
        k(   27) = (  -0.0000000  -0.3535534   0.5303301), wk =   0.0468750
        k(   28) = (  -0.7071068   0.1767767   0.0000000), wk =   0.0234375
        k(   29) = (  -0.7071068   0.3535534   0.0000000), wk =   0.0117188

                       cryst. coord.
        k(    1) = (   0.0000000   0.0000000   0.0000000), wk =   0.0019531
        k(    2) = (   0.0000000   0.0000000   0.1250000), wk =   0.0156250
        k(    3) = (   0.0000000   0.0000000   0.2500000), wk =   0.0156250
        k(    4) = (   0.0000000   0.0000000   0.3750000), wk =   0.0156250
        k(    5) = (   0.0000000   0.0000000  -0.5000000), wk =   0.0078125
        k(    6) = (   0.0000000   0.1250000   0.1250000), wk =   0.0117188
        k(    7) = (   0.0000000   0.1250000   0.2500000), wk =   0.0468750
        k(    8) = (   0.0000000   0.1250000   0.3750000), wk =   0.0468750
        k(    9) = (   0.0000000   0.1250000  -0.5000000), wk =   0.0468750
        k(   10) = (   0.0000000   0.1250000  -0.3750000), wk =   0.0468750
        k(   11) = (   0.0000000   0.1250000  -0.2500000), wk =   0.0468750
        k(   12) = (   0.0000000   0.1250000  -0.1250000), wk =   0.0234375
        k(   13) = (   0.0000000   0.2500000   0.2500000), wk =   0.0117188
        k(   14) = (   0.0000000   0.2500000   0.3750000), wk =   0.0468750
        k(   15) = (   0.0000000   0.2500000  -0.5000000), wk =   0.0468750
        k(   16) = (   0.0000000   0.2500000  -0.3750000), wk =   0.0468750
        k(   17) = (   0.0000000   0.2500000  -0.2500000), wk =   0.0234375
        k(   18) = (   0.0000000   0.3750000   0.3750000), wk =   0.0117188
        k(   19) = (   0.0000000   0.3750000  -0.5000000), wk =   0.0468750
        k(   20) = (   0.0000000   0.3750000  -0.3750000), wk =   0.0234375
        k(   21) = (   0.0000000  -0.5000000  -0.5000000), wk =   0.0058594
        k(   22) = (   0.1250000   0.2500000   0.3750000), wk =   0.0468750
        k(   23) = (   0.1250000   0.2500000  -0.5000000), wk =   0.0937500
        k(   24) = (   0.1250000   0.2500000  -0.3750000), wk =   0.0468750
        k(   25) = (   0.1250000   0.3750000  -0.5000000), wk =   0.0468750
        k(   26) = (   0.1250000   0.3750000  -0.3750000), wk =   0.0937500
        k(   27) = (   0.1250000   0.3750000  -0.2500000), wk =   0.0468750
        k(   28) = (   0.1250000  -0.5000000  -0.3750000), wk =   0.0234375
        k(   29) = (   0.2500000  -0.5000000  -0.2500000), wk =   0.0117188

     Dense  grid:   365115 G-vectors     FFT dimensions: ( 100, 100, 100)

     Smooth grid:   129045 G-vectors     FFT dimensions: (  72,  72,  72)

     Dynamical RAM for                 wfc:       3.32 MB

     Dynamical RAM for     wfc (w. buffer):      29.90 MB

     Dynamical RAM for             U proj.:       0.62 MB

     Dynamical RAM for  U proj. (w. buff.):       5.54 MB

     Dynamical RAM for           str. fact:       6.96 MB

     Dynamical RAM for           local pot:       0.00 MB

     Dynamical RAM for          nlocal pot:       9.23 MB

     Dynamical RAM for                qrad:       8.79 MB

     Dynamical RAM for          rho,v,vnew:      19.80 MB

     Dynamical RAM for           G-vectors:       5.47 MB

     Dynamical RAM for          h,s,v(r/c):       0.53 MB

     Dynamical RAM for          <psi|beta>:       0.12 MB

     Dynamical RAM for                 psi:       6.64 MB

     Dynamical RAM for                hpsi:       6.64 MB

     Dynamical RAM for                spsi:       6.64 MB

     Dynamical RAM for      wfcinit/wfcrot:       6.71 MB

     Dynamical RAM for           addusdens:      36.04 MB

     Estimated static dynamical RAM per process >     105.49 MB

     Estimated max dynamical RAM per process >     141.53 MB

     Estimated total dynamical RAM >       4.42 GB

     Check: negative core charge=   -0.000003
     Generating pointlists ...
     new r_m :   0.2085 (alat units)  2.9753 (a.u.) for type    1
     new r_m :   0.1154 (alat units)  1.6464 (a.u.) for type    2
     new r_m :   0.1125 (alat units)  1.6054 (a.u.) for type    3
     new r_m :   0.0638 (alat units)  0.9108 (a.u.) for type    4
     new r_m :   0.0638 (alat units)  0.9108 (a.u.) for type    5

     The potential is recalculated from file :
     /tmp/scratch/65640244/KVCr_LCM/KVCr_LCM.save/charge-density


     negative rho (up, down):  3.112E-03 4.561E-03

     HUBBARD ENERGY =    0.2380  (Ry)

     STARTING HUBBARD OCCUPATIONS:

     =================== HUBBARD OCCUPATIONS ===================
     ------------------------ ATOM    2 ------------------------
     Tr[ns(  2)] (up, down, total) =   0.40609  3.09412  3.50021
     Atomic magnetic moment for atom   2 =  -2.68803
     SPIN  1
     eigenvalues:
       0.026  0.026  0.026  0.163  0.163
     eigenvectors (columns):
      -0.000  0.000 -0.000  0.787 -0.617
      -0.301 -0.742  0.599 -0.000 -0.000
      -0.462 -0.436 -0.772 -0.000 -0.000
       0.000 -0.000 -0.000 -0.617 -0.787
       0.834 -0.509 -0.212  0.000  0.000
     occupation matrix ns (before diag.):
       0.163 -0.000 -0.000  0.000  0.000
      -0.000  0.026 -0.000  0.000  0.000
      -0.000 -0.000  0.026  0.000  0.000
       0.000  0.000  0.000  0.163 -0.000
       0.000  0.000  0.000 -0.000  0.026
     SPIN  2
     eigenvalues:
       0.202  0.202  0.897  0.897  0.897
     eigenvectors (columns):
      -0.577  0.816 -0.000  0.000  0.000
      -0.000 -0.000  0.294  0.730 -0.617
      -0.000 -0.000  0.491  0.438  0.753
       0.816  0.577  0.000  0.000 -0.000
       0.000 -0.000 -0.820  0.524  0.230
     occupation matrix ns (before diag.):
       0.202 -0.000 -0.000  0.000  0.000
      -0.000  0.897 -0.000  0.000  0.000
      -0.000 -0.000  0.897  0.000  0.000
       0.000  0.000  0.000  0.202 -0.000
       0.000  0.000  0.000 -0.000  0.897
     ------------------------ ATOM    3 ------------------------
     Tr[ns(  3)] (up, down, total) =   3.58856  0.68675  4.27531
     Atomic magnetic moment for atom   3 =   2.90181
     SPIN  1
     eigenvalues:
       0.406  0.406  0.925  0.925  0.925
     eigenvectors (columns):
      -0.496  0.869 -0.000  0.000  0.000
      -0.000  0.000  0.305  0.709 -0.636
      -0.000 -0.000  0.487  0.458  0.744
       0.869  0.496  0.000 -0.000 -0.000
       0.000 -0.000 -0.818  0.537  0.205
     occupation matrix ns (before diag.):
       0.406 -0.000 -0.000  0.000  0.000
      -0.000  0.925 -0.000  0.000  0.000
      -0.000 -0.000  0.925  0.000  0.000
       0.000  0.000  0.000  0.406 -0.000
       0.000  0.000  0.000 -0.000  0.925
     SPIN  2
     eigenvalues:
       0.037  0.037  0.037  0.288  0.288
     eigenvectors (columns):
      -0.000  0.000 -0.000  0.781 -0.624
      -0.316 -0.543  0.778 -0.000 -0.000
      -0.516 -0.590 -0.621 -0.000 -0.000
       0.000 -0.000  0.000 -0.624 -0.781
       0.796 -0.598 -0.094  0.000  0.000
     occupation matrix ns (before diag.):
       0.288 -0.000 -0.000  0.000  0.000
      -0.000  0.037 -0.000  0.000  0.000
      -0.000 -0.000  0.037  0.000  0.000
       0.000  0.000  0.000  0.288 -0.000
       0.000  0.000  0.000 -0.000  0.037

     Number of occupied Hubbard levels =    7.7755

     Atomic wfc used for Hubbard projectors are orthogonalized

     Starting wfcs are   76 randomized atomic wfcs
     Checking if some PAW data can be deallocated... 
       PAW data deallocated on   29 nodes for type:  1
       PAW data deallocated on   20 nodes for type:  4

     Band Structure Calculation
     Davidson diagonalization with overlap

     Computing kpt #:     1  of     8 on this pool
     total cpu time spent up to now is       12.1 secs

     Computing kpt #:     2  of     8 on this pool
     total cpu time spent up to now is       21.0 secs

     Computing kpt #:     3  of     8 on this pool
     total cpu time spent up to now is       29.6 secs

     Computing kpt #:     4  of     8 on this pool
     total cpu time spent up to now is       38.2 secs

     Computing kpt #:     5  of     8 on this pool
     total cpu time spent up to now is       46.7 secs

     Computing kpt #:     6  of     8 on this pool
     total cpu time spent up to now is       55.5 secs

     Computing kpt #:     7  of     8 on this pool
     total cpu time spent up to now is       64.4 secs

     Computing kpt #:     8  of     8 on this pool
     total cpu time spent up to now is       69.2 secs

     ethr =  1.67E-10,  avg # of iterations = 89.3

     total cpu time spent up to now is       70.5 secs

     End of band structure calculation

 ------ SPIN UP ------------


          k = 0.0000 0.0000 0.0000 ( 16265 PWs)   bands (ev):

   -71.5022 -59.9285 -42.8156 -42.8156 -42.8156 -33.8186 -33.8186 -33.8186
   -29.1676 -16.2792 -16.0892 -16.0892 -16.0891 -16.0375 -16.0375 -12.6164
   -12.6164 -12.6164  -6.8722  -5.0113  -5.0113  -5.0113  -4.8991  -4.8991
    -4.5322  -3.3086  -3.3086  -3.3086  -2.8017  -2.8016  -2.3823  -2.3823
    -2.3823  -2.0499  -2.0499  -2.0499  -1.8469  -1.8469  -1.8469  -1.5573
    -1.5573  -1.5573  -1.0266  -1.0266  -1.0266   4.5434   4.5434   4.5434
     4.5741   4.5741   5.1455   5.8003   5.8003   5.8003

     occupation numbers 
     1.0000   1.0000   1.0000   1.0000   1.0000   1.0000   1.0000   1.0000
     1.0000   1.0000   1.0000   1.0000   1.0000   1.0000   1.0000   1.0000
     1.0000   1.0000   1.0000   1.0000   1.0000   1.0000   1.0000   1.0000
     1.0000   1.0000   1.0000   1.0000   1.0000   1.0000   1.0000   1.0000
     1.0000   1.0000   1.0000   1.0000   1.0000   1.0000   1.0000   1.0000
     1.0000   1.0000   1.0000   1.0000   1.0000   0.0000   0.0000   0.0000
     0.0000   0.0000   0.0000   0.0000   0.0000   0.0000

          k = 0.0884 0.0884-0.0884 ( 16163 PWs)   bands (ev):

   -71.5022 -59.9285 -42.8156 -42.8156 -42.8156 -33.8186 -33.8186 -33.8186
   -29.1676 -16.2736 -16.0955 -16.0873 -16.0873 -16.0394 -16.0394 -12.6163
   -12.6163 -12.6159  -6.8331  -5.2207  -5.0025  -5.0025  -4.8976  -4.8976
    -4.3311  -3.3038  -3.2857  -3.2857  -2.8200  -2.8200  -2.4381  -2.4108
    -2.4108  -2.1057  -2.1057  -2.0348  -1.8643  -1.8636  -1.8636  -1.5758
    -1.5172  -1.5172  -0.9897  -0.9807  -0.9807   4.5638   4.5696   4.5696
     4.5963   4.5963   5.2277   5.7662   5.8296   5.8296

     occupation numbers 
     1.0000   1.0000   1.0000   1.0000   1.0000   1.0000   1.0000   1.0000
     1.0000   1.0000   1.0000   1.0000   1.0000   1.0000   1.0000   1.0000
     1.0000   1.0000   1.0000   1.0000   1.0000   1.0000   1.0000   1.0000
     1.0000   1.0000   1.0000   1.0000   1.0000   1.0000   1.0000   1.0000
     1.0000   1.0000   1.0000   1.0000   1.0000   1.0000   1.0000   1.0000
     1.0000   1.0000   1.0000   1.0000   1.0000   0.0000   0.0000   0.0000
     0.0000   0.0000   0.0000   0.0000   0.0000   0.0000

          k = 0.1768 0.1768-0.1768 ( 16166 PWs)   bands (ev):

   -71.5022 -59.9285 -42.8156 -42.8156 -42.8156 -33.8186 -33.8186 -33.8186
   -29.1675 -16.2579 -16.1128 -16.0823 -16.0823 -16.0447 -16.0447 -12.6159
   -12.6159 -12.6145  -6.7199  -5.5561  -4.9799  -4.9799  -4.8950  -4.8950
    -4.0225  -3.2910  -3.2217  -3.2217  -2.8554  -2.8554  -2.5809  -2.5100
    -2.5100  -2.2250  -2.2250  -1.9923  -1.9028  -1.8640  -1.8640  -1.6265
    -1.4480  -1.4480  -0.9095  -0.8863  -0.8863   4.6002   4.6002   4.6204
     4.7001   4.7001   5.4429   5.6912   5.8576   5.8576

     occupation numbers 
     1.0000   1.0000   1.0000   1.0000   1.0000   1.0000   1.0000   1.0000
     1.0000   1.0000   1.0000   1.0000   1.0000   1.0000   1.0000   1.0000
     1.0000   1.0000   1.0000   1.0000   1.0000   1.0000   1.0000   1.0000
     1.0000   1.0000   1.0000   1.0000   1.0000   1.0000   1.0000   1.0000
     1.0000   1.0000   1.0000   1.0000   1.0000   1.0000   1.0000   1.0000
     1.0000   1.0000   1.0000   1.0000   1.0000   0.0000   0.0000   0.0000
     0.0000   0.0000   0.0000   0.0000   0.0000   0.0000

          k = 0.2652 0.2652-0.2652 ( 16132 PWs)   bands (ev):

   -71.5022 -59.9285 -42.8156 -42.8156 -42.8156 -33.8186 -33.8186 -33.8186
   -29.1675 -16.2372 -16.1351 -16.0751 -16.0751 -16.0521 -16.0521 -12.6155
   -12.6155 -12.6131  -6.5499  -5.8724  -4.9539  -4.9539  -4.8953  -4.8953
    -3.7610  -3.2741  -3.1371  -3.1371  -2.8692  -2.8692  -2.7500  -2.6554
    -2.6554  -2.3345  -2.3345  -1.9391  -1.9332  -1.8342  -1.8342  -1.6937
    -1.4008  -1.4008  -0.8380  -0.8068  -0.8068   4.6296   4.6296   4.6908
     4.8436   4.8436   5.5275   5.7640   5.7640   5.8140

     occupation numbers 
     1.0000   1.0000   1.0000   1.0000   1.0000   1.0000   1.0000   1.0000
     1.0000   1.0000   1.0000   1.0000   1.0000   1.0000   1.0000   1.0000
     1.0000   1.0000   1.0000   1.0000   1.0000   1.0000   1.0000   1.0000
     1.0000   1.0000   1.0000   1.0000   1.0000   1.0000   1.0000   1.0000
     1.0000   1.0000   1.0000   1.0000   1.0000   1.0000   1.0000   1.0000
     1.0000   1.0000   1.0000   1.0000   1.0000   0.0000   0.0000   0.0000
     0.0000   0.0000   0.0000   0.0000   0.0000   0.0000

          k =-0.3536-0.3536 0.3536 ( 16138 PWs)   bands (ev):

   -71.5022 -59.9285 -42.8156 -42.8156 -42.8156 -33.8186 -33.8186 -33.8186
   -29.1675 -16.2252 -16.1477 -16.0701 -16.0701 -16.0573 -16.0573 -12.6154
   -12.6154 -12.6126  -6.4218  -6.0506  -4.9409  -4.9409  -4.8975  -4.8975
    -3.6470  -3.2631  -3.0920  -3.0920  -2.8400  -2.8400  -2.8385  -2.7597
    -2.7597  -2.3781  -2.3781  -1.9539  -1.8955  -1.8173  -1.8173  -1.7348
    -1.3856  -1.3856  -0.8104  -0.7770  -0.7770   4.6429   4.6429   4.7258
     4.9235   4.9235   5.4908   5.6802   5.6802   5.9866

     occupation numbers 
     1.0000   1.0000   1.0000   1.0000   1.0000   1.0000   1.0000   1.0000
     1.0000   1.0000   1.0000   1.0000   1.0000   1.0000   1.0000   1.0000
     1.0000   1.0000   1.0000   1.0000   1.0000   1.0000   1.0000   1.0000
     1.0000   1.0000   1.0000   1.0000   1.0000   1.0000   1.0000   1.0000
     1.0000   1.0000   1.0000   1.0000   1.0000   1.0000   1.0000   1.0000
     1.0000   1.0000   1.0000   1.0000   1.0000   0.0000   0.0000   0.0000
     0.0000   0.0000   0.0000   0.0000   0.0000   0.0000

          k = 0.1768 0.0000 0.0000 ( 16165 PWs)   bands (ev):

   -71.5022 -59.9285 -42.8156 -42.8156 -42.8156 -33.8186 -33.8186 -33.8186
   -29.1676 -16.2718 -16.0921 -16.0894 -16.0894 -16.0427 -16.0374 -12.6161
   -12.6161 -12.6159  -6.8218  -5.2603  -5.0010  -5.0010  -4.8994  -4.8955
    -4.2890  -3.3133  -3.2726  -3.2726  -2.8514  -2.8010  -2.4582  -2.4224
    -2.4224  -2.1117  -2.1117  -2.0573  -1.9092  -1.9092  -1.7695  -1.5577
    -1.5183  -1.5183  -1.0267  -0.9441  -0.9441   4.5353   4.5806   4.5952
     4.6131   4.6131   5.2554   5.7985   5.8210   5.8210

     occupation numbers 
     1.0000   1.0000   1.0000   1.0000   1.0000   1.0000   1.0000   1.0000
     1.0000   1.0000   1.0000   1.0000   1.0000   1.0000   1.0000   1.0000
     1.0000   1.0000   1.0000   1.0000   1.0000   1.0000   1.0000   1.0000
     1.0000   1.0000   1.0000   1.0000   1.0000   1.0000   1.0000   1.0000
     1.0000   1.0000   1.0000   1.0000   1.0000   1.0000   1.0000   1.0000
     1.0000   1.0000   1.0000   1.0000   1.0000   0.0000   0.0000   0.0000
     0.0000   0.0000   0.0000   0.0000   0.0000   0.0000

          k = 0.2652 0.0884-0.0884 ( 16151 PWs)   bands (ev):

   -71.5022 -59.9285 -42.8156 -42.8156 -42.8156 -33.8186 -33.8186 -33.8186
   -29.1675 -16.2597 -16.1050 -16.0878 -16.0835 -16.0493 -16.0392 -12.6158
   -12.6158 -12.6148  -6.7385  -5.5047  -4.9840  -4.9827  -4.8988  -4.8911
    -4.0598  -3.3084  -3.2220  -3.2173  -2.8991  -2.8160  -2.5878  -2.4982
    -2.4874  -2.2096  -2.1956  -2.0301  -1.9702  -1.9402  -1.7037  -1.5951
    -1.4688  -1.4545  -0.9849  -0.8616  -0.8584   4.5591   4.5929   4.6156
     4.7121   4.7217   5.4291   5.7320   5.8487   5.8921

     occupation numbers 
     1.0000   1.0000   1.0000   1.0000   1.0000   1.0000   1.0000   1.0000
     1.0000   1.0000   1.0000   1.0000   1.0000   1.0000   1.0000   1.0000
     1.0000   1.0000   1.0000   1.0000   1.0000   1.0000   1.0000   1.0000
     1.0000   1.0000   1.0000   1.0000   1.0000   1.0000   1.0000   1.0000
     1.0000   1.0000   1.0000   1.0000   1.0000   1.0000   1.0000   1.0000
     1.0000   1.0000   1.0000   1.0000   1.0000   0.0000   0.0000   0.0000
     0.0000   0.0000   0.0000   0.0000   0.0000   0.0000

          k = 0.3536 0.1768-0.1768 ( 16119 PWs)   bands (ev):

   -71.5022 -59.9285 -42.8156 -42.8156 -42.8156 -33.8186 -33.8186 -33.8186
   -29.1675 -16.2408 -16.1259 -16.0829 -16.0755 -16.0573 -16.0444 -12.6154
   -12.6154 -12.6135  -6.5945  -5.7928  -4.9589  -4.9566  -4.8982  -4.8894
    -3.8079  -3.2905  -3.1500  -3.1360  -2.9348  -2.8361  -2.7536  -2.6369
    -2.5882  -2.3191  -2.3069  -2.0352  -1.9712  -1.9151  -1.6685  -1.6651
    -1.4099  -1.3938  -0.8968  -0.7918  -0.7826   4.6086   4.6169   4.6627
     4.8371   4.8757   5.5665   5.7757   5.8006   5.8869

     occupation numbers 
     1.0000   1.0000   1.0000   1.0000   1.0000   1.0000   1.0000   1.0000
     1.0000   1.0000   1.0000   1.0000   1.0000   1.0000   1.0000   1.0000
     1.0000   1.0000   1.0000   1.0000   1.0000   1.0000   1.0000   1.0000
     1.0000   1.0000   1.0000   1.0000   1.0000   1.0000   1.0000   1.0000
     1.0000   1.0000   1.0000   1.0000   1.0000   1.0000   1.0000   1.0000
     1.0000   1.0000   1.0000   1.0000   1.0000   0.0000   0.0000   0.0000
     0.0000   0.0000   0.0000   0.0000   0.0000   0.0000

          k =-0.2652-0.4419 0.4419 ( 16144 PWs)   bands (ev):

   -71.5022 -59.9285 -42.8156 -42.8156 -42.8156 -33.8186 -33.8186 -33.8186
   -29.1675 -16.2245 -16.1434 -16.0757 -16.0735 -16.0592 -16.0517 -12.6152
   -12.6151 -12.6127  -6.4404  -6.0200  -4.9403  -4.9364  -4.8980  -4.8950
    -3.6412  -3.2700  -3.0978  -3.0766  -2.9687  -2.8250  -2.8151  -2.7682
    -2.6944  -2.3832  -2.3830  -2.0747  -1.9133  -1.8615  -1.7306  -1.6760
    -1.3729  -1.3666  -0.8218  -0.7666  -0.7514   4.6273   4.6394   4.7357
     4.9135   4.9833   5.5487   5.7126   5.7392   6.0223

     occupation numbers 
     1.0000   1.0000   1.0000   1.0000   1.0000   1.0000   1.0000   1.0000
     1.0000   1.0000   1.0000   1.0000   1.0000   1.0000   1.0000   1.0000
     1.0000   1.0000   1.0000   1.0000   1.0000   1.0000   1.0000   1.0000
     1.0000   1.0000   1.0000   1.0000   1.0000   1.0000   1.0000   1.0000
     1.0000   1.0000   1.0000   1.0000   1.0000   1.0000   1.0000   1.0000
     1.0000   1.0000   1.0000   1.0000   1.0000   0.0000   0.0000   0.0000
     0.0000   0.0000   0.0000   0.0000   0.0000   0.0000

          k =-0.1768-0.3536 0.3536 ( 16131 PWs)   bands (ev):

   -71.5022 -59.9285 -42.8156 -42.8156 -42.8156 -33.8186 -33.8186 -33.8186
   -29.1675 -16.2284 -16.1396 -16.0806 -16.0701 -16.0573 -16.0517 -12.6154
   -12.6150 -12.6129  -6.4795  -5.9686  -4.9446  -4.9400  -4.8990  -4.8933
    -3.6775  -3.2698  -3.1056  -3.1011  -2.9369  -2.8862  -2.7850  -2.6962
    -2.6830  -2.3759  -2.3647  -2.0787  -1.9219  -1.8236  -1.7211  -1.7206
    -1.3917  -1.3569  -0.8083  -0.7816  -0.7759   4.6199   4.6424   4.7373
     4.8943   4.9208   5.5494   5.7394   5.7900   5.9602

     occupation numbers 
     1.0000   1.0000   1.0000   1.0000   1.0000   1.0000   1.0000   1.0000
     1.0000   1.0000   1.0000   1.0000   1.0000   1.0000   1.0000   1.0000
     1.0000   1.0000   1.0000   1.0000   1.0000   1.0000   1.0000   1.0000
     1.0000   1.0000   1.0000   1.0000   1.0000   1.0000   1.0000   1.0000
     1.0000   1.0000   1.0000   1.0000   1.0000   1.0000   1.0000   1.0000
     1.0000   1.0000   1.0000   1.0000   1.0000   0.0000   0.0000   0.0000
     0.0000   0.0000   0.0000   0.0000   0.0000   0.0000

          k =-0.0884-0.2652 0.2652 ( 16141 PWs)   bands (ev):

   -71.5022 -59.9285 -42.8156 -42.8156 -42.8156 -33.8186 -33.8186 -33.8186
   -29.1675 -16.2473 -16.1200 -16.0871 -16.0747 -16.0524 -16.0445 -12.6158
   -12.6153 -12.6140  -6.6431  -5.7097  -4.9656  -4.9654  -4.8981  -4.8906
    -3.8827  -3.2869  -3.1837  -3.1676  -2.8929  -2.8676  -2.6945  -2.5727
    -2.5487  -2.2960  -2.2687  -2.0458  -1.9797  -1.8203  -1.7754  -1.6538
    -1.4368  -1.3922  -0.8758  -0.8475  -0.8159   4.5992   4.6211   4.6630
     4.7699   4.7952   5.5493   5.6975   5.8549   5.9151

     occupation numbers 
     1.0000   1.0000   1.0000   1.0000   1.0000   1.0000   1.0000   1.0000
     1.0000   1.0000   1.0000   1.0000   1.0000   1.0000   1.0000   1.0000
     1.0000   1.0000   1.0000   1.0000   1.0000   1.0000   1.0000   1.0000
     1.0000   1.0000   1.0000   1.0000   1.0000   1.0000   1.0000   1.0000
     1.0000   1.0000   1.0000   1.0000   1.0000   1.0000   1.0000   1.0000
     1.0000   1.0000   1.0000   1.0000   1.0000   0.0000   0.0000   0.0000
     0.0000   0.0000   0.0000   0.0000   0.0000   0.0000

          k = 0.0000-0.1768 0.1768 ( 16149 PWs)   bands (ev):

   -71.5022 -59.9285 -42.8156 -42.8156 -42.8156 -33.8186 -33.8186 -33.8186
   -29.1676 -16.2646 -16.1026 -16.0896 -16.0820 -16.0449 -16.0401 -12.6161
   -12.6158 -12.6152  -6.7710  -5.4247  -4.9906  -4.9885  -4.8984  -4.8935
    -4.1384  -3.3005  -3.2541  -3.2401  -2.8607  -2.8290  -2.5334  -2.4645
    -2.4529  -2.1874  -2.1585  -2.0230  -1.9702  -1.8378  -1.8197  -1.5966
    -1.4897  -1.4602  -0.9545  -0.9347  -0.8935   4.5745   4.5889   4.6029
     4.6491   4.6694   5.3564   5.7260   5.8396   5.8899

     occupation numbers 
     1.0000   1.0000   1.0000   1.0000   1.0000   1.0000   1.0000   1.0000
     1.0000   1.0000   1.0000   1.0000   1.0000   1.0000   1.0000   1.0000
     1.0000   1.0000   1.0000   1.0000   1.0000   1.0000   1.0000   1.0000
     1.0000   1.0000   1.0000   1.0000   1.0000   1.0000   1.0000   1.0000
     1.0000   1.0000   1.0000   1.0000   1.0000   1.0000   1.0000   1.0000
     1.0000   1.0000   1.0000   1.0000   1.0000   0.0000   0.0000   0.0000
     0.0000   0.0000   0.0000   0.0000   0.0000   0.0000

          k = 0.3536 0.0000 0.0000 ( 16113 PWs)   bands (ev):

   -71.5022 -59.9285 -42.8156 -42.8156 -42.8156 -33.8186 -33.8186 -33.8186
   -29.1675 -16.2523 -16.0989 -16.0900 -16.0900 -16.0573 -16.0371 -12.6154
   -12.6154 -12.6145  -6.6965  -5.5864  -4.9751  -4.9751  -4.9002  -4.8846
    -3.9677  -3.3266  -3.1715  -3.1715  -2.9610  -2.7995  -2.6901  -2.5432
    -2.5432  -2.2374  -2.2374  -2.0752  -2.0007  -2.0007  -1.5588  -1.5476
    -1.4579  -1.4579  -1.0269  -0.7881  -0.7881   4.5338   4.5959   4.6119
     4.8354   4.8354   5.5452   5.8036   5.8758   5.8758

     occupation numbers 
     1.0000   1.0000   1.0000   1.0000   1.0000   1.0000   1.0000   1.0000
     1.0000   1.0000   1.0000   1.0000   1.0000   1.0000   1.0000   1.0000
     1.0000   1.0000   1.0000   1.0000   1.0000   1.0000   1.0000   1.0000
     1.0000   1.0000   1.0000   1.0000   1.0000   1.0000   1.0000   1.0000
     1.0000   1.0000   1.0000   1.0000   1.0000   1.0000   1.0000   1.0000
     1.0000   1.0000   1.0000   1.0000   1.0000   0.0000   0.0000   0.0000
     0.0000   0.0000   0.0000   0.0000   0.0000   0.0000

          k = 0.4419 0.0884-0.0884 ( 16130 PWs)   bands (ev):

   -71.5022 -59.9285 -42.8156 -42.8156 -42.8156 -33.8186 -33.8186 -33.8186
   -29.1675 -16.2379 -16.1132 -16.0885 -16.0824 -16.0665 -16.0388 -12.6151
   -12.6150 -12.6136  -6.6010  -5.7618  -4.9567  -4.9546  -4.9002  -4.8791
    -3.7975  -3.3247  -3.1073  -3.0966  -3.0103  -2.8383  -2.8070  -2.6461
    -2.6180  -2.3268  -2.3087  -2.0682  -2.0459  -2.0052  -1.6062  -1.4888
    -1.4037  -1.3871  -0.9848  -0.7261  -0.7231   4.5620   4.6096   4.6169
     4.9883   5.0095   5.6435   5.8550   5.8784   5.9750

     occupation numbers 
     1.0000   1.0000   1.0000   1.0000   1.0000   1.0000   1.0000   1.0000
     1.0000   1.0000   1.0000   1.0000   1.0000   1.0000   1.0000   1.0000
     1.0000   1.0000   1.0000   1.0000   1.0000   1.0000   1.0000   1.0000
     1.0000   1.0000   1.0000   1.0000   1.0000   1.0000   1.0000   1.0000
     1.0000   1.0000   1.0000   1.0000   1.0000   1.0000   1.0000   1.0000
     1.0000   1.0000   1.0000   1.0000   1.0000   0.0000   0.0000   0.0000
     0.0000   0.0000   0.0000   0.0000   0.0000   0.0000

          k =-0.1768-0.5303 0.5303 ( 16124 PWs)   bands (ev):

   -71.5022 -59.9285 -42.8156 -42.8156 -42.8156 -33.8186 -33.8186 -33.8186
   -29.1675 -16.2226 -16.1314 -16.0835 -16.0811 -16.0661 -16.0440 -12.6149
   -12.6144 -12.6130  -6.4775  -5.9522  -4.9386  -4.9311  -4.8992  -4.8839
    -3.6291  -3.3066  -3.0954  -3.0583  -3.0309  -2.8824  -2.8043  -2.7721
    -2.6761  -2.4056  -2.3695  -2.1628  -1.9822  -1.9466  -1.6910  -1.5189
    -1.3602  -1.3082  -0.8958  -0.7061  -0.6952   4.5957   4.6301   4.6686
     5.0418   5.1520   5.6516   5.8030   5.8954   6.1167

     occupation numbers 
     1.0000   1.0000   1.0000   1.0000   1.0000   1.0000   1.0000   1.0000
     1.0000   1.0000   1.0000   1.0000   1.0000   1.0000   1.0000   1.0000
     1.0000   1.0000   1.0000   1.0000   1.0000   1.0000   1.0000   1.0000
     1.0000   1.0000   1.0000   1.0000   1.0000   1.0000   1.0000   1.0000
     1.0000   1.0000   1.0000   1.0000   1.0000   1.0000   1.0000   1.0000
     1.0000   1.0000   1.0000   1.0000   1.0000   0.0000   0.0000   0.0000
     0.0000   0.0000   0.0000   0.0000   0.0000   0.0000

          k =-0.0884-0.4419 0.4419 ( 16115 PWs)   bands (ev):

   -71.5022 -59.9285 -42.8156 -42.8156 -42.8156 -33.8186 -33.8186 -33.8186
   -29.1675 -16.2188 -16.1382 -16.0878 -16.0760 -16.0564 -16.0514 -12.6150
   -12.6141 -12.6131  -6.4233  -6.0290  -4.9354  -4.9173  -4.9007  -4.8942
    -3.5872  -3.2754  -3.1175  -3.0712  -3.0353  -2.8845  -2.8151  -2.7347
    -2.6847  -2.4149  -2.3971  -2.2078  -1.9338  -1.8708  -1.7485  -1.5873
    -1.3611  -1.2869  -0.8186  -0.7364  -0.7149   4.5997   4.6452   4.7605
     4.9424   5.0956   5.6798   5.8370   5.8752   6.1617

     occupation numbers 
     1.0000   1.0000   1.0000   1.0000   1.0000   1.0000   1.0000   1.0000
     1.0000   1.0000   1.0000   1.0000   1.0000   1.0000   1.0000   1.0000
     1.0000   1.0000   1.0000   1.0000   1.0000   1.0000   1.0000   1.0000
     1.0000   1.0000   1.0000   1.0000   1.0000   1.0000   1.0000   1.0000
     1.0000   1.0000   1.0000   1.0000   1.0000   1.0000   1.0000   1.0000
     1.0000   1.0000   1.0000   1.0000   1.0000   0.0000   0.0000   0.0000
     0.0000   0.0000   0.0000   0.0000   0.0000   0.0000

          k = 0.0000-0.3536 0.3536 ( 16154 PWs)   bands (ev):

   -71.5022 -59.9285 -42.8156 -42.8156 -42.8156 -33.8186 -33.8186 -33.8186
   -29.1675 -16.2313 -16.1298 -16.0906 -16.0701 -16.0572 -16.0486 -12.6154
   -12.6145 -12.6135  -6.5233  -5.8995  -4.9478  -4.9384  -4.9012  -4.8895
    -3.7108  -3.2751  -3.1184  -3.1107  -2.9679  -2.9095  -2.7911  -2.6563
    -2.6062  -2.3711  -2.3474  -2.1641  -1.9512  -1.8268  -1.7106  -1.6767
    -1.3978  -1.3240  -0.8053  -0.7871  -0.7748   4.5996   4.6419   4.7473
     4.8670   4.9184   5.5798   5.8608   5.9728   5.9860

     occupation numbers 
     1.0000   1.0000   1.0000   1.0000   1.0000   1.0000   1.0000   1.0000
     1.0000   1.0000   1.0000   1.0000   1.0000   1.0000   1.0000   1.0000
     1.0000   1.0000   1.0000   1.0000   1.0000   1.0000   1.0000   1.0000
     1.0000   1.0000   1.0000   1.0000   1.0000   1.0000   1.0000   1.0000
     1.0000   1.0000   1.0000   1.0000   1.0000   1.0000   1.0000   1.0000
     1.0000   1.0000   1.0000   1.0000   1.0000   0.0000   0.0000   0.0000
     0.0000   0.0000   0.0000   0.0000   0.0000   0.0000

          k = 0.5303 0.0000 0.0000 ( 16097 PWs)   bands (ev):

   -71.5022 -59.9285 -42.8156 -42.8156 -42.8156 -33.8186 -33.8186 -33.8186
   -29.1675 -16.2299 -16.1031 -16.0907 -16.0907 -16.0773 -16.0368 -12.6147
   -12.6147 -12.6131  -6.5692  -5.7974  -4.9478  -4.9478  -4.9010  -4.8675
    -3.7285  -3.3484  -3.0740  -3.0280  -3.0280  -2.9551  -2.7979  -2.6960
    -2.6960  -2.3631  -2.3631  -2.0930  -2.0546  -2.0546  -1.5599  -1.4153
    -1.4153  -1.3056  -1.0262  -0.6682  -0.6682   4.5413   4.5900   4.6104
     5.2122   5.2122   5.7077   5.9416   5.9416   6.0469

     occupation numbers 
     1.0000   1.0000   1.0000   1.0000   1.0000   1.0000   1.0000   1.0000
     1.0000   1.0000   1.0000   1.0000   1.0000   1.0000   1.0000   1.0000
     1.0000   1.0000   1.0000   1.0000   1.0000   1.0000   1.0000   1.0000
     1.0000   1.0000   1.0000   1.0000   1.0000   1.0000   1.0000   1.0000
     1.0000   1.0000   1.0000   1.0000   1.0000   1.0000   1.0000   1.0000
     1.0000   1.0000   1.0000   1.0000   1.0000   0.0000   0.0000   0.0000
     0.0000   0.0000   0.0000   0.0000   0.0000   0.0000

          k =-0.0884-0.6187 0.6187 ( 16096 PWs)   bands (ev):

   -71.5022 -59.9285 -42.8156 -42.8156 -42.8156 -33.8186 -33.8186 -33.8186
   -29.1675 -16.2203 -16.1147 -16.0890 -16.0885 -16.0783 -16.0386 -12.6145
   -12.6143 -12.6128  -6.5077  -5.8889  -4.9368  -4.9333  -4.9006  -4.8661
    -3.6229  -3.3526  -3.1199  -3.0646  -2.9619  -2.9249  -2.8078  -2.7694
    -2.7501  -2.4262  -2.3988  -2.1146  -2.0615  -2.0337  -1.6114  -1.4285
    -1.3767  -1.2345  -0.9839  -0.6484  -0.6450   4.5660   4.5901   4.6203
     5.2985   5.3870   5.7540   5.9103   6.0053   6.1795

     occupation numbers 
     1.0000   1.0000   1.0000   1.0000   1.0000   1.0000   1.0000   1.0000
     1.0000   1.0000   1.0000   1.0000   1.0000   1.0000   1.0000   1.0000
     1.0000   1.0000   1.0000   1.0000   1.0000   1.0000   1.0000   1.0000
     1.0000   1.0000   1.0000   1.0000   1.0000   1.0000   1.0000   1.0000
     1.0000   1.0000   1.0000   1.0000   1.0000   1.0000   1.0000   1.0000
     1.0000   1.0000   1.0000   1.0000   1.0000   0.0000   0.0000   0.0000
     0.0000   0.0000   0.0000   0.0000   0.0000   0.0000

          k = 0.0000-0.5303 0.5303 ( 16114 PWs)   bands (ev):

   -71.5022 -59.9285 -42.8156 -42.8156 -42.8156 -33.8186 -33.8186 -33.8186
   -29.1675 -16.2151 -16.1295 -16.0913 -16.0837 -16.0660 -16.0438 -12.6147
   -12.6137 -12.6131  -6.4408  -5.9912  -4.9315  -4.9184  -4.8979  -4.8818
    -3.5476  -3.3283  -3.1505  -3.1006  -2.9629  -2.8675  -2.8480  -2.7584
    -2.7413  -2.4546  -2.3910  -2.2143  -1.9950  -1.9525  -1.6999  -1.4881
    -1.3491  -1.2319  -0.8953  -0.6752  -0.6630   4.5803   4.6352   4.6679
     5.1229   5.3134   5.8291   5.9379   5.9931   6.1672

     occupation numbers 
     1.0000   1.0000   1.0000   1.0000   1.0000   1.0000   1.0000   1.0000
     1.0000   1.0000   1.0000   1.0000   1.0000   1.0000   1.0000   1.0000
     1.0000   1.0000   1.0000   1.0000   1.0000   1.0000   1.0000   1.0000
     1.0000   1.0000   1.0000   1.0000   1.0000   1.0000   1.0000   1.0000
     1.0000   1.0000   1.0000   1.0000   1.0000   1.0000   1.0000   1.0000
     1.0000   1.0000   1.0000   1.0000   1.0000   0.0000   0.0000   0.0000
     0.0000   0.0000   0.0000   0.0000   0.0000   0.0000

          k =-0.7071 0.0000 0.0000 ( 16076 PWs)   bands (ev):

   -71.5022 -59.9285 -42.8156 -42.8156 -42.8156 -33.8186 -33.8186 -33.8186
   -29.1675 -16.2192 -16.1003 -16.0915 -16.0909 -16.0909 -16.0366 -12.6144
   -12.6144 -12.6126  -6.5189  -5.8631  -4.9360  -4.9360  -4.9013  -4.8574
    -3.6235  -3.3703  -3.1282  -3.0716  -2.9140  -2.9139  -2.8031  -2.8031
    -2.7972  -2.4246  -2.4246  -2.1003  -2.0702  -2.0702  -1.5604  -1.4004
    -1.4004  -1.2021  -1.0248  -0.6256  -0.6256   4.5538   4.5605   4.6163
     5.5404   5.5404   5.7143   5.9267   5.9267   6.1943

     occupation numbers 
     1.0000   1.0000   1.0000   1.0000   1.0000   1.0000   1.0000   1.0000
     1.0000   1.0000   1.0000   1.0000   1.0000   1.0000   1.0000   1.0000
     1.0000   1.0000   1.0000   1.0000   1.0000   1.0000   1.0000   1.0000
     1.0000   1.0000   1.0000   1.0000   1.0000   1.0000   1.0000   1.0000
     1.0000   1.0000   1.0000   1.0000   1.0000   1.0000   1.0000   1.0000
     1.0000   1.0000   1.0000   1.0000   1.0000   0.0000   0.0000   0.0000
     0.0000   0.0000   0.0000   0.0000   0.0000   0.0000

          k = 0.3536 0.1768 0.0000 ( 16118 PWs)   bands (ev):

   -71.5022 -59.9285 -42.8156 -42.8156 -42.8156 -33.8186 -33.8186 -33.8186
   -29.1675 -16.2462 -16.1143 -16.0902 -16.0775 -16.0574 -16.0408 -12.6155
   -12.6151 -12.6141  -6.6452  -5.6966  -4.9649  -4.9646  -4.8994  -4.8866
    -3.8797  -3.3055  -3.1622  -3.1536  -2.9485  -2.8316  -2.7292  -2.5827
    -2.5552  -2.2936  -2.2640  -2.0688  -2.0094  -1.9346  -1.6293  -1.6191
    -1.4334  -1.3954  -0.9463  -0.7883  -0.7872   4.5809   4.6072   4.6356
     4.8374   4.8512   5.5812   5.7276   5.8909   5.9526

     occupation numbers 
     1.0000   1.0000   1.0000   1.0000   1.0000   1.0000   1.0000   1.0000
     1.0000   1.0000   1.0000   1.0000   1.0000   1.0000   1.0000   1.0000
     1.0000   1.0000   1.0000   1.0000   1.0000   1.0000   1.0000   1.0000
     1.0000   1.0000   1.0000   1.0000   1.0000   1.0000   1.0000   1.0000
     1.0000   1.0000   1.0000   1.0000   1.0000   1.0000   1.0000   1.0000
     1.0000   1.0000   1.0000   1.0000   1.0000   0.0000   0.0000   0.0000
     0.0000   0.0000   0.0000   0.0000   0.0000   0.0000

          k =-0.2652-0.4419 0.6187 ( 16135 PWs)   bands (ev):

   -71.5022 -59.9285 -42.8156 -42.8156 -42.8156 -33.8186 -33.8186 -33.8186
   -29.1675 -16.2288 -16.1306 -16.0876 -16.0736 -16.0614 -16.0459 -12.6152
   -12.6146 -12.6133  -6.5108  -5.9138  -4.9449  -4.9379  -4.9001  -4.8876
    -3.6883  -3.2894  -3.1076  -3.0800  -3.0043  -2.8829  -2.8043  -2.6978
    -2.6373  -2.3758  -2.3510  -2.1471  -1.9600  -1.9051  -1.6994  -1.5953
    -1.3733  -1.3395  -0.8636  -0.7609  -0.7239   4.6012   4.6338   4.7002
     4.9139   5.0233   5.5977   5.8342   5.9145   5.9994

     occupation numbers 
     1.0000   1.0000   1.0000   1.0000   1.0000   1.0000   1.0000   1.0000
     1.0000   1.0000   1.0000   1.0000   1.0000   1.0000   1.0000   1.0000
     1.0000   1.0000   1.0000   1.0000   1.0000   1.0000   1.0000   1.0000
     1.0000   1.0000   1.0000   1.0000   1.0000   1.0000   1.0000   1.0000
     1.0000   1.0000   1.0000   1.0000   1.0000   1.0000   1.0000   1.0000
     1.0000   1.0000   1.0000   1.0000   1.0000   0.0000   0.0000   0.0000
     0.0000   0.0000   0.0000   0.0000   0.0000   0.0000

          k =-0.1768-0.3536 0.5303 ( 16144 PWs)   bands (ev):

   -71.5022 -59.9285 -42.8156 -42.8156 -42.8156 -33.8186 -33.8186 -33.8186
   -29.1675 -16.2193 -16.1402 -16.0817 -16.0796 -16.0558 -16.0521 -12.6150
   -12.6144 -12.6129  -6.4202  -6.0353  -4.9351  -4.9228  -4.8974  -4.8957
    -3.5922  -3.2774  -3.1057  -3.0623  -3.0367  -2.8526  -2.8203  -2.7697
    -2.6872  -2.4068  -2.3971  -2.1777  -1.9271  -1.8793  -1.7483  -1.5945
    -1.3413  -1.3224  -0.7976  -0.7826  -0.6994   4.6064   4.6430   4.7692
     4.8970   5.1259   5.6591   5.7805   5.7903   6.1460

     occupation numbers 
     1.0000   1.0000   1.0000   1.0000   1.0000   1.0000   1.0000   1.0000
     1.0000   1.0000   1.0000   1.0000   1.0000   1.0000   1.0000   1.0000
     1.0000   1.0000   1.0000   1.0000   1.0000   1.0000   1.0000   1.0000
     1.0000   1.0000   1.0000   1.0000   1.0000   1.0000   1.0000   1.0000
     1.0000   1.0000   1.0000   1.0000   1.0000   1.0000   1.0000   1.0000
     1.0000   1.0000   1.0000   1.0000   1.0000   0.0000   0.0000   0.0000
     0.0000   0.0000   0.0000   0.0000   0.0000   0.0000

          k =-0.1768-0.5303 0.7071 ( 16124 PWs)   bands (ev):

   -71.5022 -59.9285 -42.8156 -42.8156 -42.8156 -33.8186 -33.8186 -33.8186
   -29.1675 -16.2255 -16.1202 -16.0908 -16.0813 -16.0702 -16.0406 -12.6148
   -12.6144 -12.6132  -6.5211  -5.8815  -4.9413  -4.9372  -4.9004  -4.8759
    -3.6686  -3.3271  -3.0912  -3.0517  -3.0223  -2.9252  -2.8056  -2.7164
    -2.6955  -2.3879  -2.3690  -2.1326  -2.0187  -2.0049  -1.6448  -1.4830
    -1.3528  -1.3054  -0.9458  -0.7008  -0.6682   4.5786   4.6190   4.6279
     5.0838   5.2188   5.6717   5.9360   5.9742   6.1100

     occupation numbers 
     1.0000   1.0000   1.0000   1.0000   1.0000   1.0000   1.0000   1.0000
     1.0000   1.0000   1.0000   1.0000   1.0000   1.0000   1.0000   1.0000
     1.0000   1.0000   1.0000   1.0000   1.0000   1.0000   1.0000   1.0000
     1.0000   1.0000   1.0000   1.0000   1.0000   1.0000   1.0000   1.0000
     1.0000   1.0000   1.0000   1.0000   1.0000   1.0000   1.0000   1.0000
     1.0000   1.0000   1.0000   1.0000   1.0000   0.0000   0.0000   0.0000
     0.0000   0.0000   0.0000   0.0000   0.0000   0.0000

          k =-0.0884-0.4419 0.6187 ( 16124 PWs)   bands (ev):

   -71.5022 -59.9285 -42.8156 -42.8156 -42.8156 -33.8186 -33.8186 -33.8186
   -29.1675 -16.2158 -16.1306 -16.0885 -16.0874 -16.0612 -16.0459 -12.6146
   -12.6139 -12.6131  -6.4379  -5.9979  -4.9312  -4.9166  -4.8988  -4.8858
    -3.5545  -3.3197  -3.1390  -3.1078  -2.9682  -2.8749  -2.8350  -2.7699
    -2.7258  -2.4287  -2.3963  -2.2182  -1.9870  -1.9338  -1.7217  -1.5190
    -1.3145  -1.2601  -0.8627  -0.7263  -0.6464   4.5826   4.6376   4.7046
     4.9951   5.3673   5.7960   5.8874   5.9572   6.2308

     occupation numbers 
     1.0000   1.0000   1.0000   1.0000   1.0000   1.0000   1.0000   1.0000
     1.0000   1.0000   1.0000   1.0000   1.0000   1.0000   1.0000   1.0000
     1.0000   1.0000   1.0000   1.0000   1.0000   1.0000   1.0000   1.0000
     1.0000   1.0000   1.0000   1.0000   1.0000   1.0000   1.0000   1.0000
     1.0000   1.0000   1.0000   1.0000   1.0000   1.0000   1.0000   1.0000
     1.0000   1.0000   1.0000   1.0000   1.0000   0.0000   0.0000   0.0000
     0.0000   0.0000   0.0000   0.0000   0.0000   0.0000

          k =-0.0000-0.3536 0.5303 ( 16129 PWs)   bands (ev):

   -71.5022 -59.9285 -42.8156 -42.8156 -42.8156 -33.8186 -33.8186 -33.8186
   -29.1675 -16.2174 -16.1339 -16.0911 -16.0806 -16.0555 -16.0505 -12.6148
   -12.6138 -12.6133  -6.4307  -6.0136  -4.9333  -4.9116  -4.9032  -4.8917
    -3.5721  -3.2921  -3.1284  -3.1001  -3.0030  -2.8940  -2.8164  -2.7405
    -2.7003  -2.4109  -2.3968  -2.2339  -1.9557  -1.8906  -1.7512  -1.5593
    -1.3243  -1.2785  -0.7952  -0.7853  -0.6681   4.5894   4.6431   4.7741
     4.8906   5.2376   5.7227   5.9439   5.9775   6.1694

     occupation numbers 
     1.0000   1.0000   1.0000   1.0000   1.0000   1.0000   1.0000   1.0000
     1.0000   1.0000   1.0000   1.0000   1.0000   1.0000   1.0000   1.0000
     1.0000   1.0000   1.0000   1.0000   1.0000   1.0000   1.0000   1.0000
     1.0000   1.0000   1.0000   1.0000   1.0000   1.0000   1.0000   1.0000
     1.0000   1.0000   1.0000   1.0000   1.0000   1.0000   1.0000   1.0000
     1.0000   1.0000   1.0000   1.0000   1.0000   0.0000   0.0000   0.0000
     0.0000   0.0000   0.0000   0.0000   0.0000   0.0000

          k =-0.7071 0.1768 0.0000 ( 16106 PWs)   bands (ev):

   -71.5022 -59.9285 -42.8156 -42.8156 -42.8156 -33.8186 -33.8186 -33.8186
   -29.1675 -16.2162 -16.1191 -16.0916 -16.0909 -16.0714 -16.0405 -12.6144
   -12.6141 -12.6128  -6.4754  -5.9356  -4.9314  -4.9254  -4.9002  -4.8696
    -3.5690  -3.3552  -3.1447  -3.1004  -2.9079  -2.9001  -2.8347  -2.7913
    -2.7640  -2.4345  -2.4232  -2.1518  -2.0382  -2.0144  -1.6500  -1.4604
    -1.3380  -1.2165  -0.9453  -0.6692  -0.6257   4.5695   4.6172   4.6273
     5.1940   5.5406   5.8973   5.9223   5.9689   6.1873

     occupation numbers 
     1.0000   1.0000   1.0000   1.0000   1.0000   1.0000   1.0000   1.0000
     1.0000   1.0000   1.0000   1.0000   1.0000   1.0000   1.0000   1.0000
     1.0000   1.0000   1.0000   1.0000   1.0000   1.0000   1.0000   1.0000
     1.0000   1.0000   1.0000   1.0000   1.0000   1.0000   1.0000   1.0000
     1.0000   1.0000   1.0000   1.0000   1.0000   1.0000   1.0000   1.0000
     1.0000   1.0000   1.0000   1.0000   1.0000   0.0000   0.0000   0.0000
     0.0000   0.0000   0.0000   0.0000   0.0000   0.0000

          k =-0.7071 0.3536 0.0000 ( 16120 PWs)   bands (ev):

   -71.5022 -59.9285 -42.8156 -42.8156 -42.8156 -33.8186 -33.8186 -33.8186
   -29.1675 -16.2128 -16.1296 -16.0916 -16.0909 -16.0551 -16.0496 -12.6144
   -12.6135 -12.6134  -6.4187  -6.0198  -4.9278  -4.9022  -4.8989  -4.8945
    -3.5103  -3.3371  -3.1638  -3.1326  -2.9033  -2.8829  -2.8546  -2.7815
    -2.7474  -2.4218  -2.4094  -2.2509  -1.9959  -1.9027  -1.7575  -1.5304
    -1.2640  -1.2621  -0.7963  -0.7847  -0.6257   4.5756   4.6413   4.7708
     4.8961   5.5409   5.9175   5.9176   6.0730   6.1265

     occupation numbers 
     1.0000   1.0000   1.0000   1.0000   1.0000   1.0000   1.0000   1.0000
     1.0000   1.0000   1.0000   1.0000   1.0000   1.0000   1.0000   1.0000
     1.0000   1.0000   1.0000   1.0000   1.0000   1.0000   1.0000   1.0000
     1.0000   1.0000   1.0000   1.0000   1.0000   1.0000   1.0000   1.0000
     1.0000   1.0000   1.0000   1.0000   1.0000   1.0000   1.0000   1.0000
     1.0000   1.0000   1.0000   1.0000   1.0000   0.0000   0.0000   0.0000
     0.0000   0.0000   0.0000   0.0000   0.0000   0.0000

 ------ SPIN DOWN ----------


          k = 0.0000 0.0000 0.0000 ( 16265 PWs)   bands (ev):

   -68.5960 -62.3781 -39.9530 -39.9530 -39.9530 -36.2385 -36.2385 -36.2385
   -29.1682 -16.2427 -16.0491 -16.0491 -16.0491 -15.9952 -15.9952 -12.6170
   -12.6170 -12.6170  -6.8886  -5.0538  -5.0538  -5.0538  -4.8897  -4.8897
    -4.5206  -3.1864  -3.1864  -3.1864  -2.4744  -2.4744  -2.3617  -2.3617
    -2.3617  -2.0216  -2.0216  -2.0216  -1.8547  -1.8547  -1.8547  -1.5187
    -1.5187  -1.5187   0.8422   0.8422   0.8422   3.6128   3.6128   3.6128
     5.1887   5.6552   5.6552   5.6858   5.6858   5.6858

     occupation numbers 
     1.0000   1.0000   1.0000   1.0000   1.0000   1.0000   1.0000   1.0000
     1.0000   1.0000   1.0000   1.0000   1.0000   1.0000   1.0000   1.0000
     1.0000   1.0000   1.0000   1.0000   1.0000   1.0000   1.0000   1.0000
     1.0000   1.0000   1.0000   1.0000   1.0000   1.0000   1.0000   1.0000
     1.0000   1.0000   1.0000   1.0000   1.0000   1.0000   1.0000   1.0000
     1.0000   1.0000   1.0000   1.0000   1.0000   0.0000   0.0000   0.0000
     0.0000   0.0000   0.0000   0.0000   0.0000   0.0000

          k = 0.0884 0.0884-0.0884 ( 16163 PWs)   bands (ev):

   -68.5960 -62.3781 -39.9530 -39.9530 -39.9530 -36.2385 -36.2385 -36.2385
   -29.1682 -16.2369 -16.0557 -16.0472 -16.0472 -15.9972 -15.9972 -12.6169
   -12.6169 -12.6164  -6.8472  -5.2602  -5.0473  -5.0473  -4.8854  -4.8854
    -4.3238  -3.1905  -3.1635  -3.1635  -2.5418  -2.5418  -2.3800  -2.3377
    -2.3377  -2.0672  -2.0672  -2.0061  -1.8923  -1.8613  -1.8613  -1.5378
    -1.4873  -1.4873   0.8992   0.9020   0.9020   3.5533   3.5702   3.5702
     5.2668   5.6183   5.6183   5.7359   5.8133   5.8133

     occupation numbers 
     1.0000   1.0000   1.0000   1.0000   1.0000   1.0000   1.0000   1.0000
     1.0000   1.0000   1.0000   1.0000   1.0000   1.0000   1.0000   1.0000
     1.0000   1.0000   1.0000   1.0000   1.0000   1.0000   1.0000   1.0000
     1.0000   1.0000   1.0000   1.0000   1.0000   1.0000   1.0000   1.0000
     1.0000   1.0000   1.0000   1.0000   1.0000   1.0000   1.0000   1.0000
     1.0000   1.0000   1.0000   1.0000   1.0000   0.0000   0.0000   0.0000
     0.0000   0.0000   0.0000   0.0000   0.0000   0.0000

          k = 0.1768 0.1768-0.1768 ( 16166 PWs)   bands (ev):

   -68.5960 -62.3781 -39.9530 -39.9530 -39.9530 -36.2385 -36.2385 -36.2385
   -29.1682 -16.2207 -16.0736 -16.0419 -16.0419 -16.0028 -16.0028 -12.6165
   -12.6165 -12.6150  -6.7255  -5.6044  -5.0318  -5.0318  -4.8743  -4.8743
    -4.0100  -3.2119  -3.1002  -3.1002  -2.6369  -2.6369  -2.4228  -2.3663
    -2.3663  -2.1898  -2.1898  -1.9848  -1.9624  -1.8253  -1.8253  -1.5902
    -1.4369  -1.4369   1.0413   1.0479   1.0479   3.4068   3.4623   3.4623
     5.4758   5.6720   5.6720   5.8668   6.0084   6.0084

     occupation numbers 
     1.0000   1.0000   1.0000   1.0000   1.0000   1.0000   1.0000   1.0000
     1.0000   1.0000   1.0000   1.0000   1.0000   1.0000   1.0000   1.0000
     1.0000   1.0000   1.0000   1.0000   1.0000   1.0000   1.0000   1.0000
     1.0000   1.0000   1.0000   1.0000   1.0000   1.0000   1.0000   1.0000
     1.0000   1.0000   1.0000   1.0000   1.0000   1.0000   1.0000   1.0000
     1.0000   1.0000   1.0000   1.0000   1.0000   0.0000   0.0000   0.0000
     0.0000   0.0000   0.0000   0.0000   0.0000   0.0000

          k = 0.2652 0.2652-0.2652 ( 16132 PWs)   bands (ev):

   -68.5960 -62.3781 -39.9530 -39.9530 -39.9530 -36.2385 -36.2385 -36.2385
   -29.1682 -16.1991 -16.0969 -16.0342 -16.0342 -16.0107 -16.0107 -12.6161
   -12.6161 -12.6136  -6.5311  -5.9465  -5.0166  -5.0166  -4.8623  -4.8623
    -3.7274  -3.2732  -3.0202  -3.0202  -2.6967  -2.6967  -2.4607  -2.4435
    -2.4435  -2.3206  -2.3206  -2.0825  -1.9012  -1.7574  -1.7574  -1.6601
    -1.4099  -1.4099   1.1935   1.1988   1.1988   3.2519   3.3451   3.3451
     5.7166   5.8144   5.8144   6.0467   6.1498   6.1498

     occupation numbers 
     1.0000   1.0000   1.0000   1.0000   1.0000   1.0000   1.0000   1.0000
     1.0000   1.0000   1.0000   1.0000   1.0000   1.0000   1.0000   1.0000
     1.0000   1.0000   1.0000   1.0000   1.0000   1.0000   1.0000   1.0000
     1.0000   1.0000   1.0000   1.0000   1.0000   1.0000   1.0000   1.0000
     1.0000   1.0000   1.0000   1.0000   1.0000   1.0000   1.0000   1.0000
     1.0000   1.0000   1.0000   1.0000   1.0000   0.0000   0.0000   0.0000
     0.0000   0.0000   0.0000   0.0000   0.0000   0.0000

          k =-0.3536-0.3536 0.3536 ( 16138 PWs)   bands (ev):

   -68.5960 -62.3781 -39.9530 -39.9530 -39.9530 -36.2385 -36.2385 -36.2385
   -29.1682 -16.1865 -16.1102 -16.0286 -16.0286 -16.0164 -16.0164 -12.6159
   -12.6159 -12.6130  -6.3206  -6.2077  -5.0103  -5.0103  -4.8570  -4.8570
    -3.5748  -3.3438  -2.9798  -2.9798  -2.7071  -2.7071  -2.4993  -2.4993
    -2.4733  -2.3706  -2.3706  -2.1259  -1.8614  -1.7244  -1.7244  -1.7034
    -1.4046  -1.4046   1.2609   1.2639   1.2639   3.1837   3.2930   3.2930
     5.8189   5.9701   5.9701   6.0456   6.0456   6.1726

     occupation numbers 
     1.0000   1.0000   1.0000   1.0000   1.0000   1.0000   1.0000   1.0000
     1.0000   1.0000   1.0000   1.0000   1.0000   1.0000   1.0000   1.0000
     1.0000   1.0000   1.0000   1.0000   1.0000   1.0000   1.0000   1.0000
     1.0000   1.0000   1.0000   1.0000   1.0000   1.0000   1.0000   1.0000
     1.0000   1.0000   1.0000   1.0000   1.0000   1.0000   1.0000   1.0000
     1.0000   1.0000   1.0000   1.0000   1.0000   0.0000   0.0000   0.0000
     0.0000   0.0000   0.0000   0.0000   0.0000   0.0000

          k = 0.1768 0.0000 0.0000 ( 16165 PWs)   bands (ev):

   -68.5960 -62.3781 -39.9530 -39.9530 -39.9530 -36.2385 -36.2385 -36.2385
   -29.1682 -16.2350 -16.0521 -16.0494 -16.0494 -16.0007 -15.9951 -12.6167
   -12.6167 -12.6164  -6.8351  -5.2998  -5.0435  -5.0435  -4.8900  -4.8882
    -4.2793  -3.1917  -3.1555  -3.1555  -2.6240  -2.4737  -2.3660  -2.3660
    -2.3477  -2.0770  -2.0770  -2.0292  -1.9191  -1.9191  -1.7683  -1.5191
    -1.4891  -1.4891   0.8431   0.9543   0.9543   3.5289   3.5289   3.6142
     5.2911   5.5666   5.6574   5.7814   5.7814   5.8578

     occupation numbers 
     1.0000   1.0000   1.0000   1.0000   1.0000   1.0000   1.0000   1.0000
     1.0000   1.0000   1.0000   1.0000   1.0000   1.0000   1.0000   1.0000
     1.0000   1.0000   1.0000   1.0000   1.0000   1.0000   1.0000   1.0000
     1.0000   1.0000   1.0000   1.0000   1.0000   1.0000   1.0000   1.0000
     1.0000   1.0000   1.0000   1.0000   1.0000   1.0000   1.0000   1.0000
     1.0000   1.0000   1.0000   1.0000   1.0000   0.0000   0.0000   0.0000
     0.0000   0.0000   0.0000   0.0000   0.0000   0.0000

          k = 0.2652 0.0884-0.0884 ( 16151 PWs)   bands (ev):

   -68.5960 -62.3781 -39.9530 -39.9530 -39.9530 -36.2385 -36.2385 -36.2385
   -29.1682 -16.2226 -16.0655 -16.0477 -16.0432 -16.0076 -15.9969 -12.6164
   -12.6163 -12.6154  -6.7453  -5.5495  -5.0302  -5.0294  -4.8859  -4.8811
    -4.0456  -3.2007  -3.1100  -3.1059  -2.7268  -2.5335  -2.4086  -2.3831
    -2.3549  -2.2006  -2.1668  -1.9990  -1.9880  -1.9305  -1.6855  -1.5576
    -1.4541  -1.4352   0.9024   1.0852   1.0859   3.4296   3.4438   3.5698
     5.4468   5.6143   5.6630   5.8721   5.9288   5.9982

     occupation numbers 
     1.0000   1.0000   1.0000   1.0000   1.0000   1.0000   1.0000   1.0000
     1.0000   1.0000   1.0000   1.0000   1.0000   1.0000   1.0000   1.0000
     1.0000   1.0000   1.0000   1.0000   1.0000   1.0000   1.0000   1.0000
     1.0000   1.0000   1.0000   1.0000   1.0000   1.0000   1.0000   1.0000
     1.0000   1.0000   1.0000   1.0000   1.0000   1.0000   1.0000   1.0000
     1.0000   1.0000   1.0000   1.0000   1.0000   0.0000   0.0000   0.0000
     0.0000   0.0000   0.0000   0.0000   0.0000   0.0000

          k = 0.3536 0.1768-0.1768 ( 16119 PWs)   bands (ev):

   -68.5960 -62.3781 -39.9530 -39.9530 -39.9530 -36.2385 -36.2385 -36.2385
   -29.1682 -16.2029 -16.0872 -16.0425 -16.0345 -16.0162 -16.0024 -12.6160
   -12.6159 -12.6140  -6.5839  -5.8564  -5.0138  -5.0133  -4.8743  -4.8696
    -3.7827  -3.2377  -3.0497  -3.0317  -2.7886  -2.6110  -2.4790  -2.4225
    -2.4209  -2.3281  -2.2782  -2.0932  -1.9369  -1.8693  -1.6301  -1.6288
    -1.4151  -1.3879   1.0470   1.2217   1.2227   3.3085   3.3575   3.4563
     5.6539   5.7341   5.7979   6.0009   6.1125   6.1164

     occupation numbers 
     1.0000   1.0000   1.0000   1.0000   1.0000   1.0000   1.0000   1.0000
     1.0000   1.0000   1.0000   1.0000   1.0000   1.0000   1.0000   1.0000
     1.0000   1.0000   1.0000   1.0000   1.0000   1.0000   1.0000   1.0000
     1.0000   1.0000   1.0000   1.0000   1.0000   1.0000   1.0000   1.0000
     1.0000   1.0000   1.0000   1.0000   1.0000   1.0000   1.0000   1.0000
     1.0000   1.0000   1.0000   1.0000   1.0000   0.0000   0.0000   0.0000
     0.0000   0.0000   0.0000   0.0000   0.0000   0.0000

          k =-0.2652-0.4419 0.4419 ( 16144 PWs)   bands (ev):

   -68.5960 -62.3781 -39.9530 -39.9530 -39.9530 -36.2385 -36.2385 -36.2385
   -29.1682 -16.1858 -16.1056 -16.0348 -16.0323 -16.0183 -16.0103 -12.6158
   -12.6156 -12.6132  -6.3698  -6.1447  -5.0066  -5.0005  -4.8670  -4.8611
    -3.5842  -3.3143  -3.0183  -2.9709  -2.7646  -2.6806  -2.5266  -2.5147
    -2.4422  -2.3644  -2.3558  -2.1811  -1.8757  -1.7870  -1.6938  -1.6394
    -1.3799  -1.3762   1.1977   1.2805   1.2824   3.2363   3.3260   3.3403
     5.8169   5.8707   5.9610   6.0096   6.0969   6.1658

     occupation numbers 
     1.0000   1.0000   1.0000   1.0000   1.0000   1.0000   1.0000   1.0000
     1.0000   1.0000   1.0000   1.0000   1.0000   1.0000   1.0000   1.0000
     1.0000   1.0000   1.0000   1.0000   1.0000   1.0000   1.0000   1.0000
     1.0000   1.0000   1.0000   1.0000   1.0000   1.0000   1.0000   1.0000
     1.0000   1.0000   1.0000   1.0000   1.0000   1.0000   1.0000   1.0000
     1.0000   1.0000   1.0000   1.0000   1.0000   0.0000   0.0000   0.0000
     0.0000   0.0000   0.0000   0.0000   0.0000   0.0000

          k =-0.1768-0.3536 0.3536 ( 16131 PWs)   bands (ev):

   -68.5960 -62.3781 -39.9530 -39.9530 -39.9530 -36.2385 -36.2385 -36.2385
   -29.1682 -16.1899 -16.1016 -16.0400 -16.0286 -16.0164 -16.0102 -12.6159
   -12.6156 -12.6134  -6.4366  -6.0657  -5.0113  -4.9993  -4.8759  -4.8555
    -3.6327  -3.2864  -3.0391  -2.9742  -2.7505  -2.6968  -2.5004  -2.4938
    -2.4394  -2.3644  -2.3170  -2.1842  -1.8872  -1.7367  -1.7061  -1.6809
    -1.4052  -1.3577   1.2193   1.2260   1.2631   3.2352   3.3240   3.3758
     5.7655   5.8673   5.8868   6.0514   6.0946   6.1629

     occupation numbers 
     1.0000   1.0000   1.0000   1.0000   1.0000   1.0000   1.0000   1.0000
     1.0000   1.0000   1.0000   1.0000   1.0000   1.0000   1.0000   1.0000
     1.0000   1.0000   1.0000   1.0000   1.0000   1.0000   1.0000   1.0000
     1.0000   1.0000   1.0000   1.0000   1.0000   1.0000   1.0000   1.0000
     1.0000   1.0000   1.0000   1.0000   1.0000   1.0000   1.0000   1.0000
     1.0000   1.0000   1.0000   1.0000   1.0000   0.0000   0.0000   0.0000
     0.0000   0.0000   0.0000   0.0000   0.0000   0.0000

          k =-0.0884-0.2652 0.2652 ( 16141 PWs)   bands (ev):

   -68.5960 -62.3781 -39.9530 -39.9530 -39.9530 -36.2385 -36.2385 -36.2385
   -29.1682 -16.2097 -16.0811 -16.0469 -16.0338 -16.0110 -16.0025 -12.6163
   -12.6159 -12.6144  -6.6399  -5.7662  -5.0246  -5.0125  -4.8874  -4.8613
    -3.8629  -3.2158  -3.0866  -3.0508  -2.7287  -2.6436  -2.4282  -2.4130
    -2.3901  -2.3081  -2.2018  -2.1070  -1.9494  -1.7866  -1.7453  -1.6150
    -1.4406  -1.3810   1.0817   1.0911   1.1966   3.3084   3.4135   3.4707
     5.5946   5.7093   5.7230   5.9448   6.0762   6.1153

     occupation numbers 
     1.0000   1.0000   1.0000   1.0000   1.0000   1.0000   1.0000   1.0000
     1.0000   1.0000   1.0000   1.0000   1.0000   1.0000   1.0000   1.0000
     1.0000   1.0000   1.0000   1.0000   1.0000   1.0000   1.0000   1.0000
     1.0000   1.0000   1.0000   1.0000   1.0000   1.0000   1.0000   1.0000
     1.0000   1.0000   1.0000   1.0000   1.0000   1.0000   1.0000   1.0000
     1.0000   1.0000   1.0000   1.0000   1.0000   0.0000   0.0000   0.0000
     0.0000   0.0000   0.0000   0.0000   0.0000   0.0000

          k = 0.0000-0.1768 0.1768 ( 16149 PWs)   bands (ev):

   -68.5960 -62.3781 -39.9530 -39.9530 -39.9530 -36.2385 -36.2385 -36.2385
   -29.1682 -16.2277 -16.0630 -16.0496 -16.0416 -16.0030 -15.9979 -12.6167
   -12.6164 -12.6157  -6.7807  -5.4678  -5.0394  -5.0331  -4.8907  -4.8739
    -4.1278  -3.1943  -3.1339  -3.1261  -2.6461  -2.5704  -2.3734  -2.3595
    -2.3583  -2.1700  -2.0991  -1.9971  -1.9949  -1.8411  -1.8020  -1.5580
    -1.4735  -1.4375   0.9516   0.9583   1.0452   3.4422   3.5120   3.5487
     5.3871   5.6142   5.6407   5.8380   5.8830   5.9562

     occupation numbers 
     1.0000   1.0000   1.0000   1.0000   1.0000   1.0000   1.0000   1.0000
     1.0000   1.0000   1.0000   1.0000   1.0000   1.0000   1.0000   1.0000
     1.0000   1.0000   1.0000   1.0000   1.0000   1.0000   1.0000   1.0000
     1.0000   1.0000   1.0000   1.0000   1.0000   1.0000   1.0000   1.0000
     1.0000   1.0000   1.0000   1.0000   1.0000   1.0000   1.0000   1.0000
     1.0000   1.0000   1.0000   1.0000   1.0000   0.0000   0.0000   0.0000
     0.0000   0.0000   0.0000   0.0000   0.0000   0.0000

          k = 0.3536 0.0000 0.0000 ( 16113 PWs)   bands (ev):

   -68.5960 -62.3781 -39.9530 -39.9530 -39.9530 -36.2385 -36.2385 -36.2385
   -29.1682 -16.2149 -16.0589 -16.0500 -16.0500 -16.0160 -15.9947 -12.6160
   -12.6160 -12.6150  -6.6986  -5.6322  -5.0176  -5.0176  -4.8921  -4.8909
    -3.9469  -3.2073  -3.0700  -3.0700  -2.8465  -2.4824  -2.4718  -2.3841
    -2.3841  -2.2577  -2.2577  -2.0473  -1.9875  -1.9875  -1.5284  -1.5202
    -1.4406  -1.4406   0.8452   1.1834   1.1834   3.4213   3.4213   3.6178
     5.4905   5.6616   5.6620   5.9354   5.9354   6.0332

     occupation numbers 
     1.0000   1.0000   1.0000   1.0000   1.0000   1.0000   1.0000   1.0000
     1.0000   1.0000   1.0000   1.0000   1.0000   1.0000   1.0000   1.0000
     1.0000   1.0000   1.0000   1.0000   1.0000   1.0000   1.0000   1.0000
     1.0000   1.0000   1.0000   1.0000   1.0000   1.0000   1.0000   1.0000
     1.0000   1.0000   1.0000   1.0000   1.0000   1.0000   1.0000   1.0000
     1.0000   1.0000   1.0000   1.0000   1.0000   0.0000   0.0000   0.0000
     0.0000   0.0000   0.0000   0.0000   0.0000   0.0000

          k = 0.4419 0.0884-0.0884 ( 16130 PWs)   bands (ev):

   -68.5960 -62.3781 -39.9530 -39.9530 -39.9530 -36.2385 -36.2385 -36.2385
   -29.1682 -16.1999 -16.0740 -16.0484 -16.0418 -16.0257 -15.9966 -12.6156
   -12.6155 -12.6141  -6.5901  -5.8201  -5.0033  -5.0002  -4.8890  -4.8860
    -3.7730  -3.2227  -3.0416  -3.0056  -2.9110  -2.5633  -2.5163  -2.4410
    -2.4209  -2.3457  -2.3412  -2.0469  -2.0115  -1.9764  -1.5697  -1.4671
    -1.3902  -1.3768   0.9046   1.2834   1.2836   3.3893   3.4043   3.5729
     5.5901   5.6818   5.8641   5.9994   6.0392   6.0396

     occupation numbers 
     1.0000   1.0000   1.0000   1.0000   1.0000   1.0000   1.0000   1.0000
     1.0000   1.0000   1.0000   1.0000   1.0000   1.0000   1.0000   1.0000
     1.0000   1.0000   1.0000   1.0000   1.0000   1.0000   1.0000   1.0000
     1.0000   1.0000   1.0000   1.0000   1.0000   1.0000   1.0000   1.0000
     1.0000   1.0000   1.0000   1.0000   1.0000   1.0000   1.0000   1.0000
     1.0000   1.0000   1.0000   1.0000   1.0000   0.0000   0.0000   0.0000
     0.0000   0.0000   0.0000   0.0000   0.0000   0.0000

          k =-0.1768-0.5303 0.5303 ( 16124 PWs)   bands (ev):

   -68.5960 -62.3781 -39.9530 -39.9530 -39.9530 -36.2385 -36.2385 -36.2385
   -29.1682 -16.1837 -16.0931 -16.0431 -16.0404 -16.0253 -16.0021 -12.6154
   -12.6149 -12.6135  -6.4322  -6.0466  -4.9966  -4.9791  -4.8906  -4.8721
    -3.5975  -3.2677  -3.0764  -2.9412  -2.8596  -2.6230  -2.6010  -2.5273
    -2.4518  -2.3798  -2.3739  -2.1561  -1.9309  -1.9010  -1.6555  -1.5094
    -1.3530  -1.2988   1.0484   1.3251   1.3269   3.3572   3.4077   3.4568
     5.7574   5.7650   5.9184   5.9917   6.0882   6.1733

     occupation numbers 
     1.0000   1.0000   1.0000   1.0000   1.0000   1.0000   1.0000   1.0000
     1.0000   1.0000   1.0000   1.0000   1.0000   1.0000   1.0000   1.0000
     1.0000   1.0000   1.0000   1.0000   1.0000   1.0000   1.0000   1.0000
     1.0000   1.0000   1.0000   1.0000   1.0000   1.0000   1.0000   1.0000
     1.0000   1.0000   1.0000   1.0000   1.0000   1.0000   1.0000   1.0000
     1.0000   1.0000   1.0000   1.0000   1.0000   0.0000   0.0000   0.0000
     0.0000   0.0000   0.0000   0.0000   0.0000   0.0000

          k =-0.0884-0.4419 0.4419 ( 16115 PWs)   bands (ev):

   -68.5960 -62.3781 -39.9530 -39.9530 -39.9530 -36.2385 -36.2385 -36.2385
   -29.1682 -16.1797 -16.1003 -16.0477 -16.0352 -16.0151 -16.0100 -12.6156
   -12.6146 -12.6135  -6.3305  -6.1726  -5.0009  -4.9651  -4.9037  -4.8581
    -3.5463  -3.2756  -3.1090  -2.9120  -2.7766  -2.7588  -2.5764  -2.5257
    -2.4170  -2.3886  -2.3460  -2.2577  -1.8812  -1.8075  -1.7069  -1.5927
    -1.3618  -1.2773   1.1981   1.2812   1.2875   3.3091   3.3730   3.4334
     5.7804   5.8859   5.9203   5.9411   6.0410   6.2369

     occupation numbers 
     1.0000   1.0000   1.0000   1.0000   1.0000   1.0000   1.0000   1.0000
     1.0000   1.0000   1.0000   1.0000   1.0000   1.0000   1.0000   1.0000
     1.0000   1.0000   1.0000   1.0000   1.0000   1.0000   1.0000   1.0000
     1.0000   1.0000   1.0000   1.0000   1.0000   1.0000   1.0000   1.0000
     1.0000   1.0000   1.0000   1.0000   1.0000   1.0000   1.0000   1.0000
     1.0000   1.0000   1.0000   1.0000   1.0000   0.0000   0.0000   0.0000
     0.0000   0.0000   0.0000   0.0000   0.0000   0.0000

          k = 0.0000-0.3536 0.3536 ( 16154 PWs)   bands (ev):

   -68.5960 -62.3781 -39.9530 -39.9530 -39.9530 -36.2385 -36.2385 -36.2385
   -29.1682 -16.1929 -16.0914 -16.0506 -16.0287 -16.0164 -16.0068 -12.6159
   -12.6150 -12.6140  -6.4962  -5.9788  -5.0123  -4.9807  -4.9035  -4.8539
    -3.6812  -3.2143  -3.1164  -2.9673  -2.7872  -2.6945  -2.4940  -2.4914
    -2.4028  -2.3571  -2.2643  -2.2446  -1.9161  -1.7413  -1.6924  -1.6667
    -1.4058  -1.3133   1.1790   1.1898   1.2631   3.2549   3.3880   3.4609
     5.6882   5.7934   5.8590   6.0230   6.0534   6.1782

     occupation numbers 
     1.0000   1.0000   1.0000   1.0000   1.0000   1.0000   1.0000   1.0000
     1.0000   1.0000   1.0000   1.0000   1.0000   1.0000   1.0000   1.0000
     1.0000   1.0000   1.0000   1.0000   1.0000   1.0000   1.0000   1.0000
     1.0000   1.0000   1.0000   1.0000   1.0000   1.0000   1.0000   1.0000
     1.0000   1.0000   1.0000   1.0000   1.0000   1.0000   1.0000   1.0000
     1.0000   1.0000   1.0000   1.0000   1.0000   0.0000   0.0000   0.0000
     0.0000   0.0000   0.0000   0.0000   0.0000   0.0000

          k = 0.5303 0.0000 0.0000 ( 16097 PWs)   bands (ev):

   -68.5960 -62.3781 -39.9530 -39.9530 -39.9530 -36.2385 -36.2385 -36.2385
   -29.1682 -16.1914 -16.0634 -16.0507 -16.0507 -16.0370 -15.9944 -12.6152
   -12.6152 -12.6136  -6.5511  -5.8577  -4.9902  -4.9902  -4.8972  -4.8917
    -3.7038  -3.2433  -3.0356  -2.9512  -2.9512  -2.6493  -2.5087  -2.5087
    -2.4698  -2.3619  -2.3619  -2.0655  -2.0270  -2.0270  -1.5214  -1.4037
    -1.4037  -1.2828   0.8473   1.3449   1.3449   3.4597   3.4597   3.6214
     5.5773   5.6659   5.9363   6.0153   6.0153   6.0433

     occupation numbers 
     1.0000   1.0000   1.0000   1.0000   1.0000   1.0000   1.0000   1.0000
     1.0000   1.0000   1.0000   1.0000   1.0000   1.0000   1.0000   1.0000
     1.0000   1.0000   1.0000   1.0000   1.0000   1.0000   1.0000   1.0000
     1.0000   1.0000   1.0000   1.0000   1.0000   1.0000   1.0000   1.0000
     1.0000   1.0000   1.0000   1.0000   1.0000   1.0000   1.0000   1.0000
     1.0000   1.0000   1.0000   1.0000   1.0000   0.0000   0.0000   0.0000
     0.0000   0.0000   0.0000   0.0000   0.0000   0.0000

          k =-0.0884-0.6187 0.6187 ( 16096 PWs)   bands (ev):

   -68.5960 -62.3781 -39.9530 -39.9530 -39.9530 -36.2385 -36.2385 -36.2385
   -29.1682 -16.1813 -16.0758 -16.0489 -16.0483 -16.0379 -15.9963 -12.6150
   -12.6148 -12.6133  -6.4733  -5.9656  -4.9845  -4.9720  -4.9027  -4.8854
    -3.6042  -3.2722  -3.0897  -2.8952  -2.8916  -2.6830  -2.6091  -2.5644
    -2.4907  -2.3868  -2.3715  -2.0767  -2.0213  -1.9995  -1.5763  -1.4212
    -1.3643  -1.2148   0.9061   1.3702   1.3709   3.4781   3.4930   3.5740
     5.6683   5.6882   5.8662   6.0053   6.0353   6.1787

     occupation numbers 
     1.0000   1.0000   1.0000   1.0000   1.0000   1.0000   1.0000   1.0000
     1.0000   1.0000   1.0000   1.0000   1.0000   1.0000   1.0000   1.0000
     1.0000   1.0000   1.0000   1.0000   1.0000   1.0000   1.0000   1.0000
     1.0000   1.0000   1.0000   1.0000   1.0000   1.0000   1.0000   1.0000
     1.0000   1.0000   1.0000   1.0000   1.0000   1.0000   1.0000   1.0000
     1.0000   1.0000   1.0000   1.0000   1.0000   0.0000   0.0000   0.0000
     0.0000   0.0000   0.0000   0.0000   0.0000   0.0000

          k = 0.0000-0.5303 0.5303 ( 16114 PWs)   bands (ev):

   -68.5960 -62.3781 -39.9530 -39.9530 -39.9530 -36.2385 -36.2385 -36.2385
   -29.1682 -16.1757 -16.0913 -16.0514 -16.0433 -16.0250 -16.0019 -12.6152
   -12.6142 -12.6136  -6.3712  -6.1071  -4.9899  -4.9425  -4.9237  -4.8704
    -3.5284  -3.2854  -3.1186  -2.8764  -2.8563  -2.7061  -2.6442  -2.5202
    -2.5176  -2.3908  -2.3751  -2.1769  -1.9324  -1.9106  -1.6657  -1.4903
    -1.3401  -1.2165   1.0491   1.3436   1.3471   3.4384   3.4496   3.4828
     5.7632   5.8041   5.8427   5.9797   5.9890   6.1890

     occupation numbers 
     1.0000   1.0000   1.0000   1.0000   1.0000   1.0000   1.0000   1.0000
     1.0000   1.0000   1.0000   1.0000   1.0000   1.0000   1.0000   1.0000
     1.0000   1.0000   1.0000   1.0000   1.0000   1.0000   1.0000   1.0000
     1.0000   1.0000   1.0000   1.0000   1.0000   1.0000   1.0000   1.0000
     1.0000   1.0000   1.0000   1.0000   1.0000   1.0000   1.0000   1.0000
     1.0000   1.0000   1.0000   1.0000   1.0000   0.0000   0.0000   0.0000
     0.0000   0.0000   0.0000   0.0000   0.0000   0.0000

          k =-0.7071 0.0000 0.0000 ( 16076 PWs)   bands (ev):

   -68.5960 -62.3781 -39.9530 -39.9530 -39.9530 -36.2385 -36.2385 -36.2385
   -29.1682 -16.1801 -16.0609 -16.0516 -16.0509 -16.0509 -15.9943 -12.6149
   -12.6149 -12.6130  -6.4875  -5.9335  -4.9784  -4.9784  -4.8996  -4.8920
    -3.6062  -3.2862  -3.0950  -2.8674  -2.8674  -2.7228  -2.6240  -2.6240
    -2.4688  -2.3716  -2.3716  -2.0730  -2.0417  -2.0417  -1.5218  -1.3901
    -1.3901  -1.1797   0.8482   1.3891   1.3891   3.5296   3.5296   3.6229
     5.6192   5.6673   5.8472   6.0062   6.0062   6.1395

     occupation numbers 
     1.0000   1.0000   1.0000   1.0000   1.0000   1.0000   1.0000   1.0000
     1.0000   1.0000   1.0000   1.0000   1.0000   1.0000   1.0000   1.0000
     1.0000   1.0000   1.0000   1.0000   1.0000   1.0000   1.0000   1.0000
     1.0000   1.0000   1.0000   1.0000   1.0000   1.0000   1.0000   1.0000
     1.0000   1.0000   1.0000   1.0000   1.0000   1.0000   1.0000   1.0000
     1.0000   1.0000   1.0000   1.0000   1.0000   0.0000   0.0000   0.0000
     0.0000   0.0000   0.0000   0.0000   0.0000   0.0000

          k = 0.3536 0.1768 0.0000 ( 16118 PWs)   bands (ev):

   -68.5960 -62.3781 -39.9530 -39.9530 -39.9530 -36.2385 -36.2385 -36.2385
   -29.1682 -16.2085 -16.0750 -16.0502 -16.0366 -16.0162 -15.9986 -12.6161
   -12.6157 -12.6146  -6.6418  -5.7509  -5.0191  -5.0070  -4.8946  -4.8699
    -3.8587  -3.2066  -3.0848  -3.0424  -2.8157  -2.5705  -2.4781  -2.4000
    -2.3808  -2.3191  -2.2567  -2.0680  -1.9796  -1.9095  -1.5978  -1.5854
    -1.4316  -1.3808   0.9566   1.1838   1.2220   3.3365   3.4168   3.5393
     5.5740   5.6832   5.7377   5.9494   6.0418   6.0973

     occupation numbers 
     1.0000   1.0000   1.0000   1.0000   1.0000   1.0000   1.0000   1.0000
     1.0000   1.0000   1.0000   1.0000   1.0000   1.0000   1.0000   1.0000
     1.0000   1.0000   1.0000   1.0000   1.0000   1.0000   1.0000   1.0000
     1.0000   1.0000   1.0000   1.0000   1.0000   1.0000   1.0000   1.0000
     1.0000   1.0000   1.0000   1.0000   1.0000   1.0000   1.0000   1.0000
     1.0000   1.0000   1.0000   1.0000   1.0000   0.0000   0.0000   0.0000
     0.0000   0.0000   0.0000   0.0000   0.0000   0.0000

          k =-0.2652-0.4419 0.6187 ( 16135 PWs)   bands (ev):

   -68.5960 -62.3781 -39.9530 -39.9530 -39.9530 -36.2385 -36.2385 -36.2385
   -29.1682 -16.1903 -16.0922 -16.0474 -16.0324 -16.0206 -16.0041 -12.6157
   -12.6151 -12.6137  -6.4795  -5.9963  -5.0056  -4.9859  -4.8945  -4.8614
    -3.6571  -3.2411  -3.0827  -2.9633  -2.8381  -2.6351  -2.5368  -2.5041
    -2.4137  -2.3693  -2.3380  -2.1679  -1.9214  -1.8504  -1.6621  -1.5790
    -1.3740  -1.3311   1.0876   1.2807   1.2845   3.2884   3.3864   3.4594
     5.7095   5.7731   5.9180   6.0108   6.0558   6.1638

     occupation numbers 
     1.0000   1.0000   1.0000   1.0000   1.0000   1.0000   1.0000   1.0000
     1.0000   1.0000   1.0000   1.0000   1.0000   1.0000   1.0000   1.0000
     1.0000   1.0000   1.0000   1.0000   1.0000   1.0000   1.0000   1.0000
     1.0000   1.0000   1.0000   1.0000   1.0000   1.0000   1.0000   1.0000
     1.0000   1.0000   1.0000   1.0000   1.0000   1.0000   1.0000   1.0000
     1.0000   1.0000   1.0000   1.0000   1.0000   0.0000   0.0000   0.0000
     0.0000   0.0000   0.0000   0.0000   0.0000   0.0000

          k =-0.1768-0.3536 0.5303 ( 16144 PWs)   bands (ev):

   -68.5960 -62.3781 -39.9530 -39.9530 -39.9530 -36.2385 -36.2385 -36.2385
   -29.1682 -16.1802 -16.1024 -16.0411 -16.0390 -16.0143 -16.0108 -12.6155
   -12.6149 -12.6133  -6.3208  -6.1862  -4.9990  -4.9789  -4.8900  -4.8605
    -3.5442  -3.2968  -3.0765  -2.9355  -2.7915  -2.7078  -2.5614  -2.5488
    -2.4222  -2.3965  -2.3477  -2.2310  -1.8767  -1.8138  -1.7099  -1.5930
    -1.3372  -1.3197   1.2191   1.2277   1.3260   3.3033   3.3590   3.4049
     5.8150   5.8705   5.9045   6.0014   6.0373   6.2226

     occupation numbers 
     1.0000   1.0000   1.0000   1.0000   1.0000   1.0000   1.0000   1.0000
     1.0000   1.0000   1.0000   1.0000   1.0000   1.0000   1.0000   1.0000
     1.0000   1.0000   1.0000   1.0000   1.0000   1.0000   1.0000   1.0000
     1.0000   1.0000   1.0000   1.0000   1.0000   1.0000   1.0000   1.0000
     1.0000   1.0000   1.0000   1.0000   1.0000   1.0000   1.0000   1.0000
     1.0000   1.0000   1.0000   1.0000   1.0000   0.0000   0.0000   0.0000
     0.0000   0.0000   0.0000   0.0000   0.0000   0.0000

          k =-0.1768-0.5303 0.7071 ( 16124 PWs)   bands (ev):

   -68.5960 -62.3781 -39.9530 -39.9530 -39.9530 -36.2385 -36.2385 -36.2385
   -29.1682 -16.1868 -16.0814 -16.0508 -16.0407 -16.0297 -15.9984 -12.6153
   -12.6149 -12.6136  -6.4917  -5.9570  -4.9912  -4.9795  -4.9028  -4.8764
    -3.6448  -3.2425  -3.0794  -2.9378  -2.9069  -2.6256  -2.5521  -2.5262
    -2.4869  -2.3847  -2.3584  -2.0939  -1.9798  -1.9638  -1.6100  -1.4727
    -1.3417  -1.2898   0.9584   1.3260   1.3450   3.3858   3.4555   3.5411
     5.6712   5.7039   5.9311   5.9962   6.0399   6.1531

     occupation numbers 
     1.0000   1.0000   1.0000   1.0000   1.0000   1.0000   1.0000   1.0000
     1.0000   1.0000   1.0000   1.0000   1.0000   1.0000   1.0000   1.0000
     1.0000   1.0000   1.0000   1.0000   1.0000   1.0000   1.0000   1.0000
     1.0000   1.0000   1.0000   1.0000   1.0000   1.0000   1.0000   1.0000
     1.0000   1.0000   1.0000   1.0000   1.0000   1.0000   1.0000   1.0000
     1.0000   1.0000   1.0000   1.0000   1.0000   0.0000   0.0000   0.0000
     0.0000   0.0000   0.0000   0.0000   0.0000   0.0000

          k =-0.0884-0.4419 0.6187 ( 16124 PWs)   bands (ev):

   -68.5960 -62.3781 -39.9530 -39.9530 -39.9530 -36.2385 -36.2385 -36.2385
   -29.1682 -16.1765 -16.0924 -16.0484 -16.0472 -16.0200 -16.0040 -12.6151
   -12.6144 -12.6136  -6.3654  -6.1175  -4.9848  -4.9568  -4.9161  -4.8689
    -3.5339  -3.2772  -3.1091  -2.9278  -2.8310  -2.6753  -2.6237  -2.5636
    -2.5040  -2.3859  -2.3629  -2.1802  -1.9145  -1.8965  -1.6874  -1.5221
    -1.3050  -1.2465   1.0886   1.2846   1.3706   3.3957   3.4418   3.4923
     5.7529   5.8181   5.8484   5.9771   6.0179   6.1728

     occupation numbers 
     1.0000   1.0000   1.0000   1.0000   1.0000   1.0000   1.0000   1.0000
     1.0000   1.0000   1.0000   1.0000   1.0000   1.0000   1.0000   1.0000
     1.0000   1.0000   1.0000   1.0000   1.0000   1.0000   1.0000   1.0000
     1.0000   1.0000   1.0000   1.0000   1.0000   1.0000   1.0000   1.0000
     1.0000   1.0000   1.0000   1.0000   1.0000   1.0000   1.0000   1.0000
     1.0000   1.0000   1.0000   1.0000   1.0000   0.0000   0.0000   0.0000
     0.0000   0.0000   0.0000   0.0000   0.0000   0.0000

          k =-0.0000-0.3536 0.5303 ( 16129 PWs)   bands (ev):

   -68.5960 -62.3781 -39.9530 -39.9530 -39.9530 -36.2385 -36.2385 -36.2385
   -29.1682 -16.1782 -16.0958 -16.0511 -16.0401 -16.0140 -16.0091 -12.6153
   -12.6142 -12.6138  -6.3497  -6.1437  -4.9930  -4.9529  -4.9196  -4.8614
    -3.5438  -3.2578  -3.1259  -2.9137  -2.8299  -2.7054  -2.5811  -2.5594
    -2.4644  -2.3824  -2.3469  -2.2260  -1.8899  -1.8408  -1.7133  -1.5671
    -1.3180  -1.2668   1.1847   1.2244   1.3452   3.3399   3.4100   3.4762
     5.7513   5.8551   5.8751   5.9695   6.0234   6.2183

     occupation numbers 
     1.0000   1.0000   1.0000   1.0000   1.0000   1.0000   1.0000   1.0000
     1.0000   1.0000   1.0000   1.0000   1.0000   1.0000   1.0000   1.0000
     1.0000   1.0000   1.0000   1.0000   1.0000   1.0000   1.0000   1.0000
     1.0000   1.0000   1.0000   1.0000   1.0000   1.0000   1.0000   1.0000
     1.0000   1.0000   1.0000   1.0000   1.0000   1.0000   1.0000   1.0000
     1.0000   1.0000   1.0000   1.0000   1.0000   0.0000   0.0000   0.0000
     0.0000   0.0000   0.0000   0.0000   0.0000   0.0000

          k =-0.7071 0.1768 0.0000 ( 16106 PWs)   bands (ev):

   -68.5960 -62.3781 -39.9530 -39.9530 -39.9530 -36.2385 -36.2385 -36.2385
   -29.1682 -16.1769 -16.0805 -16.0516 -16.0509 -16.0306 -15.9983 -12.6149
   -12.6146 -12.6133  -6.4281  -6.0261  -4.9738  -4.9678  -4.9118  -4.8803
    -3.5577  -3.2856  -3.1008  -2.9174  -2.8366  -2.6830  -2.6220  -2.6174
    -2.4988  -2.4035  -2.3672  -2.1029  -1.9823  -1.9817  -1.6171  -1.4552
    -1.3271  -1.1983   0.9591   1.3455   1.3891   3.4604   3.5296   3.5375
     5.7029   5.7278   5.8329   5.9911   6.0053   6.1240

     occupation numbers 
     1.0000   1.0000   1.0000   1.0000   1.0000   1.0000   1.0000   1.0000
     1.0000   1.0000   1.0000   1.0000   1.0000   1.0000   1.0000   1.0000
     1.0000   1.0000   1.0000   1.0000   1.0000   1.0000   1.0000   1.0000
     1.0000   1.0000   1.0000   1.0000   1.0000   1.0000   1.0000   1.0000
     1.0000   1.0000   1.0000   1.0000   1.0000   1.0000   1.0000   1.0000
     1.0000   1.0000   1.0000   1.0000   1.0000   0.0000   0.0000   0.0000
     0.0000   0.0000   0.0000   0.0000   0.0000   0.0000

          k =-0.7071 0.3536 0.0000 ( 16120 PWs)   bands (ev):

   -68.5960 -62.3781 -39.9530 -39.9530 -39.9530 -36.2385 -36.2385 -36.2385
   -29.1682 -16.1732 -16.0915 -16.0516 -16.0509 -16.0133 -16.0082 -12.6149
   -12.6140 -12.6139  -6.3210  -6.1640  -4.9707  -4.9445  -4.9367  -4.8692
    -3.5050  -3.2849  -3.1060  -2.9625  -2.7881  -2.6573  -2.6508  -2.6132
    -2.5342  -2.3646  -2.3607  -2.1961  -1.9043  -1.8743  -1.7228  -1.5391
    -1.2568  -1.2448   1.1800   1.1916   1.3890   3.4246   3.4267   3.5295
     5.7542   5.8024   5.8659   5.9269   6.0040   6.1152

     occupation numbers 
     1.0000   1.0000   1.0000   1.0000   1.0000   1.0000   1.0000   1.0000
     1.0000   1.0000   1.0000   1.0000   1.0000   1.0000   1.0000   1.0000
     1.0000   1.0000   1.0000   1.0000   1.0000   1.0000   1.0000   1.0000
     1.0000   1.0000   1.0000   1.0000   1.0000   1.0000   1.0000   1.0000
     1.0000   1.0000   1.0000   1.0000   1.0000   1.0000   1.0000   1.0000
     1.0000   1.0000   1.0000   1.0000   1.0000   0.0000   0.0000   0.0000
     0.0000   0.0000   0.0000   0.0000   0.0000   0.0000

     the Fermi energy is     1.9735 ev
     (compare with:     1.9523 eV, computed in scf)

     Writing all to output data dir /tmp/scratch/65640244/KVCr_LCM/KVCr_LCM.save/ :
     XML data file, pseudopotentials, collected wavefunctions

     init_run     :      2.82s CPU      3.04s WALL (       1 calls)
     electrons    :     60.30s CPU     66.91s WALL (       1 calls)

     Called by init_run:
     wfcinit      :      0.29s CPU      0.31s WALL (       1 calls)
     wfcinit:atom :      0.01s CPU      0.01s WALL (       8 calls)
     wfcinit:wfcr :      2.08s CPU      2.43s WALL (       8 calls)
     potinit      :      1.40s CPU      1.51s WALL (       1 calls)
     hinit0       :      0.71s CPU      0.75s WALL (       1 calls)

     Called by electrons:
     c_bands      :     60.22s CPU     66.83s WALL (       1 calls)
     v_of_rho     :      0.73s CPU      0.80s WALL (       1 calls)
     v_h          :      0.06s CPU      0.07s WALL (       1 calls)
     v_xc         :      0.67s CPU      0.73s WALL (       1 calls)
     newd         :      0.14s CPU      0.16s WALL (       1 calls)
     PAW_pot      :      0.19s CPU      0.21s WALL (       1 calls)

     Called by c_bands:
     init_us_2    :      0.02s CPU      0.05s WALL (      16 calls)
     cegterg      :     41.46s CPU     47.54s WALL (      24 calls)

     Called by sum_band:

     Called by *egterg:
     cdiaghg      :      1.26s CPU      1.15s WALL (     439 calls)
     cegterg:over :      2.05s CPU      2.27s WALL (     431 calls)
     cegterg:upda :      1.05s CPU      1.07s WALL (     431 calls)
     cegterg:last :      2.30s CPU      2.45s WALL (     206 calls)
     h_psi        :     34.19s CPU     40.42s WALL (     463 calls)
     s_psi        :      1.31s CPU      1.34s WALL (     471 calls)
     g_psi        :      0.19s CPU      0.23s WALL (     431 calls)

     Called by h_psi:
     h_psi:calbec :      1.74s CPU      1.90s WALL (     463 calls)
     vloc_psi     :     30.40s CPU     36.41s WALL (     463 calls)
                                        0.00s GPU  (     463 calls)
     add_vuspsi   :      1.30s CPU      1.29s WALL (     463 calls)
     vhpsi        :      0.49s CPU      0.52s WALL (     463 calls)

     General routines
     calbec       :      2.14s CPU      2.31s WALL (     934 calls)
     fft          :      0.71s CPU      0.79s WALL (      23 calls)
     ffts         :      0.30s CPU      0.32s WALL (       2 calls)
     fftw         :     26.51s CPU     32.42s WALL (   23546 calls)
     interpolate  :      0.32s CPU      0.34s WALL (       2 calls)

     Parallel routines

     Hubbard U routines
     vhpsi        :      0.49s CPU      0.52s WALL (     463 calls)

     PAW routines
     PAW_pot      :      0.19s CPU      0.21s WALL (       1 calls)

     PWSCF        :   1m 3.93s CPU   1m11.09s WALL


   This run was terminated on:  20: 6: 5   4Oct2026            

=------------------------------------------------------------------------------=
   JOB DONE.
=------------------------------------------------------------------------------=
Note: The following floating-point exceptions are signalling: IEEE_DENORMAL
Note: The following floating-point exceptions are signalling: IEEE_DENORMAL
