
     Program PWSCF v.7.5 starts on  3Oct2026 at 11:25:18 

     This program is part of the open-source Quantum ESPRESSO suite
     for quantum simulation of materials; please cite
         "P. Giannozzi et al., J. Phys.:Condens. Matter 21 395502 (2009);
         "P. Giannozzi et al., J. Phys.:Condens. Matter 29 465901 (2017);
         "P. Giannozzi et al., J. Chem. Phys. 152 154105 (2020);
          URL http://www.quantum-espresso.org", 
     in publications or presentations arising from this work. More details at
     http://www.quantum-espresso.org/quote

     Parallel version (MPI & OpenMP), running on      32 processor cores
     Number of MPI processes:                32
     Threads/MPI process:                     1

     MPI processes distributed on     1 nodes
     409200 MiB available memory on the printing compute node when the environment starts

     Reading input from KVCr_U2_2_LCM_nscf.in

     Current dimensions of program PWSCF are:
     Max number of different atomic species (ntypx) = 10
     Max number of k-points (npk) =  40000
     Max angular momentum in pseudopotentials (lmaxx) =  4

     Atomic positions and unit cell read from directory:
     /tmp/scratch/KVCr_U2_2_LCM/KVCr_U2_2_LCM.save/

     Message from routine setup:
     using ibrav=0 with symmetry is DISCOURAGED, use correct ibrav instead

     K-points division:     npool     =      16
     R & G space division:  proc/nbgrp/npool/nimage =       2
     Subspace diagonalization in iterative solution of the eigenvalue problem:
     a serial algorithm will be used


     Parallelization info
     --------------------
     sticks:   dense  smooth     PW     G-vecs:    dense   smooth      PW
     Min        3090    3090    831               160420   160420   22367
     Max        3091    3091    832               160423   160423   22368
     Sum        6181    6181   1663               320843   320843   44735

     Using Slab Decomposition



     bravais-lattice index     =            0
     lattice parameter (alat)  =      14.2709  a.u.
     unit-cell volume          =    2055.1352 (a.u.)^3
     number of atoms/cell      =           15
     number of atomic types    =            5
     number of electrons       =        90.00
     number of Kohn-Sham states=           54
     kinetic-energy cutoff     =     110.0000  Ry
     charge density cutoff     =     440.0000  Ry
     Exchange-correlation= PBE
                           (   1   4   3   4   0   0   0)
     Hubbard projectors: ortho-atomic
     Hubbard parameters of DFT+U (Dudarev formulation) in eV:
     U(V-3d) =  2.0000
     U(Cr-3d) =  2.0000

     Internal variables: lda_plus_u =T, lda_plus_u_kind = 0

     Internal variables: orbital_resolved =F, hub_pot_fix =F, apply_U = F

     celldm(1)=  14.270914  celldm(2)=   0.000000  celldm(3)=   0.000000
     celldm(4)=   0.000000  celldm(5)=   0.000000  celldm(6)=   0.000000

     crystal axes: (cart. coord. in units of alat)
               a(1) = (   0.000000   0.707107   0.707107 )  
               a(2) = (   0.707107   0.000000   0.707107 )  
               a(3) = (   0.707107   0.707107   0.000000 )  

     reciprocal axes: (cart. coord. in units 2 pi/alat)
               b(1) = ( -0.707107  0.707107  0.707107 )  
               b(2) = (  0.707107 -0.707107  0.707107 )  
               b(3) = (  0.707107  0.707107 -0.707107 )  


     PseudoPot. # 1 for K  read from file:
     /data/pseudo/dojo_sr/K.upf
     MD5 check sum: 0aa97b2c023445f040759afc9fdb6c80
     Pseudo is Norm-conserving + core correction, Zval =  9.0
     Generated using ONCVPSP code by D. R. Hamann
     Using radial grid of 2222 points,  6 beta functions with: 
                l(1) =   0
                l(2) =   0
                l(3) =   1
                l(4) =   1
                l(5) =   2
                l(6) =   2

     PseudoPot. # 2 for V  read from file:
     /data/pseudo/dojo_sr/V.upf
     MD5 check sum: 40fb93c06b4f9d8c28c5ccd071294a04
     Pseudo is Norm-conserving + core correction, Zval = 13.0
     Generated using ONCVPSP code by D. R. Hamann
     Using radial grid of 1536 points,  6 beta functions with: 
                l(1) =   0
                l(2) =   0
                l(3) =   1
                l(4) =   1
                l(5) =   2
                l(6) =   2

     PseudoPot. # 3 for Cr read from file:
     /data/pseudo/dojo_sr/Cr.upf
     MD5 check sum: 41892f80c335c8b1e803fd21ab4016b0
     Pseudo is Norm-conserving + core correction, Zval = 14.0
     Generated using ONCVPSP code by D. R. Hamann
     Using radial grid of 1638 points,  6 beta functions with: 
                l(1) =   0
                l(2) =   0
                l(3) =   1
                l(4) =   1
                l(5) =   2
                l(6) =   2

     PseudoPot. # 4 for C  read from file:
     /data/pseudo/dojo_sr/C.upf
     MD5 check sum: 34a24e64c0a39f27c6c36b90a16ac686
     Pseudo is Norm-conserving + core correction, Zval =  4.0
     Generated using ONCVPSP code by D. R. Hamann
     Using radial grid of 1248 points,  4 beta functions with: 
                l(1) =   0
                l(2) =   0
                l(3) =   1
                l(4) =   1

     PseudoPot. # 5 for N  read from file:
     /data/pseudo/dojo_sr/N.upf
     MD5 check sum: d34365f73bb0e2ee98afc20ec3e87676
     Pseudo is Norm-conserving + core correction, Zval =  5.0
     Generated using ONCVPSP code by D. R. Hamann
     Using radial grid of 1058 points,  4 beta functions with: 
                l(1) =   0
                l(2) =   0
                l(3) =   1
                l(4) =   1

     atomic species   valence    mass     pseudopotential
     K                 9.00    39.09830     K ( 1.00)
     V                13.00    50.94150     V ( 1.00)
     Cr               14.00    51.99610     Cr( 1.00)
     C                 4.00    12.01100     C ( 1.00)
     N                 5.00    14.00700     N ( 1.00)

     Starting magnetic structure 
     atomic species   magnetization
     K               0.000
     V              -0.231
     Cr              0.214
     C               0.000
     N               0.000

     24 Sym. Ops. (no inversion) found


                                    s                        frac. trans.

      isym =  1     identity                                     

 cryst.   s( 1) = (     1          0          0      )
                  (     0          1          0      )
                  (     0          0          1      )

 cart.    s( 1) = (  1.0000000  0.0000000  0.0000000 )
                  (  0.0000000  1.0000000  0.0000000 )
                  (  0.0000000  0.0000000  1.0000000 )


      isym =  2     180 deg rotation - cart. axis [0,0,1]        

 cryst.   s( 2) = (     0          1         -1      )
                  (     1          0         -1      )
                  (     0          0         -1      )

 cart.    s( 2) = ( -1.0000000  0.0000000  0.0000000 )
                  (  0.0000000 -1.0000000  0.0000000 )
                  (  0.0000000  0.0000000  1.0000000 )


      isym =  3     180 deg rotation - cart. axis [0,1,0]        

 cryst.   s( 3) = (     0         -1          1      )
                  (     0         -1          0      )
                  (     1         -1          0      )

 cart.    s( 3) = ( -1.0000000  0.0000000  0.0000000 )
                  (  0.0000000  1.0000000  0.0000000 )
                  (  0.0000000  0.0000000 -1.0000000 )


      isym =  4     180 deg rotation - cart. axis [1,0,0]        

 cryst.   s( 4) = (    -1          0          0      )
                  (    -1          0          1      )
                  (    -1          1          0      )

 cart.    s( 4) = (  1.0000000  0.0000000  0.0000000 )
                  (  0.0000000 -1.0000000  0.0000000 )
                  (  0.0000000  0.0000000 -1.0000000 )


      isym =  5     120 deg rotation - cart. axis [-1,-1,-1]     

 cryst.   s( 5) = (     0          0          1      )
                  (     1          0          0      )
                  (     0          1          0      )

 cart.    s( 5) = (  0.0000000  1.0000000  0.0000000 )
                  (  0.0000000  0.0000000  1.0000000 )
                  (  1.0000000  0.0000000  0.0000000 )


      isym =  6     120 deg rotation - cart. axis [-1,1,1]       

 cryst.   s( 6) = (     1         -1          0      )
                  (     0         -1          1      )
                  (     0         -1          0      )

 cart.    s( 6) = (  0.0000000 -1.0000000  0.0000000 )
                  (  0.0000000  0.0000000  1.0000000 )
                  ( -1.0000000  0.0000000  0.0000000 )


      isym =  7     120 deg rotation - cart. axis [1,1,-1]       

 cryst.   s( 7) = (    -1          1          0      )
                  (    -1          0          0      )
                  (    -1          0          1      )

 cart.    s( 7) = (  0.0000000  1.0000000  0.0000000 )
                  (  0.0000000  0.0000000 -1.0000000 )
                  ( -1.0000000  0.0000000  0.0000000 )


      isym =  8     120 deg rotation - cart. axis [1,-1,1]       

 cryst.   s( 8) = (     0          0         -1      )
                  (     0          1         -1      )
                  (     1          0         -1      )

 cart.    s( 8) = (  0.0000000 -1.0000000  0.0000000 )
                  (  0.0000000  0.0000000 -1.0000000 )
                  (  1.0000000  0.0000000  0.0000000 )


      isym =  9     120 deg rotation - cart. axis [1,1,1]        

 cryst.   s( 9) = (     0          1          0      )
                  (     0          0          1      )
                  (     1          0          0      )

 cart.    s( 9) = (  0.0000000  0.0000000  1.0000000 )
                  (  1.0000000  0.0000000  0.0000000 )
                  (  0.0000000  1.0000000  0.0000000 )


      isym = 10     120 deg rotation - cart. axis [-1,1,-1]      

 cryst.   s(10) = (    -1          0          1      )
                  (    -1          1          0      )
                  (    -1          0          0      )

 cart.    s(10) = (  0.0000000  0.0000000  1.0000000 )
                  ( -1.0000000  0.0000000  0.0000000 )
                  (  0.0000000 -1.0000000  0.0000000 )


      isym = 11     120 deg rotation - cart. axis [1,-1,-1]      

 cryst.   s(11) = (     1          0         -1      )
                  (     0          0         -1      )
                  (     0          1         -1      )

 cart.    s(11) = (  0.0000000  0.0000000 -1.0000000 )
                  ( -1.0000000  0.0000000  0.0000000 )
                  (  0.0000000  1.0000000  0.0000000 )


      isym = 12     120 deg rotation - cart. axis [-1,-1,1]      

 cryst.   s(12) = (     0         -1          0      )
                  (     1         -1          0      )
                  (     0         -1          1      )

 cart.    s(12) = (  0.0000000  0.0000000 -1.0000000 )
                  (  1.0000000  0.0000000  0.0000000 )
                  (  0.0000000 -1.0000000  0.0000000 )


      isym = 13     inv. 180 deg rotation - cart. axis [1,1,0]   

 cryst.   s(13) = (     1          0         -1      )
                  (     0          1         -1      )
                  (     0          0         -1      )

 cart.    s(13) = (  0.0000000 -1.0000000  0.0000000 )
                  ( -1.0000000  0.0000000  0.0000000 )
                  (  0.0000000  0.0000000  1.0000000 )


      isym = 14     inv. 180 deg rotation - cart. axis [1,-1,0]  

 cryst.   s(14) = (     0          1          0      )
                  (     1          0          0      )
                  (     0          0          1      )

 cart.    s(14) = (  0.0000000  1.0000000  0.0000000 )
                  (  1.0000000  0.0000000  0.0000000 )
                  (  0.0000000  0.0000000  1.0000000 )


      isym = 15     inv.  90 deg rotation - cart. axis [0,0,-1]  

 cryst.   s(15) = (     0         -1          0      )
                  (     0         -1          1      )
                  (     1         -1          0      )

 cart.    s(15) = (  0.0000000 -1.0000000  0.0000000 )
                  (  1.0000000  0.0000000  0.0000000 )
                  (  0.0000000  0.0000000 -1.0000000 )


      isym = 16     inv.  90 deg rotation - cart. axis [0,0,1]   

 cryst.   s(16) = (    -1          0          1      )
                  (    -1          0          0      )
                  (    -1          1          0      )

 cart.    s(16) = (  0.0000000  1.0000000  0.0000000 )
                  ( -1.0000000  0.0000000  0.0000000 )
                  (  0.0000000  0.0000000 -1.0000000 )


      isym = 17     inv. 180 deg rotation - cart. axis [1,0,1]   

 cryst.   s(17) = (     1         -1          0      )
                  (     0         -1          0      )
                  (     0         -1          1      )

 cart.    s(17) = (  0.0000000  0.0000000 -1.0000000 )
                  (  0.0000000  1.0000000  0.0000000 )
                  ( -1.0000000  0.0000000  0.0000000 )


      isym = 18     inv. 180 deg rotation - cart. axis [-1,0,1]  

 cryst.   s(18) = (     0          0          1      )
                  (     0          1          0      )
                  (     1          0          0      )

 cart.    s(18) = (  0.0000000  0.0000000  1.0000000 )
                  (  0.0000000  1.0000000  0.0000000 )
                  (  1.0000000  0.0000000  0.0000000 )


      isym = 19     inv.  90 deg rotation - cart. axis [0,1,0]   

 cryst.   s(19) = (     0          0         -1      )
                  (     1          0         -1      )
                  (     0          1         -1      )

 cart.    s(19) = (  0.0000000  0.0000000 -1.0000000 )
                  (  0.0000000 -1.0000000  0.0000000 )
                  (  1.0000000  0.0000000  0.0000000 )


      isym = 20     inv.  90 deg rotation - cart. axis [0,-1,0]  

 cryst.   s(20) = (    -1          1          0      )
                  (    -1          0          1      )
                  (    -1          0          0      )

 cart.    s(20) = (  0.0000000  0.0000000  1.0000000 )
                  (  0.0000000 -1.0000000  0.0000000 )
                  ( -1.0000000  0.0000000  0.0000000 )


      isym = 21     inv. 180 deg rotation - cart. axis [0,1,1]   

 cryst.   s(21) = (    -1          0          0      )
                  (    -1          1          0      )
                  (    -1          0          1      )

 cart.    s(21) = (  1.0000000  0.0000000  0.0000000 )
                  (  0.0000000  0.0000000 -1.0000000 )
                  (  0.0000000 -1.0000000  0.0000000 )


      isym = 22     inv. 180 deg rotation - cart. axis [0,1,-1]  

 cryst.   s(22) = (     1          0          0      )
                  (     0          0          1      )
                  (     0          1          0      )

 cart.    s(22) = (  1.0000000  0.0000000  0.0000000 )
                  (  0.0000000  0.0000000  1.0000000 )
                  (  0.0000000  1.0000000  0.0000000 )


      isym = 23     inv.  90 deg rotation - cart. axis [-1,0,0]  

 cryst.   s(23) = (     0          1         -1      )
                  (     0          0         -1      )
                  (     1          0         -1      )

 cart.    s(23) = ( -1.0000000  0.0000000  0.0000000 )
                  (  0.0000000  0.0000000 -1.0000000 )
                  (  0.0000000  1.0000000  0.0000000 )


      isym = 24     inv.  90 deg rotation - cart. axis [1,0,0]   

 cryst.   s(24) = (     0         -1          1      )
                  (     1         -1          0      )
                  (     0         -1          0      )

 cart.    s(24) = ( -1.0000000  0.0000000  0.0000000 )
                  (  0.0000000  0.0000000  1.0000000 )
                  (  0.0000000 -1.0000000  0.0000000 )


   Cartesian axes

     site n.     atom                  positions (alat units)
         1        K      tau(   1) = (   0.3535534   0.3535534   0.3535534  )
         2        V      tau(   2) = (   0.0000000   0.0000000   0.0000000  )
         3        Cr     tau(   3) = (   0.7071068   0.7071068   0.7071068  )
         4        C      tau(   4) = (   0.4343911   0.7071068   0.7071068  )
         5        C      tau(   5) = (   0.9798225   0.7071068   0.7071068  )
         6        C      tau(   6) = (   0.7071068   0.4343911   0.7071068  )
         7        C      tau(   7) = (   0.7071068   0.9798225   0.7071068  )
         8        C      tau(   8) = (   0.7071068   0.7071068   0.4343911  )
         9        C      tau(   9) = (   0.7071068   0.7071068   0.9798225  )
        10        N      tau(  10) = (   0.2796732   0.7071068   0.7071068  )
        11        N      tau(  11) = (   1.1345404   0.7071068   0.7071068  )
        12        N      tau(  12) = (   0.7071068   0.2796732   0.7071068  )
        13        N      tau(  13) = (   0.7071068   1.1345404   0.7071068  )
        14        N      tau(  14) = (   0.7071068   0.7071068   0.2796732  )
        15        N      tau(  15) = (   0.7071068   0.7071068   1.1345404  )

   Crystallographic axes

     site n.     atom                  positions (cryst. coord.)
         1        K      tau(   1) = (  0.2500000  0.2500000  0.2500000  )
         2        V      tau(   2) = (  0.0000000  0.0000000  0.0000000  )
         3        Cr     tau(   3) = (  0.5000000  0.5000000  0.5000000  )
         4        C      tau(   4) = (  0.6928391  0.3071609  0.3071609  )
         5        C      tau(   5) = (  0.3071609  0.6928391  0.6928391  )
         6        C      tau(   6) = (  0.3071609  0.6928391  0.3071609  )
         7        C      tau(   7) = (  0.6928391  0.3071609  0.6928391  )
         8        C      tau(   8) = (  0.3071609  0.3071609  0.6928391  )
         9        C      tau(   9) = (  0.6928391  0.6928391  0.3071609  )
        10        N      tau(  10) = (  0.8022412  0.1977588  0.1977588  )
        11        N      tau(  11) = (  0.1977588  0.8022412  0.8022412  )
        12        N      tau(  12) = (  0.1977588  0.8022412  0.1977588  )
        13        N      tau(  13) = (  0.8022412  0.1977588  0.8022412  )
        14        N      tau(  14) = (  0.1977588  0.1977588  0.8022412  )
        15        N      tau(  15) = (  0.8022412  0.8022412  0.1977588  )

     number of k points=    29  Gaussian smearing, width (Ry)=  0.0050
                       cart. coord. in units 2pi/alat
        k(    1) = (   0.0000000   0.0000000   0.0000000), wk =   0.0019531
        k(    2) = (   0.0883883   0.0883883  -0.0883883), wk =   0.0156250
        k(    3) = (   0.1767767   0.1767767  -0.1767767), wk =   0.0156250
        k(    4) = (   0.2651650   0.2651650  -0.2651650), wk =   0.0156250
        k(    5) = (  -0.3535534  -0.3535534   0.3535534), wk =   0.0078125
        k(    6) = (   0.1767767   0.0000000   0.0000000), wk =   0.0117188
        k(    7) = (   0.2651650   0.0883883  -0.0883883), wk =   0.0468750
        k(    8) = (   0.3535534   0.1767767  -0.1767767), wk =   0.0468750
        k(    9) = (  -0.2651650  -0.4419417   0.4419417), wk =   0.0468750
        k(   10) = (  -0.1767767  -0.3535534   0.3535534), wk =   0.0468750
        k(   11) = (  -0.0883883  -0.2651650   0.2651650), wk =   0.0468750
        k(   12) = (   0.0000000  -0.1767767   0.1767767), wk =   0.0234375
        k(   13) = (   0.3535534   0.0000000   0.0000000), wk =   0.0117188
        k(   14) = (   0.4419417   0.0883883  -0.0883883), wk =   0.0468750
        k(   15) = (  -0.1767767  -0.5303301   0.5303301), wk =   0.0468750
        k(   16) = (  -0.0883883  -0.4419417   0.4419417), wk =   0.0468750
        k(   17) = (   0.0000000  -0.3535534   0.3535534), wk =   0.0234375
        k(   18) = (   0.5303301   0.0000000   0.0000000), wk =   0.0117188
        k(   19) = (  -0.0883883  -0.6187184   0.6187184), wk =   0.0468750
        k(   20) = (   0.0000000  -0.5303301   0.5303301), wk =   0.0234375
        k(   21) = (  -0.7071068   0.0000000   0.0000000), wk =   0.0058594
        k(   22) = (   0.3535534   0.1767767   0.0000000), wk =   0.0468750
        k(   23) = (  -0.2651650  -0.4419417   0.6187184), wk =   0.0937500
        k(   24) = (  -0.1767767  -0.3535534   0.5303301), wk =   0.0468750
        k(   25) = (  -0.1767767  -0.5303301   0.7071068), wk =   0.0468750
        k(   26) = (  -0.0883883  -0.4419417   0.6187184), wk =   0.0937500
        k(   27) = (  -0.0000000  -0.3535534   0.5303301), wk =   0.0468750
        k(   28) = (  -0.7071068   0.1767767   0.0000000), wk =   0.0234375
        k(   29) = (  -0.7071068   0.3535534   0.0000000), wk =   0.0117188

                       cryst. coord.
        k(    1) = (   0.0000000   0.0000000   0.0000000), wk =   0.0019531
        k(    2) = (   0.0000000   0.0000000   0.1250000), wk =   0.0156250
        k(    3) = (   0.0000000   0.0000000   0.2500000), wk =   0.0156250
        k(    4) = (   0.0000000   0.0000000   0.3750000), wk =   0.0156250
        k(    5) = (   0.0000000   0.0000000  -0.5000000), wk =   0.0078125
        k(    6) = (   0.0000000   0.1250000   0.1250000), wk =   0.0117188
        k(    7) = (   0.0000000   0.1250000   0.2500000), wk =   0.0468750
        k(    8) = (   0.0000000   0.1250000   0.3750000), wk =   0.0468750
        k(    9) = (   0.0000000   0.1250000  -0.5000000), wk =   0.0468750
        k(   10) = (   0.0000000   0.1250000  -0.3750000), wk =   0.0468750
        k(   11) = (   0.0000000   0.1250000  -0.2500000), wk =   0.0468750
        k(   12) = (   0.0000000   0.1250000  -0.1250000), wk =   0.0234375
        k(   13) = (   0.0000000   0.2500000   0.2500000), wk =   0.0117188
        k(   14) = (   0.0000000   0.2500000   0.3750000), wk =   0.0468750
        k(   15) = (   0.0000000   0.2500000  -0.5000000), wk =   0.0468750
        k(   16) = (   0.0000000   0.2500000  -0.3750000), wk =   0.0468750
        k(   17) = (   0.0000000   0.2500000  -0.2500000), wk =   0.0234375
        k(   18) = (   0.0000000   0.3750000   0.3750000), wk =   0.0117188
        k(   19) = (   0.0000000   0.3750000  -0.5000000), wk =   0.0468750
        k(   20) = (   0.0000000   0.3750000  -0.3750000), wk =   0.0234375
        k(   21) = (   0.0000000  -0.5000000  -0.5000000), wk =   0.0058594
        k(   22) = (   0.1250000   0.2500000   0.3750000), wk =   0.0468750
        k(   23) = (   0.1250000   0.2500000  -0.5000000), wk =   0.0937500
        k(   24) = (   0.1250000   0.2500000  -0.3750000), wk =   0.0468750
        k(   25) = (   0.1250000   0.3750000  -0.5000000), wk =   0.0468750
        k(   26) = (   0.1250000   0.3750000  -0.3750000), wk =   0.0937500
        k(   27) = (   0.1250000   0.3750000  -0.2500000), wk =   0.0468750
        k(   28) = (   0.1250000  -0.5000000  -0.3750000), wk =   0.0234375
        k(   29) = (   0.2500000  -0.5000000  -0.2500000), wk =   0.0117188

     Dense  grid:   320843 G-vectors     FFT dimensions: (  96,  96,  96)

     Dynamical RAM for                 wfc:      16.50 MB

     Dynamical RAM for     wfc (w. buffer):      82.48 MB

     Dynamical RAM for             U proj.:       3.05 MB

     Dynamical RAM for  U proj. (w. buff.):      15.27 MB

     Dynamical RAM for           str. fact:      12.24 MB

     Dynamical RAM for           local pot:       0.00 MB

     Dynamical RAM for          nlocal pot:      45.82 MB

     Dynamical RAM for                qrad:       8.42 MB

     Dynamical RAM for          rho,v,vnew:      34.94 MB

     Dynamical RAM for           G-vectors:      10.40 MB

     Dynamical RAM for          h,s,v(r/c):       0.53 MB

     Dynamical RAM for          <psi|beta>:       0.12 MB

     Dynamical RAM for                 psi:      32.99 MB

     Dynamical RAM for                hpsi:      32.99 MB

     Dynamical RAM for      wfcinit/wfcrot:      33.06 MB

     Estimated static dynamical RAM per process >     244.50 MB

     Estimated max dynamical RAM per process >     311.14 MB

     Estimated total dynamical RAM >       9.72 GB
     Generating pointlists ...
     new r_m :   0.2085 (alat units)  2.9753 (a.u.) for type    1
     new r_m :   0.1154 (alat units)  1.6464 (a.u.) for type    2
     new r_m :   0.1125 (alat units)  1.6054 (a.u.) for type    3
     new r_m :   0.0638 (alat units)  0.9108 (a.u.) for type    4
     new r_m :   0.0638 (alat units)  0.9108 (a.u.) for type    5

     The potential is recalculated from file :
     /tmp/scratch/KVCr_U2_2_LCM/KVCr_U2_2_LCM.save/charge-density


     HUBBARD ENERGY =    0.1735  (Ry)

     STARTING HUBBARD OCCUPATIONS:

     =================== HUBBARD OCCUPATIONS ===================
     ------------------------ ATOM    2 ------------------------
     Tr[ns(  2)] (up, down, total) =   0.43693  3.06445  3.50138
     Atomic magnetic moment for atom   2 =  -2.62751
     SPIN  1
     eigenvalues:
       0.030  0.030  0.030  0.174  0.174
     eigenvectors (columns):
      -0.000  0.000 -0.000  0.370 -0.929
      -0.322 -0.246 -0.914  0.000  0.000
      -0.603 -0.691  0.399  0.000  0.000
       0.000 -0.000  0.000  0.929  0.370
       0.730 -0.680 -0.074 -0.000 -0.000
     occupation matrix ns (before diag.):
       0.174 -0.000 -0.000 -0.000  0.000
      -0.000  0.030 -0.000  0.000  0.000
      -0.000 -0.000  0.030  0.000  0.000
      -0.000  0.000  0.000  0.174 -0.000
       0.000  0.000  0.000 -0.000  0.030
     SPIN  2
     eigenvalues:
       0.214  0.214  0.879  0.879  0.879
     eigenvectors (columns):
       0.470 -0.883 -0.000 -0.000 -0.000
      -0.000 -0.000  0.321 -0.271  0.908
      -0.000 -0.000  0.581 -0.701 -0.414
       0.883  0.470  0.000  0.000  0.000
       0.000  0.000 -0.748 -0.660  0.067
     occupation matrix ns (before diag.):
       0.214 -0.000 -0.000 -0.000  0.000
      -0.000  0.879 -0.000  0.000  0.000
      -0.000 -0.000  0.879  0.000  0.000
      -0.000  0.000  0.000  0.214 -0.000
       0.000  0.000  0.000 -0.000  0.879
     ------------------------ ATOM    3 ------------------------
     Tr[ns(  3)] (up, down, total) =   3.77005  0.93029  4.70034
     Atomic magnetic moment for atom   3 =   2.83977
     SPIN  1
     eigenvalues:
       0.486  0.486  0.932  0.932  0.932
     eigenvectors (columns):
       0.443  0.896 -0.000 -0.000 -0.000
      -0.000  0.000  0.329 -0.269  0.905
      -0.000  0.000  0.590 -0.690 -0.419
       0.896 -0.443  0.000  0.000  0.000
       0.000 -0.000 -0.737 -0.672  0.069
     occupation matrix ns (before diag.):
       0.486 -0.000 -0.000 -0.000  0.000
      -0.000  0.932 -0.000  0.000  0.000
      -0.000 -0.000  0.932  0.000  0.000
      -0.000  0.000  0.000  0.486 -0.000
       0.000  0.000  0.000 -0.000  0.932
     SPIN  2
     eigenvalues:
       0.063  0.063  0.063  0.371  0.371
     eigenvectors (columns):
       0.000  0.000 -0.000 -0.365 -0.931
       0.354 -0.375 -0.857 -0.000  0.000
       0.591 -0.620  0.516 -0.000  0.000
      -0.000 -0.000  0.000 -0.931  0.365
      -0.724 -0.689  0.002  0.000 -0.000
     occupation matrix ns (before diag.):
       0.371 -0.000 -0.000 -0.000  0.000
      -0.000  0.063 -0.000  0.000  0.000
      -0.000 -0.000  0.063  0.000  0.000
      -0.000  0.000  0.000  0.371 -0.000
       0.000  0.000  0.000 -0.000  0.063

     Number of occupied Hubbard levels =    8.2017

     Atomic wfc used for Hubbard projectors are orthogonalized

     Starting wfcs are   73 randomized atomic wfcs

     Band Structure Calculation
     Davidson diagonalization with overlap

     Computing kpt #:     1  of     4 on this pool
     total cpu time spent up to now is       75.7 secs

     Computing kpt #:     2  of     4 on this pool
     total cpu time spent up to now is      150.1 secs

     Computing kpt #:     3  of     4 on this pool
     total cpu time spent up to now is      232.5 secs

     Computing kpt #:     4  of     4 on this pool
     total cpu time spent up to now is      282.1 secs

     ethr =  1.67E-10,  avg # of iterations =100.7

     total cpu time spent up to now is      294.9 secs

     End of band structure calculation

 ------ SPIN UP ------------


          k = 0.0000 0.0000 0.0000 ( 39957 PWs)   bands (ev):

   -71.3685 -59.9958 -42.7403 -42.7403 -42.7403 -33.8619 -33.8619 -33.8619
   -29.1613 -16.2967 -16.1083 -16.1083 -16.1083 -16.0607 -16.0607 -12.6086
   -12.6086 -12.6086  -6.8624  -5.0095  -5.0095  -5.0095  -4.9505  -4.9505
    -4.5480  -3.2777  -3.2777  -3.2777  -2.8970  -2.8970  -2.3909  -2.3909
    -2.3909  -2.0512  -2.0512  -2.0512  -1.8469  -1.8469  -1.8469  -1.5592
    -1.5592  -1.5592  -0.6838  -0.6838  -0.6838   4.4863   4.4863   4.4863
     4.5184   4.5184   5.1866   5.8079   5.8079   5.8079

     occupation numbers 
     1.0000   1.0000   1.0000   1.0000   1.0000   1.0000   1.0000   1.0000
     1.0000   1.0000   1.0000   1.0000   1.0000   1.0000   1.0000   1.0000
     1.0000   1.0000   1.0000   1.0000   1.0000   1.0000   1.0000   1.0000
     1.0000   1.0000   1.0000   1.0000   1.0000   1.0000   1.0000   1.0000
     1.0000   1.0000   1.0000   1.0000   1.0000   1.0000   1.0000   1.0000
     1.0000   1.0000   1.0000   1.0000   1.0000   0.0000   0.0000   0.0000
     0.0000   0.0000   0.0000   0.0000   0.0000   0.0000

          k = 0.0884 0.0884-0.0884 ( 40023 PWs)   bands (ev):

   -71.3685 -59.9958 -42.7403 -42.7403 -42.7403 -33.8619 -33.8619 -33.8619
   -29.1613 -16.2911 -16.1146 -16.1066 -16.1066 -16.0625 -16.0625 -12.6084
   -12.6084 -12.6080  -6.8233  -5.2221  -5.0040  -5.0040  -4.9461  -4.9461
    -4.3440  -3.2740  -3.2542  -3.2542  -2.9094  -2.9094  -2.4394  -2.4201
    -2.4201  -2.1034  -2.1034  -2.0361  -1.8667  -1.8667  -1.8653  -1.5777
    -1.5192  -1.5192  -0.6505  -0.6425  -0.6425   4.4993   4.5106   4.5106
     4.5363   4.5363   5.2672   5.7802   5.8380   5.8380

     occupation numbers 
     1.0000   1.0000   1.0000   1.0000   1.0000   1.0000   1.0000   1.0000
     1.0000   1.0000   1.0000   1.0000   1.0000   1.0000   1.0000   1.0000
     1.0000   1.0000   1.0000   1.0000   1.0000   1.0000   1.0000   1.0000
     1.0000   1.0000   1.0000   1.0000   1.0000   1.0000   1.0000   1.0000
     1.0000   1.0000   1.0000   1.0000   1.0000   1.0000   1.0000   1.0000
     1.0000   1.0000   1.0000   1.0000   1.0000   0.0000   0.0000   0.0000
     0.0000   0.0000   0.0000   0.0000   0.0000   0.0000

          k = 0.1768 0.1768-0.1768 ( 40014 PWs)   bands (ev):

   -71.3685 -59.9958 -42.7403 -42.7403 -42.7403 -33.8619 -33.8619 -33.8619
   -29.1613 -16.2755 -16.1317 -16.1018 -16.1018 -16.0675 -16.0675 -12.6080
   -12.6080 -12.6066  -6.7096  -5.5589  -4.9909  -4.9909  -4.9350  -4.9350
    -4.0346  -3.2661  -3.1891  -3.1891  -2.9302  -2.9302  -2.5653  -2.5175
    -2.5175  -2.2245  -2.2245  -1.9937  -1.9071  -1.8707  -1.8707  -1.6283
    -1.4524  -1.4524  -0.5754  -0.5532  -0.5532   4.5343   4.5504   4.5504
     4.6111   4.6111   5.4772   5.7253   5.8740   5.8740

     occupation numbers 
     1.0000   1.0000   1.0000   1.0000   1.0000   1.0000   1.0000   1.0000
     1.0000   1.0000   1.0000   1.0000   1.0000   1.0000   1.0000   1.0000
     1.0000   1.0000   1.0000   1.0000   1.0000   1.0000   1.0000   1.0000
     1.0000   1.0000   1.0000   1.0000   1.0000   1.0000   1.0000   1.0000
     1.0000   1.0000   1.0000   1.0000   1.0000   1.0000   1.0000   1.0000
     1.0000   1.0000   1.0000   1.0000   1.0000   0.0000   0.0000   0.0000
     0.0000   0.0000   0.0000   0.0000   0.0000   0.0000

          k = 0.2652 0.2652-0.2652 ( 40026 PWs)   bands (ev):

   -71.3685 -59.9958 -42.7403 -42.7403 -42.7403 -33.8619 -33.8619 -33.8619
   -29.1613 -16.2550 -16.1539 -16.0949 -16.0949 -16.0746 -16.0746 -12.6077
   -12.6077 -12.6052  -6.5372  -5.8775  -4.9780  -4.9780  -4.9232  -4.9232
    -3.7717  -3.2635  -3.1088  -3.1088  -2.9211  -2.9211  -2.7123  -2.6601
    -2.6601  -2.3454  -2.3454  -1.9467  -1.9347  -1.8421  -1.8421  -1.6954
    -1.4087  -1.4087  -0.5061  -0.4744  -0.4744   4.5751   4.5865   4.5865
     4.7141   4.7141   5.5793   5.8096   5.8096   5.8495

     occupation numbers 
     1.0000   1.0000   1.0000   1.0000   1.0000   1.0000   1.0000   1.0000
     1.0000   1.0000   1.0000   1.0000   1.0000   1.0000   1.0000   1.0000
     1.0000   1.0000   1.0000   1.0000   1.0000   1.0000   1.0000   1.0000
     1.0000   1.0000   1.0000   1.0000   1.0000   1.0000   1.0000   1.0000
     1.0000   1.0000   1.0000   1.0000   1.0000   1.0000   1.0000   1.0000
     1.0000   1.0000   1.0000   1.0000   1.0000   0.0000   0.0000   0.0000
     0.0000   0.0000   0.0000   0.0000   0.0000   0.0000

          k =-0.3536-0.3536 0.3536 ( 40094 PWs)   bands (ev):

   -71.3685 -59.9958 -42.7403 -42.7403 -42.7403 -33.8619 -33.8619 -33.8619
   -29.1614 -16.2431 -16.1664 -16.0897 -16.0897 -16.0799 -16.0799 -12.6075
   -12.6075 -12.6046  -6.4032  -6.0617  -4.9728  -4.9728  -4.9181  -4.9181
    -3.6543  -3.2685  -3.0742  -3.0742  -2.8667  -2.8667  -2.7849  -2.7691
    -2.7691  -2.3958  -2.3958  -1.9629  -1.8971  -1.8252  -1.8252  -1.7364
    -1.3952  -1.3952  -0.4787  -0.4441  -0.4441   4.5941   4.6023   4.6023
     4.7665   4.7665   5.5594   5.7502   5.7502   6.0119

     occupation numbers 
     1.0000   1.0000   1.0000   1.0000   1.0000   1.0000   1.0000   1.0000
     1.0000   1.0000   1.0000   1.0000   1.0000   1.0000   1.0000   1.0000
     1.0000   1.0000   1.0000   1.0000   1.0000   1.0000   1.0000   1.0000
     1.0000   1.0000   1.0000   1.0000   1.0000   1.0000   1.0000   1.0000
     1.0000   1.0000   1.0000   1.0000   1.0000   1.0000   1.0000   1.0000
     1.0000   1.0000   1.0000   1.0000   1.0000   0.0000   0.0000   0.0000
     0.0000   0.0000   0.0000   0.0000   0.0000   0.0000

          k = 0.1768 0.0000 0.0000 ( 40009 PWs)   bands (ev):

   -71.3685 -59.9958 -42.7403 -42.7403 -42.7403 -33.8619 -33.8619 -33.8619
   -29.1613 -16.2893 -16.1115 -16.1086 -16.1086 -16.0656 -16.0606 -12.6083
   -12.6083 -12.6080  -6.8120  -5.2655  -4.9992  -4.9992  -4.9509  -4.9422
    -4.3038  -3.2831  -3.2411  -3.2411  -2.9325  -2.8963  -2.4745  -2.4228
    -2.4228  -2.1095  -2.1095  -2.0585  -1.9109  -1.9109  -1.7753  -1.5597
    -1.5198  -1.5198  -0.6838  -0.6093  -0.6093   4.4812   4.5245   4.5407
     4.5407   4.5426   5.2945   5.8058   5.8333   5.8333

     occupation numbers 
     1.0000   1.0000   1.0000   1.0000   1.0000   1.0000   1.0000   1.0000
     1.0000   1.0000   1.0000   1.0000   1.0000   1.0000   1.0000   1.0000
     1.0000   1.0000   1.0000   1.0000   1.0000   1.0000   1.0000   1.0000
     1.0000   1.0000   1.0000   1.0000   1.0000   1.0000   1.0000   1.0000
     1.0000   1.0000   1.0000   1.0000   1.0000   1.0000   1.0000   1.0000
     1.0000   1.0000   1.0000   1.0000   1.0000   0.0000   0.0000   0.0000
     0.0000   0.0000   0.0000   0.0000   0.0000   0.0000

          k = 0.2652 0.0884-0.0884 ( 40035 PWs)   bands (ev):

   -71.3685 -59.9958 -42.7403 -42.7403 -42.7403 -33.8619 -33.8619 -33.8619
   -29.1613 -16.2774 -16.1242 -16.1071 -16.1031 -16.0718 -16.0622 -12.6080
   -12.6079 -12.6070  -6.7285  -5.5107  -4.9883  -4.9864  -4.9464  -4.9293
    -4.0762  -3.2802  -3.1903  -3.1852  -2.9658  -2.9050  -2.6000  -2.4903
    -2.4854  -2.2119  -2.1925  -2.0308  -1.9727  -1.9436  -1.7122  -1.5968
    -1.4722  -1.4574  -0.6459  -0.5315  -0.5283   4.5006   4.5386   4.5636
     4.6198   4.6276   5.4643   5.7570   5.8682   5.8998

     occupation numbers 
     1.0000   1.0000   1.0000   1.0000   1.0000   1.0000   1.0000   1.0000
     1.0000   1.0000   1.0000   1.0000   1.0000   1.0000   1.0000   1.0000
     1.0000   1.0000   1.0000   1.0000   1.0000   1.0000   1.0000   1.0000
     1.0000   1.0000   1.0000   1.0000   1.0000   1.0000   1.0000   1.0000
     1.0000   1.0000   1.0000   1.0000   1.0000   1.0000   1.0000   1.0000
     1.0000   1.0000   1.0000   1.0000   1.0000   0.0000   0.0000   0.0000
     0.0000   0.0000   0.0000   0.0000   0.0000   0.0000

          k = 0.3536 0.1768-0.1768 ( 40059 PWs)   bands (ev):

   -71.3685 -59.9958 -42.7403 -42.7403 -42.7403 -33.8619 -33.8619 -33.8619
   -29.1613 -16.2586 -16.1449 -16.1024 -16.0952 -16.0796 -16.0671 -12.6075
   -12.6075 -12.6056  -6.5833  -5.7992  -4.9751  -4.9746  -4.9335  -4.9158
    -3.8242  -3.2705  -3.1245  -3.1065  -2.9791  -2.9075  -2.7534  -2.6242
    -2.5845  -2.3308  -2.3056  -2.0409  -1.9720  -1.9212  -1.6761  -1.6665
    -1.4175  -1.3995  -0.5629  -0.4629  -0.4533   4.5492   4.5681   4.5912
     4.7133   4.7456   5.6110   5.8095   5.8433   5.9089

     occupation numbers 
     1.0000   1.0000   1.0000   1.0000   1.0000   1.0000   1.0000   1.0000
     1.0000   1.0000   1.0000   1.0000   1.0000   1.0000   1.0000   1.0000
     1.0000   1.0000   1.0000   1.0000   1.0000   1.0000   1.0000   1.0000
     1.0000   1.0000   1.0000   1.0000   1.0000   1.0000   1.0000   1.0000
     1.0000   1.0000   1.0000   1.0000   1.0000   1.0000   1.0000   1.0000
     1.0000   1.0000   1.0000   1.0000   1.0000   0.0000   0.0000   0.0000
     0.0000   0.0000   0.0000   0.0000   0.0000   0.0000

          k =-0.2652-0.4419 0.4419 ( 40040 PWs)   bands (ev):

   -71.3685 -59.9958 -42.7403 -42.7403 -42.7403 -33.8619 -33.8619 -33.8619
   -29.1614 -16.2425 -16.1622 -16.0955 -16.0931 -16.0816 -16.0742 -12.6074
   -12.6072 -12.6048  -6.4243  -6.0306  -4.9707  -4.9648  -4.9196  -4.9122
    -3.6539  -3.2694  -3.0923  -3.0584  -2.9677  -2.8619  -2.8165  -2.7696
    -2.6781  -2.3978  -2.3917  -2.0832  -1.9148  -1.8684  -1.7317  -1.6831
    -1.3815  -1.3756  -0.4896  -0.4372  -0.4217   4.5813   4.5963   4.6208
     4.7671   4.8229   5.6108   5.7800   5.7885   6.0489

     occupation numbers 
     1.0000   1.0000   1.0000   1.0000   1.0000   1.0000   1.0000   1.0000
     1.0000   1.0000   1.0000   1.0000   1.0000   1.0000   1.0000   1.0000
     1.0000   1.0000   1.0000   1.0000   1.0000   1.0000   1.0000   1.0000
     1.0000   1.0000   1.0000   1.0000   1.0000   1.0000   1.0000   1.0000
     1.0000   1.0000   1.0000   1.0000   1.0000   1.0000   1.0000   1.0000
     1.0000   1.0000   1.0000   1.0000   1.0000   0.0000   0.0000   0.0000
     0.0000   0.0000   0.0000   0.0000   0.0000   0.0000

          k =-0.1768-0.3536 0.3536 ( 40010 PWs)   bands (ev):

   -71.3685 -59.9958 -42.7403 -42.7403 -42.7403 -33.8619 -33.8619 -33.8619
   -29.1614 -16.2463 -16.1585 -16.1002 -16.0897 -16.0799 -16.0741 -12.6075
   -12.6071 -12.6050  -6.4654  -5.9772  -4.9756  -4.9624  -4.9223  -4.9148
    -3.6910  -3.2635  -3.0972  -3.0741  -2.9509  -2.9191  -2.7891  -2.7198
    -2.6531  -2.3896  -2.3698  -2.0871  -1.9237  -1.8311  -1.7282  -1.7218
    -1.4014  -1.3638  -0.4784  -0.4497  -0.4465   4.5730   4.6019   4.6208
     4.7470   4.7842   5.6117   5.7893   5.8324   5.9916

     occupation numbers 
     1.0000   1.0000   1.0000   1.0000   1.0000   1.0000   1.0000   1.0000
     1.0000   1.0000   1.0000   1.0000   1.0000   1.0000   1.0000   1.0000
     1.0000   1.0000   1.0000   1.0000   1.0000   1.0000   1.0000   1.0000
     1.0000   1.0000   1.0000   1.0000   1.0000   1.0000   1.0000   1.0000
     1.0000   1.0000   1.0000   1.0000   1.0000   1.0000   1.0000   1.0000
     1.0000   1.0000   1.0000   1.0000   1.0000   0.0000   0.0000   0.0000
     0.0000   0.0000   0.0000   0.0000   0.0000   0.0000

          k =-0.0884-0.2652 0.2652 ( 40013 PWs)   bands (ev):

   -71.3685 -59.9958 -42.7403 -42.7403 -42.7403 -33.8619 -33.8619 -33.8619
   -29.1613 -16.2650 -16.1391 -16.1064 -16.0946 -16.0749 -16.0672 -12.6079
   -12.6074 -12.6061  -6.6323  -5.7149  -4.9868  -4.9706  -4.9388  -4.9214
    -3.8978  -3.2639  -3.1489  -3.1424  -2.9517  -2.9356  -2.6831  -2.5960
    -2.5307  -2.3039  -2.2621  -2.0516  -1.9814  -1.8283  -1.7822  -1.6547
    -1.4443  -1.3962  -0.5445  -0.5175  -0.4840   4.5452   4.5772   4.5777
     4.6709   4.6736   5.5886   5.7392   5.8846   5.9235

     occupation numbers 
     1.0000   1.0000   1.0000   1.0000   1.0000   1.0000   1.0000   1.0000
     1.0000   1.0000   1.0000   1.0000   1.0000   1.0000   1.0000   1.0000
     1.0000   1.0000   1.0000   1.0000   1.0000   1.0000   1.0000   1.0000
     1.0000   1.0000   1.0000   1.0000   1.0000   1.0000   1.0000   1.0000
     1.0000   1.0000   1.0000   1.0000   1.0000   1.0000   1.0000   1.0000
     1.0000   1.0000   1.0000   1.0000   1.0000   0.0000   0.0000   0.0000
     0.0000   0.0000   0.0000   0.0000   0.0000   0.0000

          k = 0.0000-0.1768 0.1768 ( 40006 PWs)   bands (ev):

   -71.3685 -59.9958 -42.7403 -42.7403 -42.7403 -33.8619 -33.8619 -33.8619
   -29.1613 -16.2822 -16.1218 -16.1088 -16.1016 -16.0676 -16.0631 -12.6083
   -12.6080 -12.6073  -6.7611  -5.4285  -4.9985  -4.9889  -4.9474  -4.9344
    -4.1521  -3.2720  -3.2210  -3.2094  -2.9366  -2.9154  -2.5307  -2.4826
    -2.4475  -2.1877  -2.1513  -2.0244  -1.9730  -1.8447  -1.8241  -1.5981
    -1.4934  -1.4623  -0.6184  -0.6006  -0.5604   4.5117   4.5371   4.5423
     4.5796   4.5797   5.3934   5.7502   5.8559   5.8942

     occupation numbers 
     1.0000   1.0000   1.0000   1.0000   1.0000   1.0000   1.0000   1.0000
     1.0000   1.0000   1.0000   1.0000   1.0000   1.0000   1.0000   1.0000
     1.0000   1.0000   1.0000   1.0000   1.0000   1.0000   1.0000   1.0000
     1.0000   1.0000   1.0000   1.0000   1.0000   1.0000   1.0000   1.0000
     1.0000   1.0000   1.0000   1.0000   1.0000   1.0000   1.0000   1.0000
     1.0000   1.0000   1.0000   1.0000   1.0000   0.0000   0.0000   0.0000
     0.0000   0.0000   0.0000   0.0000   0.0000   0.0000

          k = 0.3536 0.0000 0.0000 ( 40046 PWs)   bands (ev):

   -71.3685 -59.9958 -42.7403 -42.7403 -42.7403 -33.8619 -33.8619 -33.8619
   -29.1613 -16.2701 -16.1188 -16.1092 -16.1092 -16.0793 -16.0603 -12.6075
   -12.6075 -12.6066  -6.6869  -5.5977  -4.9734  -4.9734  -4.9517  -4.9173
    -3.9926  -3.2987  -3.1388  -3.1388  -3.0157  -2.8947  -2.7239  -2.5223
    -2.5223  -2.2423  -2.2423  -2.0762  -2.0017  -2.0017  -1.5608  -1.5582
    -1.4604  -1.4604  -0.6836  -0.4624  -0.4624   4.4825   4.5388   4.5660
     4.7263   4.7263   5.5756   5.8148   5.8983   5.8983

     occupation numbers 
     1.0000   1.0000   1.0000   1.0000   1.0000   1.0000   1.0000   1.0000
     1.0000   1.0000   1.0000   1.0000   1.0000   1.0000   1.0000   1.0000
     1.0000   1.0000   1.0000   1.0000   1.0000   1.0000   1.0000   1.0000
     1.0000   1.0000   1.0000   1.0000   1.0000   1.0000   1.0000   1.0000
     1.0000   1.0000   1.0000   1.0000   1.0000   1.0000   1.0000   1.0000
     1.0000   1.0000   1.0000   1.0000   1.0000   0.0000   0.0000   0.0000
     0.0000   0.0000   0.0000   0.0000   0.0000   0.0000

          k = 0.4419 0.0884-0.0884 ( 40048 PWs)   bands (ev):

   -71.3685 -59.9958 -42.7403 -42.7403 -42.7403 -33.8619 -33.8619 -33.8619
   -29.1614 -16.2558 -16.1329 -16.1078 -16.1020 -16.0881 -16.0619 -12.6072
   -12.6071 -12.6057  -6.5913  -5.7737  -4.9642  -4.9599  -4.9428  -4.9000
    -3.8277  -3.3001  -3.0906  -3.0653  -3.0394  -2.8952  -2.8696  -2.6179
    -2.5937  -2.3379  -2.3154  -2.0677  -2.0459  -2.0079  -1.6080  -1.4945
    -1.4078  -1.3947  -0.6455  -0.4021  -0.3991   4.5066   4.5544   4.5686
     4.8519   4.8713   5.6739   5.8849   5.9141   5.9898

     occupation numbers 
     1.0000   1.0000   1.0000   1.0000   1.0000   1.0000   1.0000   1.0000
     1.0000   1.0000   1.0000   1.0000   1.0000   1.0000   1.0000   1.0000
     1.0000   1.0000   1.0000   1.0000   1.0000   1.0000   1.0000   1.0000
     1.0000   1.0000   1.0000   1.0000   1.0000   1.0000   1.0000   1.0000
     1.0000   1.0000   1.0000   1.0000   1.0000   1.0000   1.0000   1.0000
     1.0000   1.0000   1.0000   1.0000   1.0000   0.0000   0.0000   0.0000
     0.0000   0.0000   0.0000   0.0000   0.0000   0.0000

          k =-0.1768-0.5303 0.5303 ( 40037 PWs)   bands (ev):

   -71.3685 -59.9958 -42.7403 -42.7403 -42.7403 -33.8619 -33.8619 -33.8619
   -29.1614 -16.2407 -16.1508 -16.1030 -16.1006 -16.0879 -16.0668 -12.6070
   -12.6065 -12.6051  -6.4655  -5.9646  -4.9650  -4.9490  -4.9240  -4.8935
    -3.6585  -3.2931  -3.1197  -3.0590  -3.0115  -2.8826  -2.8674  -2.7495
    -2.6490  -2.4175  -2.3744  -2.1650  -1.9835  -1.9504  -1.6928  -1.5246
    -1.3669  -1.3156  -0.5617  -0.3824  -0.3711   4.5496   4.5805   4.5869
     4.8912   4.9800   5.7043   5.8621   5.9087   6.1444

     occupation numbers 
     1.0000   1.0000   1.0000   1.0000   1.0000   1.0000   1.0000   1.0000
     1.0000   1.0000   1.0000   1.0000   1.0000   1.0000   1.0000   1.0000
     1.0000   1.0000   1.0000   1.0000   1.0000   1.0000   1.0000   1.0000
     1.0000   1.0000   1.0000   1.0000   1.0000   1.0000   1.0000   1.0000
     1.0000   1.0000   1.0000   1.0000   1.0000   1.0000   1.0000   1.0000
     1.0000   1.0000   1.0000   1.0000   1.0000   0.0000   0.0000   0.0000
     0.0000   0.0000   0.0000   0.0000   0.0000   0.0000

          k =-0.0884-0.4419 0.4419 ( 40068 PWs)   bands (ev):

   -71.3685 -59.9958 -42.7403 -42.7403 -42.7403 -33.8619 -33.8619 -33.8619
   -29.1614 -16.2369 -16.1575 -16.1072 -16.0958 -16.0785 -16.0739 -12.6071
   -12.6062 -12.6052  -6.4081  -6.0429  -4.9698  -4.9428  -4.9119  -4.9069
    -3.6115  -3.2710  -3.1417  -3.0640  -3.0120  -2.9003  -2.8204  -2.7707
    -2.6425  -2.4162  -2.4036  -2.2162  -1.9369  -1.8755  -1.7492  -1.5945
    -1.3703  -1.2922  -0.4859  -0.4121  -0.3904   4.5542   4.6018   4.6469
     4.8092   4.9425   5.7358   5.8596   5.9073   6.1840

     occupation numbers 
     1.0000   1.0000   1.0000   1.0000   1.0000   1.0000   1.0000   1.0000
     1.0000   1.0000   1.0000   1.0000   1.0000   1.0000   1.0000   1.0000
     1.0000   1.0000   1.0000   1.0000   1.0000   1.0000   1.0000   1.0000
     1.0000   1.0000   1.0000   1.0000   1.0000   1.0000   1.0000   1.0000
     1.0000   1.0000   1.0000   1.0000   1.0000   1.0000   1.0000   1.0000
     1.0000   1.0000   1.0000   1.0000   1.0000   0.0000   0.0000   0.0000
     0.0000   0.0000   0.0000   0.0000   0.0000   0.0000

          k = 0.0000-0.3536 0.3536 ( 40038 PWs)   bands (ev):

   -71.3685 -59.9958 -42.7403 -42.7403 -42.7403 -33.8619 -33.8619 -33.8619
   -29.1614 -16.2492 -16.1491 -16.1098 -16.0897 -16.0799 -16.0711 -12.6075
   -12.6066 -12.6056  -6.5113  -5.9084  -4.9781  -4.9420  -4.9357  -4.9117
    -3.7312  -3.2561  -3.1207  -3.0739  -2.9915  -2.9519  -2.7941  -2.6915
    -2.5714  -2.3818  -2.3388  -2.1724  -1.9539  -1.8340  -1.7102  -1.6845
    -1.4077  -1.3279  -0.4778  -0.4555  -0.4488   4.5507   4.6014   4.6469
     4.7209   4.8015   5.6478   5.8744   5.9826   6.0148

     occupation numbers 
     1.0000   1.0000   1.0000   1.0000   1.0000   1.0000   1.0000   1.0000
     1.0000   1.0000   1.0000   1.0000   1.0000   1.0000   1.0000   1.0000
     1.0000   1.0000   1.0000   1.0000   1.0000   1.0000   1.0000   1.0000
     1.0000   1.0000   1.0000   1.0000   1.0000   1.0000   1.0000   1.0000
     1.0000   1.0000   1.0000   1.0000   1.0000   1.0000   1.0000   1.0000
     1.0000   1.0000   1.0000   1.0000   1.0000   0.0000   0.0000   0.0000
     0.0000   0.0000   0.0000   0.0000   0.0000   0.0000

          k = 0.5303 0.0000 0.0000 ( 40022 PWs)   bands (ev):

   -71.3685 -59.9958 -42.7403 -42.7403 -42.7403 -33.8619 -33.8619 -33.8619
   -29.1614 -16.2479 -16.1238 -16.1098 -16.1098 -16.0982 -16.0600 -12.6068
   -12.6068 -12.6052  -6.5605  -5.8135  -4.9525  -4.9461  -4.9461  -4.8786
    -3.7733  -3.3247  -3.1035  -3.0075  -2.9956  -2.9956  -2.8931  -2.6569
    -2.6569  -2.3757  -2.3757  -2.0938  -2.0557  -2.0557  -1.5619  -1.4191
    -1.4191  -1.3125  -0.6833  -0.3470  -0.3470   4.4903   4.5449   4.5525
     5.0515   5.0515   5.7161   5.9726   5.9726   6.0756

     occupation numbers 
     1.0000   1.0000   1.0000   1.0000   1.0000   1.0000   1.0000   1.0000
     1.0000   1.0000   1.0000   1.0000   1.0000   1.0000   1.0000   1.0000
     1.0000   1.0000   1.0000   1.0000   1.0000   1.0000   1.0000   1.0000
     1.0000   1.0000   1.0000   1.0000   1.0000   1.0000   1.0000   1.0000
     1.0000   1.0000   1.0000   1.0000   1.0000   1.0000   1.0000   1.0000
     1.0000   1.0000   1.0000   1.0000   1.0000   0.0000   0.0000   0.0000
     0.0000   0.0000   0.0000   0.0000   0.0000   0.0000

          k =-0.0884-0.6187 0.6187 ( 40061 PWs)   bands (ev):

   -71.3685 -59.9958 -42.7403 -42.7403 -42.7403 -33.8619 -33.8619 -33.8619
   -29.1614 -16.2385 -16.1351 -16.1082 -16.1077 -16.0992 -16.0616 -12.6066
   -12.6064 -12.6049  -6.4988  -5.9051  -4.9574  -4.9379  -4.9303  -4.8680
    -3.6748  -3.3316  -3.1411  -3.1055  -2.9422  -2.9056  -2.8812  -2.7335
    -2.7059  -2.4407  -2.4123  -2.1132  -2.0613  -2.0369  -1.6134  -1.4331
    -1.3816  -1.2394  -0.6452  -0.3279  -0.3245   4.5151   4.5353   4.5645
     5.1280   5.1869   5.7718   5.9535   6.0044   6.1964

     occupation numbers 
     1.0000   1.0000   1.0000   1.0000   1.0000   1.0000   1.0000   1.0000
     1.0000   1.0000   1.0000   1.0000   1.0000   1.0000   1.0000   1.0000
     1.0000   1.0000   1.0000   1.0000   1.0000   1.0000   1.0000   1.0000
     1.0000   1.0000   1.0000   1.0000   1.0000   1.0000   1.0000   1.0000
     1.0000   1.0000   1.0000   1.0000   1.0000   1.0000   1.0000   1.0000
     1.0000   1.0000   1.0000   1.0000   1.0000   0.0000   0.0000   0.0000
     0.0000   0.0000   0.0000   0.0000   0.0000   0.0000

          k = 0.0000-0.5303 0.5303 ( 40054 PWs)   bands (ev):

   -71.3685 -59.9958 -42.7403 -42.7403 -42.7403 -33.8619 -33.8619 -33.8619
   -29.1614 -16.2333 -16.1494 -16.1105 -16.1032 -16.0875 -16.0666 -12.6068
   -12.6058 -12.6052  -6.4289  -6.0065  -4.9634  -4.9361  -4.9172  -4.8803
    -3.5916  -3.3172  -3.1690  -3.1203  -2.9514  -2.8814  -2.8448  -2.7773
    -2.6915  -2.4627  -2.4007  -2.2138  -1.9974  -1.9549  -1.7021  -1.4942
    -1.3561  -1.2365  -0.5612  -0.3540  -0.3414   4.5356   4.5829   4.5852
     4.9827   5.1275   5.8694   5.9624   5.9767   6.1725

     occupation numbers 
     1.0000   1.0000   1.0000   1.0000   1.0000   1.0000   1.0000   1.0000
     1.0000   1.0000   1.0000   1.0000   1.0000   1.0000   1.0000   1.0000
     1.0000   1.0000   1.0000   1.0000   1.0000   1.0000   1.0000   1.0000
     1.0000   1.0000   1.0000   1.0000   1.0000   1.0000   1.0000   1.0000
     1.0000   1.0000   1.0000   1.0000   1.0000   1.0000   1.0000   1.0000
     1.0000   1.0000   1.0000   1.0000   1.0000   0.0000   0.0000   0.0000
     0.0000   0.0000   0.0000   0.0000   0.0000   0.0000

          k =-0.7071 0.0000 0.0000 ( 40170 PWs)   bands (ev):

   -71.3685 -59.9958 -42.7403 -42.7403 -42.7403 -33.8619 -33.8619 -33.8619
   -29.1614 -16.2375 -16.1225 -16.1107 -16.1101 -16.1101 -16.0598 -12.6065
   -12.6065 -12.6046  -6.5110  -5.8815  -4.9529  -4.9343  -4.9343  -4.8558
    -3.6861  -3.3468  -3.1510  -3.1241  -2.8924  -2.8905  -2.8905  -2.7477
    -2.7477  -2.4402  -2.4402  -2.1011  -2.0721  -2.0721  -1.5624  -1.4047
    -1.4047  -1.2050  -0.6831  -0.3062  -0.3062   4.4987   4.5173   4.5580
     5.3043   5.3043   5.7240   5.9644   5.9644   6.2374

     occupation numbers 
     1.0000   1.0000   1.0000   1.0000   1.0000   1.0000   1.0000   1.0000
     1.0000   1.0000   1.0000   1.0000   1.0000   1.0000   1.0000   1.0000
     1.0000   1.0000   1.0000   1.0000   1.0000   1.0000   1.0000   1.0000
     1.0000   1.0000   1.0000   1.0000   1.0000   1.0000   1.0000   1.0000
     1.0000   1.0000   1.0000   1.0000   1.0000   1.0000   1.0000   1.0000
     1.0000   1.0000   1.0000   1.0000   1.0000   0.0000   0.0000   0.0000
     0.0000   0.0000   0.0000   0.0000   0.0000   0.0000

          k = 0.3536 0.1768 0.0000 ( 40042 PWs)   bands (ev):

   -71.3685 -59.9958 -42.7403 -42.7403 -42.7403 -33.8619 -33.8619 -33.8619
   -29.1613 -16.2640 -16.1336 -16.1094 -16.0972 -16.0795 -16.0637 -12.6077
   -12.6072 -12.6062  -6.6350  -5.7047  -4.9809  -4.9630  -4.9453  -4.9153
    -3.9005  -3.2796  -3.1308  -3.1264  -2.9986  -2.9112  -2.7423  -2.5854
    -2.5317  -2.3014  -2.2629  -2.0695  -2.0106  -1.9396  -1.6324  -1.6251
    -1.4405  -1.3985  -0.6107  -0.4618  -0.4589   4.5234   4.5525   4.5825
     4.7135   4.7385   5.6173   5.7662   5.9174   5.9563

     occupation numbers 
     1.0000   1.0000   1.0000   1.0000   1.0000   1.0000   1.0000   1.0000
     1.0000   1.0000   1.0000   1.0000   1.0000   1.0000   1.0000   1.0000
     1.0000   1.0000   1.0000   1.0000   1.0000   1.0000   1.0000   1.0000
     1.0000   1.0000   1.0000   1.0000   1.0000   1.0000   1.0000   1.0000
     1.0000   1.0000   1.0000   1.0000   1.0000   1.0000   1.0000   1.0000
     1.0000   1.0000   1.0000   1.0000   1.0000   0.0000   0.0000   0.0000
     0.0000   0.0000   0.0000   0.0000   0.0000   0.0000

          k =-0.2652-0.4419 0.6187 ( 40028 PWs)   bands (ev):

   -71.3685 -59.9958 -42.7403 -42.7403 -42.7403 -33.8619 -33.8619 -33.8619
   -29.1614 -16.2468 -16.1499 -16.1069 -16.0932 -16.0836 -16.0686 -12.6073
   -12.6067 -12.6053  -6.4988  -5.9238  -4.9730  -4.9496  -4.9292  -4.9057
    -3.7110  -3.2722  -3.1113  -3.0518  -3.0177  -2.9192  -2.8317  -2.7019
    -2.6095  -2.3868  -2.3513  -2.1509  -1.9619  -1.9111  -1.7001  -1.6022
    -1.3825  -1.3444  -0.5324  -0.4317  -0.3996   4.5534   4.5874   4.6138
     4.7662   4.8821   5.6590   5.8663   5.9284   6.0345

     occupation numbers 
     1.0000   1.0000   1.0000   1.0000   1.0000   1.0000   1.0000   1.0000
     1.0000   1.0000   1.0000   1.0000   1.0000   1.0000   1.0000   1.0000
     1.0000   1.0000   1.0000   1.0000   1.0000   1.0000   1.0000   1.0000
     1.0000   1.0000   1.0000   1.0000   1.0000   1.0000   1.0000   1.0000
     1.0000   1.0000   1.0000   1.0000   1.0000   1.0000   1.0000   1.0000
     1.0000   1.0000   1.0000   1.0000   1.0000   0.0000   0.0000   0.0000
     0.0000   0.0000   0.0000   0.0000   0.0000   0.0000

          k =-0.1768-0.3536 0.5303 ( 40076 PWs)   bands (ev):

   -71.3685 -59.9958 -42.7403 -42.7403 -42.7403 -33.8619 -33.8619 -33.8619
   -29.1614 -16.2374 -16.1594 -16.1012 -16.0994 -16.0776 -16.0748 -12.6071
   -12.6065 -12.6050  -6.4044  -6.0490  -4.9694  -4.9479  -4.9125  -4.9079
    -3.6134  -3.2754  -3.1262  -3.0529  -3.0179  -2.8614  -2.8336  -2.7916
    -2.6554  -2.4116  -2.4054  -2.1846  -1.9310  -1.8838  -1.7487  -1.6016
    -1.3493  -1.3295  -0.4674  -0.4539  -0.3753   4.5618   4.5992   4.6574
     4.7609   4.9581   5.7124   5.8178   5.8432   6.1682

     occupation numbers 
     1.0000   1.0000   1.0000   1.0000   1.0000   1.0000   1.0000   1.0000
     1.0000   1.0000   1.0000   1.0000   1.0000   1.0000   1.0000   1.0000
     1.0000   1.0000   1.0000   1.0000   1.0000   1.0000   1.0000   1.0000
     1.0000   1.0000   1.0000   1.0000   1.0000   1.0000   1.0000   1.0000
     1.0000   1.0000   1.0000   1.0000   1.0000   1.0000   1.0000   1.0000
     1.0000   1.0000   1.0000   1.0000   1.0000   0.0000   0.0000   0.0000
     0.0000   0.0000   0.0000   0.0000   0.0000   0.0000

          k =-0.1768-0.5303 0.7071 ( 40038 PWs)   bands (ev):

   -71.3685 -59.9958 -42.7403 -42.7403 -42.7403 -33.8619 -33.8619 -33.8619
   -29.1614 -16.2436 -16.1400 -16.1099 -16.1008 -16.0918 -16.0635 -12.6069
   -12.6065 -12.6052  -6.5111  -5.8950  -4.9641  -4.9388  -4.9354  -4.8861
    -3.7065  -3.3061  -3.1148  -3.0646  -2.9897  -2.9392  -2.8763  -2.6964
    -2.6547  -2.3990  -2.3802  -2.1286  -2.0211  -2.0077  -1.6463  -1.4887
    -1.3569  -1.3127  -0.6101  -0.3769  -0.3470   4.5290   4.5575   4.5742
     4.9263   5.0568   5.7163   5.9586   5.9859   6.1407

     occupation numbers 
     1.0000   1.0000   1.0000   1.0000   1.0000   1.0000   1.0000   1.0000
     1.0000   1.0000   1.0000   1.0000   1.0000   1.0000   1.0000   1.0000
     1.0000   1.0000   1.0000   1.0000   1.0000   1.0000   1.0000   1.0000
     1.0000   1.0000   1.0000   1.0000   1.0000   1.0000   1.0000   1.0000
     1.0000   1.0000   1.0000   1.0000   1.0000   1.0000   1.0000   1.0000
     1.0000   1.0000   1.0000   1.0000   1.0000   0.0000   0.0000   0.0000
     0.0000   0.0000   0.0000   0.0000   0.0000   0.0000

          k =-0.0884-0.4419 0.6187 ( 40051 PWs)   bands (ev):

   -71.3685 -59.9958 -42.7403 -42.7403 -42.7403 -33.8619 -33.8619 -33.8619
   -29.1614 -16.2340 -16.1504 -16.1078 -16.1068 -16.0829 -16.0686 -12.6067
   -12.6060 -12.6052  -6.4254  -6.0129  -4.9657  -4.9349  -4.9144  -4.8877
    -3.5952  -3.3075  -3.1640  -3.1161  -2.9577  -2.8844  -2.8505  -2.7710
    -2.6873  -2.4368  -2.4043  -2.2153  -1.9931  -1.9351  -1.7227  -1.5262
    -1.3201  -1.2656  -0.5315  -0.4019  -0.3259   4.5370   4.5895   4.6162
     4.8603   5.1721   5.8355   5.9293   5.9580   6.2383

     occupation numbers 
     1.0000   1.0000   1.0000   1.0000   1.0000   1.0000   1.0000   1.0000
     1.0000   1.0000   1.0000   1.0000   1.0000   1.0000   1.0000   1.0000
     1.0000   1.0000   1.0000   1.0000   1.0000   1.0000   1.0000   1.0000
     1.0000   1.0000   1.0000   1.0000   1.0000   1.0000   1.0000   1.0000
     1.0000   1.0000   1.0000   1.0000   1.0000   1.0000   1.0000   1.0000
     1.0000   1.0000   1.0000   1.0000   1.0000   0.0000   0.0000   0.0000
     0.0000   0.0000   0.0000   0.0000   0.0000   0.0000

          k =-0.0000-0.3536 0.5303 ( 40063 PWs)   bands (ev):

   -71.3685 -59.9958 -42.7403 -42.7403 -42.7403 -33.8619 -33.8619 -33.8619
   -29.1614 -16.2355 -16.1535 -16.1102 -16.1003 -16.0773 -16.0732 -12.6069
   -12.6059 -12.6054  -6.4169  -6.0280  -4.9689  -4.9358  -4.9095  -4.9025
    -3.6042  -3.2816  -3.1590  -3.0962  -2.9776  -2.9153  -2.8314  -2.7611
    -2.6562  -2.4118  -2.4044  -2.2362  -1.9615  -1.8938  -1.7513  -1.5669
    -1.3322  -1.2830  -0.4651  -0.4593  -0.3467   4.5430   4.5982   4.6728
     4.7616   5.0711   5.7740   5.9560   5.9810   6.1855

     occupation numbers 
     1.0000   1.0000   1.0000   1.0000   1.0000   1.0000   1.0000   1.0000
     1.0000   1.0000   1.0000   1.0000   1.0000   1.0000   1.0000   1.0000
     1.0000   1.0000   1.0000   1.0000   1.0000   1.0000   1.0000   1.0000
     1.0000   1.0000   1.0000   1.0000   1.0000   1.0000   1.0000   1.0000
     1.0000   1.0000   1.0000   1.0000   1.0000   1.0000   1.0000   1.0000
     1.0000   1.0000   1.0000   1.0000   1.0000   0.0000   0.0000   0.0000
     0.0000   0.0000   0.0000   0.0000   0.0000   0.0000

          k =-0.7071 0.1768 0.0000 ( 40038 PWs)   bands (ev):

   -71.3685 -59.9958 -42.7403 -42.7403 -42.7403 -33.8619 -33.8619 -33.8619
   -29.1614 -16.2344 -16.1396 -16.1107 -16.1101 -16.0925 -16.0634 -12.6065
   -12.6062 -12.6049  -6.4658  -5.9518  -4.9607  -4.9316  -4.9238  -4.8681
    -3.6251  -3.3343  -3.1672  -3.1312  -2.9161  -2.8863  -2.8660  -2.7458
    -2.7397  -2.4450  -2.4396  -2.1464  -2.0434  -2.0147  -1.6517  -1.4666
    -1.3425  -1.2207  -0.6099  -0.3478  -0.3062   4.5246   4.5478   4.5741
     5.0430   5.3045   5.8929   5.9574   5.9713   6.2098

     occupation numbers 
     1.0000   1.0000   1.0000   1.0000   1.0000   1.0000   1.0000   1.0000
     1.0000   1.0000   1.0000   1.0000   1.0000   1.0000   1.0000   1.0000
     1.0000   1.0000   1.0000   1.0000   1.0000   1.0000   1.0000   1.0000
     1.0000   1.0000   1.0000   1.0000   1.0000   1.0000   1.0000   1.0000
     1.0000   1.0000   1.0000   1.0000   1.0000   1.0000   1.0000   1.0000
     1.0000   1.0000   1.0000   1.0000   1.0000   0.0000   0.0000   0.0000
     0.0000   0.0000   0.0000   0.0000   0.0000   0.0000

          k =-0.7071 0.3536 0.0000 ( 39932 PWs)   bands (ev):

   -71.3685 -59.9958 -42.7403 -42.7403 -42.7403 -33.8619 -33.8619 -33.8619
   -29.1614 -16.2310 -16.1498 -16.1107 -16.1101 -16.0766 -16.0725 -12.6065
   -12.6056 -12.6055  -6.4057  -6.0362  -4.9664  -4.9302  -4.9006  -4.8928
    -3.5615  -3.3203  -3.1877  -3.1398  -2.9251  -2.8810  -2.8565  -2.7526
    -2.7310  -2.4389  -2.4067  -2.2438  -2.0050  -1.9037  -1.7575  -1.5387
    -1.2701  -1.2656  -0.4660  -0.4618  -0.3062   4.5284   4.5940   4.6774
     4.7774   5.3047   5.9500   5.9542   6.0383   6.1263

     occupation numbers 
     1.0000   1.0000   1.0000   1.0000   1.0000   1.0000   1.0000   1.0000
     1.0000   1.0000   1.0000   1.0000   1.0000   1.0000   1.0000   1.0000
     1.0000   1.0000   1.0000   1.0000   1.0000   1.0000   1.0000   1.0000
     1.0000   1.0000   1.0000   1.0000   1.0000   1.0000   1.0000   1.0000
     1.0000   1.0000   1.0000   1.0000   1.0000   1.0000   1.0000   1.0000
     1.0000   1.0000   1.0000   1.0000   1.0000   0.0000   0.0000   0.0000
     0.0000   0.0000   0.0000   0.0000   0.0000   0.0000

 ------ SPIN DOWN ----------


          k = 0.0000 0.0000 0.0000 ( 39957 PWs)   bands (ev):

   -68.5641 -62.4404 -39.8994 -39.8994 -39.8994 -36.3137 -36.3137 -36.3137
   -29.1619 -16.2580 -16.0665 -16.0665 -16.0665 -16.0154 -16.0154 -12.6089
   -12.6089 -12.6089  -6.8829  -5.0507  -5.0507  -5.0507  -4.9448  -4.9448
    -4.5341  -3.1610  -3.1610  -3.1610  -2.5853  -2.5853  -2.3715  -2.3715
    -2.3715  -2.0245  -2.0245  -2.0245  -1.8589  -1.8589  -1.8589  -1.5223
    -1.5223  -1.5223   1.0603   1.0603   1.0603   3.5306   3.5306   3.5306
     5.2118   5.3991   5.3991   5.6895   5.6895   5.6895

     occupation numbers 
     1.0000   1.0000   1.0000   1.0000   1.0000   1.0000   1.0000   1.0000
     1.0000   1.0000   1.0000   1.0000   1.0000   1.0000   1.0000   1.0000
     1.0000   1.0000   1.0000   1.0000   1.0000   1.0000   1.0000   1.0000
     1.0000   1.0000   1.0000   1.0000   1.0000   1.0000   1.0000   1.0000
     1.0000   1.0000   1.0000   1.0000   1.0000   1.0000   1.0000   1.0000
     1.0000   1.0000   1.0000   1.0000   1.0000   0.0000   0.0000   0.0000
     0.0000   0.0000   0.0000   0.0000   0.0000   0.0000

          k = 0.0884 0.0884-0.0884 ( 40023 PWs)   bands (ev):

   -68.5641 -62.4404 -39.8994 -39.8994 -39.8994 -36.3137 -36.3137 -36.3137
   -29.1619 -16.2522 -16.0730 -16.0646 -16.0646 -16.0173 -16.0173 -12.6087
   -12.6087 -12.6083  -6.8416  -5.2594  -5.0504  -5.0504  -4.9343  -4.9343
    -4.3348  -3.1670  -3.1389  -3.1389  -2.6289  -2.6289  -2.3891  -2.3668
    -2.3668  -2.0688  -2.0688  -2.0090  -1.8929  -1.8679  -1.8679  -1.5414
    -1.4920  -1.4920   1.1186   1.1225   1.1225   3.4690   3.4841   3.4841
     5.2892   5.4089   5.4089   5.7394   5.7716   5.7716

     occupation numbers 
     1.0000   1.0000   1.0000   1.0000   1.0000   1.0000   1.0000   1.0000
     1.0000   1.0000   1.0000   1.0000   1.0000   1.0000   1.0000   1.0000
     1.0000   1.0000   1.0000   1.0000   1.0000   1.0000   1.0000   1.0000
     1.0000   1.0000   1.0000   1.0000   1.0000   1.0000   1.0000   1.0000
     1.0000   1.0000   1.0000   1.0000   1.0000   1.0000   1.0000   1.0000
     1.0000   1.0000   1.0000   1.0000   1.0000   0.0000   0.0000   0.0000
     0.0000   0.0000   0.0000   0.0000   0.0000   0.0000

          k = 0.1768 0.1768-0.1768 ( 40014 PWs)   bands (ev):

   -68.5641 -62.4404 -39.8994 -39.8994 -39.8994 -36.3137 -36.3137 -36.3137
   -29.1619 -16.2360 -16.0908 -16.0594 -16.0594 -16.0228 -16.0228 -12.6084
   -12.6084 -12.6069  -6.7204  -5.6038  -5.0487  -5.0487  -4.9092  -4.9092
    -4.0200  -3.1940  -3.0790  -3.0790  -2.7010  -2.7010  -2.4299  -2.4027
    -2.4027  -2.1917  -2.1917  -1.9767  -1.9653  -1.8378  -1.8378  -1.5938
    -1.4444  -1.4444   1.2671   1.2772   1.2772   3.3142   3.3643   3.3643
     5.4760   5.4760   5.4957   5.8725   5.9578   5.9578

     occupation numbers 
     1.0000   1.0000   1.0000   1.0000   1.0000   1.0000   1.0000   1.0000
     1.0000   1.0000   1.0000   1.0000   1.0000   1.0000   1.0000   1.0000
     1.0000   1.0000   1.0000   1.0000   1.0000   1.0000   1.0000   1.0000
     1.0000   1.0000   1.0000   1.0000   1.0000   1.0000   1.0000   1.0000
     1.0000   1.0000   1.0000   1.0000   1.0000   1.0000   1.0000   1.0000
     1.0000   1.0000   1.0000   1.0000   1.0000   0.0000   0.0000   0.0000
     0.0000   0.0000   0.0000   0.0000   0.0000   0.0000

          k = 0.2652 0.2652-0.2652 ( 40026 PWs)   bands (ev):

   -68.5641 -62.4404 -39.8994 -39.8994 -39.8994 -36.3137 -36.3137 -36.3137
   -29.1618 -16.2145 -16.1140 -16.0517 -16.0517 -16.0307 -16.0307 -12.6080
   -12.6080 -12.6056  -6.5265  -5.9453  -5.0461  -5.0461  -4.8842  -4.8842
    -3.7368  -3.2627  -3.0087  -3.0087  -2.7391  -2.7391  -2.4685  -2.4685
    -2.4653  -2.3370  -2.3370  -2.0655  -1.9042  -1.7728  -1.7728  -1.6636
    -1.4210  -1.4210   1.4325   1.4429   1.4429   3.1444   3.2299   3.2299
     5.6186   5.6186   5.7315   5.9951   5.9951   6.0595

     occupation numbers 
     1.0000   1.0000   1.0000   1.0000   1.0000   1.0000   1.0000   1.0000
     1.0000   1.0000   1.0000   1.0000   1.0000   1.0000   1.0000   1.0000
     1.0000   1.0000   1.0000   1.0000   1.0000   1.0000   1.0000   1.0000
     1.0000   1.0000   1.0000   1.0000   1.0000   1.0000   1.0000   1.0000
     1.0000   1.0000   1.0000   1.0000   1.0000   1.0000   1.0000   1.0000
     1.0000   1.0000   1.0000   1.0000   1.0000   0.0000   0.0000   0.0000
     0.0000   0.0000   0.0000   0.0000   0.0000   0.0000

          k =-0.3536-0.3536 0.3536 ( 40094 PWs)   bands (ev):

   -68.5641 -62.4404 -39.8994 -39.8994 -39.8994 -36.3137 -36.3137 -36.3137
   -29.1618 -16.2019 -16.1273 -16.0453 -16.0453 -16.0371 -16.0371 -12.6078
   -12.6078 -12.6050  -6.3143  -6.2082  -5.0449  -5.0449  -4.8738  -4.8738
    -3.5843  -3.3366  -2.9781  -2.9781  -2.7348  -2.7348  -2.5074  -2.5074
    -2.4770  -2.4059  -2.4059  -2.1047  -1.8645  -1.7399  -1.7399  -1.7068
    -1.4177  -1.4177   1.5088   1.5168   1.5168   3.0668   3.1682   3.1682
     5.7850   5.7850   5.8319   5.8343   5.8343   6.1864

     occupation numbers 
     1.0000   1.0000   1.0000   1.0000   1.0000   1.0000   1.0000   1.0000
     1.0000   1.0000   1.0000   1.0000   1.0000   1.0000   1.0000   1.0000
     1.0000   1.0000   1.0000   1.0000   1.0000   1.0000   1.0000   1.0000
     1.0000   1.0000   1.0000   1.0000   1.0000   1.0000   1.0000   1.0000
     1.0000   1.0000   1.0000   1.0000   1.0000   1.0000   1.0000   1.0000
     1.0000   1.0000   1.0000   1.0000   1.0000   0.0000   0.0000   0.0000
     0.0000   0.0000   0.0000   0.0000   0.0000   0.0000

          k = 0.1768 0.0000 0.0000 ( 40009 PWs)   bands (ev):

   -68.5641 -62.4404 -39.8994 -39.8994 -39.8994 -36.3137 -36.3137 -36.3137
   -29.1619 -16.2503 -16.0696 -16.0667 -16.0667 -16.0207 -16.0152 -12.6086
   -12.6086 -12.6083  -6.8297  -5.3038  -5.0403  -5.0403  -4.9451  -4.9368
    -4.2918  -3.1667  -3.1321  -3.1321  -2.6934  -2.5846  -2.3908  -2.3748
    -2.3748  -2.0768  -2.0768  -2.0320  -1.9205  -1.9205  -1.7812  -1.5228
    -1.4937  -1.4937   1.0611   1.1767   1.1767   3.4400   3.4400   3.5315
     5.3099   5.4009   5.4184   5.7625   5.7845   5.7845

     occupation numbers 
     1.0000   1.0000   1.0000   1.0000   1.0000   1.0000   1.0000   1.0000
     1.0000   1.0000   1.0000   1.0000   1.0000   1.0000   1.0000   1.0000
     1.0000   1.0000   1.0000   1.0000   1.0000   1.0000   1.0000   1.0000
     1.0000   1.0000   1.0000   1.0000   1.0000   1.0000   1.0000   1.0000
     1.0000   1.0000   1.0000   1.0000   1.0000   1.0000   1.0000   1.0000
     1.0000   1.0000   1.0000   1.0000   1.0000   0.0000   0.0000   0.0000
     0.0000   0.0000   0.0000   0.0000   0.0000   0.0000

          k = 0.2652 0.0884-0.0884 ( 40035 PWs)   bands (ev):

   -68.5641 -62.4404 -39.8994 -39.8994 -39.8994 -36.3137 -36.3137 -36.3137
   -29.1619 -16.2379 -16.0828 -16.0651 -16.0607 -16.0275 -16.0171 -12.6083
   -12.6082 -12.6073  -6.7404  -5.5530  -5.0393  -5.0337  -4.9334  -4.9158
    -4.0593  -3.1795  -3.0888  -3.0857  -2.7788  -2.6213  -2.4569  -2.3940
    -2.3777  -2.1988  -2.1630  -2.0017  -1.9866  -1.9349  -1.7013  -1.5614
    -1.4611  -1.4410   1.1225   1.3154   1.3167   3.3310   3.3436   3.4827
     5.4229   5.4303   5.5220   5.8452   5.9169   5.9182

     occupation numbers 
     1.0000   1.0000   1.0000   1.0000   1.0000   1.0000   1.0000   1.0000
     1.0000   1.0000   1.0000   1.0000   1.0000   1.0000   1.0000   1.0000
     1.0000   1.0000   1.0000   1.0000   1.0000   1.0000   1.0000   1.0000
     1.0000   1.0000   1.0000   1.0000   1.0000   1.0000   1.0000   1.0000
     1.0000   1.0000   1.0000   1.0000   1.0000   1.0000   1.0000   1.0000
     1.0000   1.0000   1.0000   1.0000   1.0000   0.0000   0.0000   0.0000
     0.0000   0.0000   0.0000   0.0000   0.0000   0.0000

          k = 0.3536 0.1768-0.1768 ( 40059 PWs)   bands (ev):

   -68.5641 -62.4404 -39.8994 -39.8994 -39.8994 -36.3137 -36.3137 -36.3137
   -29.1618 -16.2182 -16.1045 -16.0600 -16.0519 -16.0362 -16.0224 -12.6079
   -12.6078 -12.6060  -6.5798  -5.8578  -5.0374  -5.0342  -4.9056  -4.8893
    -3.7969  -3.2249  -3.0364  -3.0191  -2.8220  -2.6735  -2.5310  -2.4283
    -2.4267  -2.3491  -2.2753  -2.0858  -1.9401  -1.8803  -1.6429  -1.6325
    -1.4270  -1.3966   1.2750   1.4647   1.4674   3.1972   3.2408   3.3567
     5.5048   5.5909   5.7393   5.9233   5.9941   6.0840

     occupation numbers 
     1.0000   1.0000   1.0000   1.0000   1.0000   1.0000   1.0000   1.0000
     1.0000   1.0000   1.0000   1.0000   1.0000   1.0000   1.0000   1.0000
     1.0000   1.0000   1.0000   1.0000   1.0000   1.0000   1.0000   1.0000
     1.0000   1.0000   1.0000   1.0000   1.0000   1.0000   1.0000   1.0000
     1.0000   1.0000   1.0000   1.0000   1.0000   1.0000   1.0000   1.0000
     1.0000   1.0000   1.0000   1.0000   1.0000   0.0000   0.0000   0.0000
     0.0000   0.0000   0.0000   0.0000   0.0000   0.0000

          k =-0.2652-0.4419 0.4419 ( 40040 PWs)   bands (ev):

   -68.5641 -62.4404 -39.8994 -39.8994 -39.8994 -36.3137 -36.3137 -36.3137
   -29.1618 -16.2011 -16.1229 -16.0522 -16.0493 -16.0386 -16.0303 -12.6077
   -12.6075 -12.6052  -6.3660  -6.1451  -5.0388  -5.0307  -4.8810  -4.8804
    -3.5985  -3.3080  -3.0182  -2.9693  -2.7843  -2.7084  -2.5640  -2.5328
    -2.4468  -2.3896  -2.3651  -2.1668  -1.8795  -1.8008  -1.6978  -1.6501
    -1.3923  -1.3892   1.4399   1.5307   1.5354   3.1195   3.1995   3.2225
     5.6471   5.7485   5.7980   5.8836   5.9655   6.1579

     occupation numbers 
     1.0000   1.0000   1.0000   1.0000   1.0000   1.0000   1.0000   1.0000
     1.0000   1.0000   1.0000   1.0000   1.0000   1.0000   1.0000   1.0000
     1.0000   1.0000   1.0000   1.0000   1.0000   1.0000   1.0000   1.0000
     1.0000   1.0000   1.0000   1.0000   1.0000   1.0000   1.0000   1.0000
     1.0000   1.0000   1.0000   1.0000   1.0000   1.0000   1.0000   1.0000
     1.0000   1.0000   1.0000   1.0000   1.0000   0.0000   0.0000   0.0000
     0.0000   0.0000   0.0000   0.0000   0.0000   0.0000

          k =-0.1768-0.3536 0.3536 ( 40010 PWs)   bands (ev):

   -68.5641 -62.4404 -39.8994 -39.8994 -39.8994 -36.3137 -36.3137 -36.3137
   -29.1618 -16.2053 -16.1189 -16.0575 -16.0453 -16.0371 -16.0300 -12.6078
   -12.6075 -12.6053  -6.4328  -6.0660  -5.0457  -5.0237  -4.8967  -4.8725
    -3.6459  -3.2793  -3.0364  -2.9670  -2.7725  -2.7365  -2.5394  -2.5061
    -2.4506  -2.3865  -2.3250  -2.1686  -1.8912  -1.7508  -1.7167  -1.6852
    -1.4196  -1.3674   1.4608   1.4719   1.5145   3.1174   3.2073   3.2567
     5.5930   5.7457   5.8242   5.8302   6.0160   6.1219

     occupation numbers 
     1.0000   1.0000   1.0000   1.0000   1.0000   1.0000   1.0000   1.0000
     1.0000   1.0000   1.0000   1.0000   1.0000   1.0000   1.0000   1.0000
     1.0000   1.0000   1.0000   1.0000   1.0000   1.0000   1.0000   1.0000
     1.0000   1.0000   1.0000   1.0000   1.0000   1.0000   1.0000   1.0000
     1.0000   1.0000   1.0000   1.0000   1.0000   1.0000   1.0000   1.0000
     1.0000   1.0000   1.0000   1.0000   1.0000   0.0000   0.0000   0.0000
     0.0000   0.0000   0.0000   0.0000   0.0000   0.0000

          k =-0.0884-0.2652 0.2652 ( 40013 PWs)   bands (ev):

   -68.5641 -62.4404 -39.8994 -39.8994 -39.8994 -36.3137 -36.3137 -36.3137
   -29.1618 -16.2250 -16.0983 -16.0643 -16.0513 -16.0310 -16.0224 -12.6082
   -12.6078 -12.6064  -6.6354  -5.7673  -5.0525  -5.0201  -4.9263  -4.8851
    -3.8754  -3.2007  -3.0738  -3.0297  -2.7741  -2.7031  -2.4766  -2.4350
    -2.4006  -2.3160  -2.2016  -2.0970  -1.9533  -1.7952  -1.7612  -1.6185
    -1.4526  -1.3873   1.3101   1.3237   1.4390   3.1972   3.3154   3.3671
     5.4708   5.5631   5.6427   5.9318   5.9921   6.0427

     occupation numbers 
     1.0000   1.0000   1.0000   1.0000   1.0000   1.0000   1.0000   1.0000
     1.0000   1.0000   1.0000   1.0000   1.0000   1.0000   1.0000   1.0000
     1.0000   1.0000   1.0000   1.0000   1.0000   1.0000   1.0000   1.0000
     1.0000   1.0000   1.0000   1.0000   1.0000   1.0000   1.0000   1.0000
     1.0000   1.0000   1.0000   1.0000   1.0000   1.0000   1.0000   1.0000
     1.0000   1.0000   1.0000   1.0000   1.0000   0.0000   0.0000   0.0000
     0.0000   0.0000   0.0000   0.0000   0.0000   0.0000

          k = 0.0000-0.1768 0.1768 ( 40006 PWs)   bands (ev):

   -68.5641 -62.4404 -39.8994 -39.8994 -39.8994 -36.3137 -36.3137 -36.3137
   -29.1619 -16.2430 -16.0803 -16.0670 -16.0591 -16.0229 -16.0179 -12.6086
   -12.6083 -12.6076  -6.7755  -5.4691  -5.0551  -5.0299  -4.9427  -4.9100
    -4.1392  -3.1727  -3.1135  -3.1017  -2.7108  -2.6477  -2.4003  -2.3993
    -2.3769  -2.1686  -2.0994  -1.9981  -1.9937  -1.8466  -1.8158  -1.5616
    -1.4810  -1.4422   1.1727   1.1820   1.2733   3.3465   3.4246   3.4574
     5.3918   5.4399   5.4498   5.8050   5.8753   5.8859

     occupation numbers 
     1.0000   1.0000   1.0000   1.0000   1.0000   1.0000   1.0000   1.0000
     1.0000   1.0000   1.0000   1.0000   1.0000   1.0000   1.0000   1.0000
     1.0000   1.0000   1.0000   1.0000   1.0000   1.0000   1.0000   1.0000
     1.0000   1.0000   1.0000   1.0000   1.0000   1.0000   1.0000   1.0000
     1.0000   1.0000   1.0000   1.0000   1.0000   1.0000   1.0000   1.0000
     1.0000   1.0000   1.0000   1.0000   1.0000   0.0000   0.0000   0.0000
     0.0000   0.0000   0.0000   0.0000   0.0000   0.0000

          k = 0.3536 0.0000 0.0000 ( 40046 PWs)   bands (ev):

   -68.5641 -62.4404 -39.8994 -39.8994 -39.8994 -36.3137 -36.3137 -36.3137
   -29.1618 -16.2302 -16.0766 -16.0674 -16.0674 -16.0356 -16.0149 -12.6079
   -12.6079 -12.6069  -6.6946  -5.6410  -5.0143  -5.0143  -4.9460  -4.9251
    -3.9684  -3.1848  -3.0525  -3.0525  -2.8855  -2.5828  -2.5484  -2.3883
    -2.3883  -2.2487  -2.2487  -2.0501  -1.9887  -1.9887  -1.5473  -1.5239
    -1.4466  -1.4466   1.0631   1.4211   1.4211   3.3112   3.3112   3.5338
     5.4047   5.4435   5.6471   5.8848   5.9390   5.9390

     occupation numbers 
     1.0000   1.0000   1.0000   1.0000   1.0000   1.0000   1.0000   1.0000
     1.0000   1.0000   1.0000   1.0000   1.0000   1.0000   1.0000   1.0000
     1.0000   1.0000   1.0000   1.0000   1.0000   1.0000   1.0000   1.0000
     1.0000   1.0000   1.0000   1.0000   1.0000   1.0000   1.0000   1.0000
     1.0000   1.0000   1.0000   1.0000   1.0000   1.0000   1.0000   1.0000
     1.0000   1.0000   1.0000   1.0000   1.0000   0.0000   0.0000   0.0000
     0.0000   0.0000   0.0000   0.0000   0.0000   0.0000

          k = 0.4419 0.0884-0.0884 ( 40048 PWs)   bands (ev):

   -68.5641 -62.4404 -39.8994 -39.8994 -39.8994 -36.3137 -36.3137 -36.3137
   -29.1618 -16.2152 -16.0917 -16.0658 -16.0592 -16.0452 -16.0167 -12.6075
   -12.6074 -12.6060  -6.5874  -5.8277  -5.0108  -5.0075  -4.9304  -4.9059
    -3.8004  -3.2066  -3.0380  -2.9941  -2.9278  -2.6352  -2.6071  -2.4299
    -2.4153  -2.3594  -2.3356  -2.0469  -2.0140  -1.9813  -1.5738  -1.4763
    -1.3976  -1.3910   1.1245   1.5304   1.5311   3.2677   3.2810   3.4846
     5.4318   5.5463   5.8156   5.8545   5.9649   6.0369

     occupation numbers 
     1.0000   1.0000   1.0000   1.0000   1.0000   1.0000   1.0000   1.0000
     1.0000   1.0000   1.0000   1.0000   1.0000   1.0000   1.0000   1.0000
     1.0000   1.0000   1.0000   1.0000   1.0000   1.0000   1.0000   1.0000
     1.0000   1.0000   1.0000   1.0000   1.0000   1.0000   1.0000   1.0000
     1.0000   1.0000   1.0000   1.0000   1.0000   1.0000   1.0000   1.0000
     1.0000   1.0000   1.0000   1.0000   1.0000   0.0000   0.0000   0.0000
     0.0000   0.0000   0.0000   0.0000   0.0000   0.0000

          k =-0.1768-0.5303 0.5303 ( 40037 PWs)   bands (ev):

   -68.5641 -62.4404 -39.8994 -39.8994 -39.8994 -36.3137 -36.3137 -36.3137
   -29.1618 -16.1990 -16.1109 -16.0606 -16.0577 -16.0449 -16.0220 -12.6073
   -12.6069 -12.6054  -6.4308  -6.0507  -5.0215  -4.9978  -4.8990  -4.8972
    -3.6277  -3.2614  -3.0784  -2.9404  -2.8700  -2.6628  -2.6468  -2.5608
    -2.4381  -2.3890  -2.3808  -2.1537  -1.9355  -1.9111  -1.6598  -1.5173
    -1.3635  -1.3110   1.2764   1.5765   1.5800   3.2329   3.2768   3.3561
     5.5167   5.6840   5.7427   5.9386   6.0496   6.0930

     occupation numbers 
     1.0000   1.0000   1.0000   1.0000   1.0000   1.0000   1.0000   1.0000
     1.0000   1.0000   1.0000   1.0000   1.0000   1.0000   1.0000   1.0000
     1.0000   1.0000   1.0000   1.0000   1.0000   1.0000   1.0000   1.0000
     1.0000   1.0000   1.0000   1.0000   1.0000   1.0000   1.0000   1.0000
     1.0000   1.0000   1.0000   1.0000   1.0000   1.0000   1.0000   1.0000
     1.0000   1.0000   1.0000   1.0000   1.0000   0.0000   0.0000   0.0000
     0.0000   0.0000   0.0000   0.0000   0.0000   0.0000

          k =-0.0884-0.4419 0.4419 ( 40068 PWs)   bands (ev):

   -68.5641 -62.4404 -39.8994 -39.8994 -39.8994 -36.3137 -36.3137 -36.3137
   -29.1618 -16.1949 -16.1180 -16.0651 -16.0526 -16.0346 -16.0300 -12.6075
   -12.6065 -12.6055  -6.3285  -6.1756  -5.0349  -4.9810  -4.9183  -4.8757
    -3.5723  -3.2734  -3.1089  -2.9162  -2.8043  -2.7536  -2.6125  -2.5916
    -2.4133  -2.3890  -2.3473  -2.2526  -1.8878  -1.8193  -1.7113  -1.6015
    -1.3760  -1.2856   1.4404   1.5268   1.5365   3.1961   3.2527   3.3067
     5.5756   5.6555   5.8650   5.8904   5.9941   6.1171

     occupation numbers 
     1.0000   1.0000   1.0000   1.0000   1.0000   1.0000   1.0000   1.0000
     1.0000   1.0000   1.0000   1.0000   1.0000   1.0000   1.0000   1.0000
     1.0000   1.0000   1.0000   1.0000   1.0000   1.0000   1.0000   1.0000
     1.0000   1.0000   1.0000   1.0000   1.0000   1.0000   1.0000   1.0000
     1.0000   1.0000   1.0000   1.0000   1.0000   1.0000   1.0000   1.0000
     1.0000   1.0000   1.0000   1.0000   1.0000   0.0000   0.0000   0.0000
     0.0000   0.0000   0.0000   0.0000   0.0000   0.0000

          k = 0.0000-0.3536 0.3536 ( 40038 PWs)   bands (ev):

   -68.5641 -62.4404 -39.8994 -39.8994 -39.8994 -36.3137 -36.3137 -36.3137
   -29.1618 -16.2083 -16.1088 -16.0680 -16.0454 -16.0371 -16.0266 -12.6078
   -12.6069 -12.6059  -6.4930  -5.9812  -5.0465  -4.9774  -4.9447  -4.8712
    -3.6990  -3.2058  -3.1139  -2.9517  -2.8120  -2.7441  -2.5520  -2.5023
    -2.4175  -2.3682  -2.2611  -2.2302  -1.9219  -1.7555  -1.7014  -1.6704
    -1.4216  -1.3194   1.4142   1.4298   1.5144   3.1330   3.2810   3.3460
     5.5001   5.6899   5.8172   5.8277   6.0194   6.1296

     occupation numbers 
     1.0000   1.0000   1.0000   1.0000   1.0000   1.0000   1.0000   1.0000
     1.0000   1.0000   1.0000   1.0000   1.0000   1.0000   1.0000   1.0000
     1.0000   1.0000   1.0000   1.0000   1.0000   1.0000   1.0000   1.0000
     1.0000   1.0000   1.0000   1.0000   1.0000   1.0000   1.0000   1.0000
     1.0000   1.0000   1.0000   1.0000   1.0000   1.0000   1.0000   1.0000
     1.0000   1.0000   1.0000   1.0000   1.0000   0.0000   0.0000   0.0000
     0.0000   0.0000   0.0000   0.0000   0.0000   0.0000

          k = 0.5303 0.0000 0.0000 ( 40022 PWs)   bands (ev):

   -68.5641 -62.4404 -39.8994 -39.8994 -39.8994 -36.3137 -36.3137 -36.3137
   -29.1618 -16.2067 -16.0819 -16.0680 -16.0680 -16.0558 -16.0146 -12.6071
   -12.6071 -12.6056  -6.5502  -5.8692  -4.9870  -4.9870  -4.9468  -4.9071
    -3.7471  -3.2302  -3.0456  -2.9440  -2.9440  -2.7340  -2.5809  -2.4866
    -2.4866  -2.3636  -2.3636  -2.0681  -2.0286  -2.0286  -1.5251  -1.4114
    -1.4114  -1.2966   1.0652   1.5963   1.5963   3.3282   3.3282   3.5362
     5.4079   5.5571   5.7182   5.9516   6.0194   6.0194

     occupation numbers 
     1.0000   1.0000   1.0000   1.0000   1.0000   1.0000   1.0000   1.0000
     1.0000   1.0000   1.0000   1.0000   1.0000   1.0000   1.0000   1.0000
     1.0000   1.0000   1.0000   1.0000   1.0000   1.0000   1.0000   1.0000
     1.0000   1.0000   1.0000   1.0000   1.0000   1.0000   1.0000   1.0000
     1.0000   1.0000   1.0000   1.0000   1.0000   1.0000   1.0000   1.0000
     1.0000   1.0000   1.0000   1.0000   1.0000   0.0000   0.0000   0.0000
     0.0000   0.0000   0.0000   0.0000   0.0000   0.0000

          k =-0.0884-0.6187 0.6187 ( 40061 PWs)   bands (ev):

   -68.5641 -62.4404 -39.8994 -39.8994 -39.8994 -36.3137 -36.3137 -36.3137
   -29.1618 -16.1964 -16.0943 -16.0663 -16.0657 -16.0568 -16.0164 -12.6070
   -12.6067 -12.6052  -6.4738  -5.9752  -4.9960  -4.9758  -4.9257  -4.9026
    -3.6576  -3.2628  -3.0862  -2.9019  -2.8973  -2.7592  -2.6018  -2.5671
    -2.5364  -2.3931  -2.3737  -2.0774  -2.0239  -2.0055  -1.5805  -1.4293
    -1.3731  -1.2254   1.1260   1.6231   1.6243   3.3436   3.3567   3.4852
     5.4356   5.6305   5.6693   5.9562   6.0331   6.0340

     occupation numbers 
     1.0000   1.0000   1.0000   1.0000   1.0000   1.0000   1.0000   1.0000
     1.0000   1.0000   1.0000   1.0000   1.0000   1.0000   1.0000   1.0000
     1.0000   1.0000   1.0000   1.0000   1.0000   1.0000   1.0000   1.0000
     1.0000   1.0000   1.0000   1.0000   1.0000   1.0000   1.0000   1.0000
     1.0000   1.0000   1.0000   1.0000   1.0000   1.0000   1.0000   1.0000
     1.0000   1.0000   1.0000   1.0000   1.0000   0.0000   0.0000   0.0000
     0.0000   0.0000   0.0000   0.0000   0.0000   0.0000

          k = 0.0000-0.5303 0.5303 ( 40054 PWs)   bands (ev):

   -68.5641 -62.4404 -39.8994 -39.8994 -39.8994 -36.3137 -36.3137 -36.3137
   -29.1618 -16.1908 -16.1096 -16.0687 -16.0608 -16.0442 -16.0219 -12.6071
   -12.6062 -12.6055  -6.3719  -6.1124  -5.0169  -4.9597  -4.9207  -4.8951
    -3.5759  -3.2785  -3.1152  -2.8873  -2.8785  -2.6996  -2.6817  -2.5993
    -2.4970  -2.3920  -2.3774  -2.1759  -1.9394  -1.9191  -1.6702  -1.4986
    -1.3516  -1.2251   1.2770   1.5940   1.5994   3.3090   3.3487   3.3514
     5.5197   5.5873   5.8302   5.9557   5.9658   6.0328

     occupation numbers 
     1.0000   1.0000   1.0000   1.0000   1.0000   1.0000   1.0000   1.0000
     1.0000   1.0000   1.0000   1.0000   1.0000   1.0000   1.0000   1.0000
     1.0000   1.0000   1.0000   1.0000   1.0000   1.0000   1.0000   1.0000
     1.0000   1.0000   1.0000   1.0000   1.0000   1.0000   1.0000   1.0000
     1.0000   1.0000   1.0000   1.0000   1.0000   1.0000   1.0000   1.0000
     1.0000   1.0000   1.0000   1.0000   1.0000   0.0000   0.0000   0.0000
     0.0000   0.0000   0.0000   0.0000   0.0000   0.0000

          k =-0.7071 0.0000 0.0000 ( 40170 PWs)   bands (ev):

   -68.5641 -62.4404 -39.8994 -39.8994 -39.8994 -36.3137 -36.3137 -36.3137
   -29.1618 -16.1952 -16.0810 -16.0689 -16.0683 -16.0683 -16.0145 -12.6068
   -12.6068 -12.6050  -6.4887  -5.9459  -4.9752  -4.9752  -4.9471  -4.8963
    -3.6717  -3.2741  -3.0864  -2.8727  -2.8727  -2.8156  -2.5873  -2.5873
    -2.5800  -2.3734  -2.3734  -2.0755  -2.0436  -2.0436  -1.5255  -1.3985
    -1.3985  -1.1897   1.0661   1.6426   1.6426   3.3908   3.3908   3.5371
     5.4091   5.6142   5.6261   5.9596   6.0110   6.0110

     occupation numbers 
     1.0000   1.0000   1.0000   1.0000   1.0000   1.0000   1.0000   1.0000
     1.0000   1.0000   1.0000   1.0000   1.0000   1.0000   1.0000   1.0000
     1.0000   1.0000   1.0000   1.0000   1.0000   1.0000   1.0000   1.0000
     1.0000   1.0000   1.0000   1.0000   1.0000   1.0000   1.0000   1.0000
     1.0000   1.0000   1.0000   1.0000   1.0000   1.0000   1.0000   1.0000
     1.0000   1.0000   1.0000   1.0000   1.0000   0.0000   0.0000   0.0000
     0.0000   0.0000   0.0000   0.0000   0.0000   0.0000

          k = 0.3536 0.1768 0.0000 ( 40042 PWs)   bands (ev):

   -68.5641 -62.4404 -39.8994 -39.8994 -39.8994 -36.3137 -36.3137 -36.3137
   -29.1618 -16.2239 -16.0925 -16.0676 -16.0541 -16.0360 -16.0187 -12.6080
   -12.6076 -12.6065  -6.6378  -5.7552  -5.0407  -5.0038  -4.9414  -4.8940
    -3.8765  -3.1889  -3.0741  -3.0229  -2.8520  -2.6455  -2.5387  -2.4104
    -2.3920  -2.3230  -2.2489  -2.0650  -1.9829  -1.9171  -1.6091  -1.5913
    -1.4440  -1.3863   1.1788   1.4215   1.4657   3.2215   3.3082   3.4470
     5.4402   5.5263   5.7012   5.9119   5.9411   6.0150

     occupation numbers 
     1.0000   1.0000   1.0000   1.0000   1.0000   1.0000   1.0000   1.0000
     1.0000   1.0000   1.0000   1.0000   1.0000   1.0000   1.0000   1.0000
     1.0000   1.0000   1.0000   1.0000   1.0000   1.0000   1.0000   1.0000
     1.0000   1.0000   1.0000   1.0000   1.0000   1.0000   1.0000   1.0000
     1.0000   1.0000   1.0000   1.0000   1.0000   1.0000   1.0000   1.0000
     1.0000   1.0000   1.0000   1.0000   1.0000   0.0000   0.0000   0.0000
     0.0000   0.0000   0.0000   0.0000   0.0000   0.0000

          k =-0.2652-0.4419 0.6187 ( 40028 PWs)   bands (ev):

   -68.5641 -62.4404 -39.8994 -39.8994 -39.8994 -36.3137 -36.3137 -36.3137
   -29.1618 -16.2057 -16.1097 -16.0648 -16.0494 -16.0408 -16.0240 -12.6076
   -12.6070 -12.6057  -6.4768  -5.9993  -5.0367  -4.9960  -4.9220  -4.8786
    -3.6782  -3.2332  -3.0810  -2.9565  -2.8537  -2.6863  -2.5971  -2.5113
    -2.4170  -2.3822  -2.3358  -2.1618  -1.9262  -1.8621  -1.6656  -1.5892
    -1.3888  -1.3386   1.3179   1.5300   1.5341   3.1656   3.2683   3.3523
     5.5085   5.6902   5.7812   5.8714   6.0450   6.1194

     occupation numbers 
     1.0000   1.0000   1.0000   1.0000   1.0000   1.0000   1.0000   1.0000
     1.0000   1.0000   1.0000   1.0000   1.0000   1.0000   1.0000   1.0000
     1.0000   1.0000   1.0000   1.0000   1.0000   1.0000   1.0000   1.0000
     1.0000   1.0000   1.0000   1.0000   1.0000   1.0000   1.0000   1.0000
     1.0000   1.0000   1.0000   1.0000   1.0000   1.0000   1.0000   1.0000
     1.0000   1.0000   1.0000   1.0000   1.0000   0.0000   0.0000   0.0000
     0.0000   0.0000   0.0000   0.0000   0.0000   0.0000

          k =-0.1768-0.3536 0.5303 ( 40076 PWs)   bands (ev):

   -68.5641 -62.4404 -39.8994 -39.8994 -39.8994 -36.3137 -36.3137 -36.3137
   -29.1618 -16.1955 -16.1200 -16.0584 -16.0567 -16.0334 -16.0311 -12.6074
   -12.6069 -12.6053  -6.3182  -6.1889  -5.0329  -4.9997  -4.9010  -4.8795
    -3.5682  -3.2928  -3.0776  -2.9422  -2.8027  -2.7150  -2.6101  -2.5960
    -2.4203  -2.3993  -2.3552  -2.2232  -1.8827  -1.8267  -1.7135  -1.6029
    -1.3491  -1.3305   1.4619   1.4722   1.5784   3.1887   3.2415   3.2758
     5.6176   5.6411   5.8596   5.9242   5.9587   6.1521

     occupation numbers 
     1.0000   1.0000   1.0000   1.0000   1.0000   1.0000   1.0000   1.0000
     1.0000   1.0000   1.0000   1.0000   1.0000   1.0000   1.0000   1.0000
     1.0000   1.0000   1.0000   1.0000   1.0000   1.0000   1.0000   1.0000
     1.0000   1.0000   1.0000   1.0000   1.0000   1.0000   1.0000   1.0000
     1.0000   1.0000   1.0000   1.0000   1.0000   1.0000   1.0000   1.0000
     1.0000   1.0000   1.0000   1.0000   1.0000   0.0000   0.0000   0.0000
     0.0000   0.0000   0.0000   0.0000   0.0000   0.0000

          k =-0.1768-0.5303 0.7071 ( 40038 PWs)   bands (ev):

   -68.5641 -62.4404 -39.8994 -39.8994 -39.8994 -36.3137 -36.3137 -36.3137
   -29.1618 -16.2021 -16.0994 -16.0682 -16.0579 -16.0491 -16.0185 -12.6072
   -12.6069 -12.6056  -6.4907  -5.9642  -5.0139  -4.9763  -4.9335  -4.8944
    -3.6816  -3.2336  -3.0805  -2.9467  -2.9002  -2.6984  -2.6184  -2.5218
    -2.4711  -2.3973  -2.3629  -2.0920  -1.9824  -1.9736  -1.6137  -1.4828
    -1.3485  -1.3029   1.1806   1.5782   1.5964   3.2568   3.3260   3.4475
     5.4532   5.6474   5.7077   5.9344   6.0422   6.0766

     occupation numbers 
     1.0000   1.0000   1.0000   1.0000   1.0000   1.0000   1.0000   1.0000
     1.0000   1.0000   1.0000   1.0000   1.0000   1.0000   1.0000   1.0000
     1.0000   1.0000   1.0000   1.0000   1.0000   1.0000   1.0000   1.0000
     1.0000   1.0000   1.0000   1.0000   1.0000   1.0000   1.0000   1.0000
     1.0000   1.0000   1.0000   1.0000   1.0000   1.0000   1.0000   1.0000
     1.0000   1.0000   1.0000   1.0000   1.0000   0.0000   0.0000   0.0000
     0.0000   0.0000   0.0000   0.0000   0.0000   0.0000

          k =-0.0884-0.4419 0.6187 ( 40051 PWs)   bands (ev):

   -68.5641 -62.4404 -39.8994 -39.8994 -39.8994 -36.3137 -36.3137 -36.3137
   -29.1618 -16.1916 -16.1106 -16.0657 -16.0648 -16.0392 -16.0240 -12.6071
   -12.6063 -12.6056  -6.3656  -6.1224  -5.0170  -4.9644  -4.9207  -4.8932
    -3.5766  -3.2714  -3.1060  -2.9497  -2.8275  -2.6953  -2.6588  -2.6154
    -2.5034  -2.3850  -2.3662  -2.1761  -1.9267  -1.9027  -1.6909  -1.5337
    -1.3136  -1.2560   1.3190   1.5319   1.6238   3.2731   3.3356   3.3605
     5.5196   5.6055   5.8158   5.9511   5.9798   6.0722

     occupation numbers 
     1.0000   1.0000   1.0000   1.0000   1.0000   1.0000   1.0000   1.0000
     1.0000   1.0000   1.0000   1.0000   1.0000   1.0000   1.0000   1.0000
     1.0000   1.0000   1.0000   1.0000   1.0000   1.0000   1.0000   1.0000
     1.0000   1.0000   1.0000   1.0000   1.0000   1.0000   1.0000   1.0000
     1.0000   1.0000   1.0000   1.0000   1.0000   1.0000   1.0000   1.0000
     1.0000   1.0000   1.0000   1.0000   1.0000   0.0000   0.0000   0.0000
     0.0000   0.0000   0.0000   0.0000   0.0000   0.0000

          k =-0.0000-0.3536 0.5303 ( 40063 PWs)   bands (ev):

   -68.5641 -62.4404 -39.8994 -39.8994 -39.8994 -36.3137 -36.3137 -36.3137
   -29.1618 -16.1933 -16.1138 -16.0684 -16.0576 -16.0331 -16.0293 -12.6073
   -12.6062 -12.6058  -6.3489  -6.1476  -5.0275  -4.9510  -4.9435  -4.8804
    -3.5767  -3.2559  -3.1232  -2.9340  -2.8194  -2.7258  -2.6254  -2.6169
    -2.4561  -2.3837  -2.3492  -2.2200  -1.8996  -1.8512  -1.7165  -1.5784
    -1.3301  -1.2741   1.4221   1.4682   1.5966   3.2239   3.2954   3.3477
     5.5346   5.6396   5.8180   5.9241   6.0134   6.0964

     occupation numbers 
     1.0000   1.0000   1.0000   1.0000   1.0000   1.0000   1.0000   1.0000
     1.0000   1.0000   1.0000   1.0000   1.0000   1.0000   1.0000   1.0000
     1.0000   1.0000   1.0000   1.0000   1.0000   1.0000   1.0000   1.0000
     1.0000   1.0000   1.0000   1.0000   1.0000   1.0000   1.0000   1.0000
     1.0000   1.0000   1.0000   1.0000   1.0000   1.0000   1.0000   1.0000
     1.0000   1.0000   1.0000   1.0000   1.0000   0.0000   0.0000   0.0000
     0.0000   0.0000   0.0000   0.0000   0.0000   0.0000

          k =-0.7071 0.1768 0.0000 ( 40038 PWs)   bands (ev):

   -68.5641 -62.4404 -39.8994 -39.8994 -39.8994 -36.3137 -36.3137 -36.3137
   -29.1618 -16.1920 -16.0992 -16.0689 -16.0683 -16.0494 -16.0184 -12.6068
   -12.6066 -12.6053  -6.4292  -6.0343  -5.0006  -4.9645  -4.9162  -4.9085
    -3.6154  -3.2751  -3.0928  -2.9427  -2.8357  -2.7532  -2.6214  -2.5903
    -2.5649  -2.4026  -2.3705  -2.1012  -1.9932  -1.9845  -1.6207  -1.4665
    -1.3344  -1.2076   1.1813   1.5968   1.6426   3.3286   3.3908   3.4457
     5.4560   5.6014   5.7303   5.9531   5.9969   6.0283

     occupation numbers 
     1.0000   1.0000   1.0000   1.0000   1.0000   1.0000   1.0000   1.0000
     1.0000   1.0000   1.0000   1.0000   1.0000   1.0000   1.0000   1.0000
     1.0000   1.0000   1.0000   1.0000   1.0000   1.0000   1.0000   1.0000
     1.0000   1.0000   1.0000   1.0000   1.0000   1.0000   1.0000   1.0000
     1.0000   1.0000   1.0000   1.0000   1.0000   1.0000   1.0000   1.0000
     1.0000   1.0000   1.0000   1.0000   1.0000   0.0000   0.0000   0.0000
     0.0000   0.0000   0.0000   0.0000   0.0000   0.0000

          k =-0.7071 0.3536 0.0000 ( 39932 PWs)   bands (ev):

   -68.5641 -62.4404 -39.8994 -39.8994 -39.8994 -36.3137 -36.3137 -36.3137
   -29.1618 -16.1883 -16.1100 -16.0689 -16.0683 -16.0320 -16.0287 -12.6068
   -12.6060 -12.6058  -6.3220  -6.1690  -5.0121  -4.9411  -4.9334  -4.8997
    -3.5552  -3.2760  -3.0984  -2.9922  -2.7765  -2.6990  -2.6614  -2.6482
    -2.5603  -2.3681  -2.3549  -2.1886  -1.9241  -1.8768  -1.7255  -1.5529
    -1.2643  -1.2530   1.4166   1.4301   1.6426   3.3132   3.3152   3.3907
     5.5270   5.5657   5.8619   5.9359   5.9528   6.0306

     occupation numbers 
     1.0000   1.0000   1.0000   1.0000   1.0000   1.0000   1.0000   1.0000
     1.0000   1.0000   1.0000   1.0000   1.0000   1.0000   1.0000   1.0000
     1.0000   1.0000   1.0000   1.0000   1.0000   1.0000   1.0000   1.0000
     1.0000   1.0000   1.0000   1.0000   1.0000   1.0000   1.0000   1.0000
     1.0000   1.0000   1.0000   1.0000   1.0000   1.0000   1.0000   1.0000
     1.0000   1.0000   1.0000   1.0000   1.0000   0.0000   0.0000   0.0000
     0.0000   0.0000   0.0000   0.0000   0.0000   0.0000

     the Fermi energy is     1.9831 ev
     (compare with:     1.9577 eV, computed in scf)

     Writing all to output data dir /tmp/scratch/KVCr_U2_2_LCM/KVCr_U2_2_LCM.save/ :
     XML data file, pseudopotentials, collected wavefunctions

     init_run     :      3.36s CPU      3.60s WALL (       1 calls)
     electrons    :    265.95s CPU    290.89s WALL (       1 calls)

     Called by init_run:
     wfcinit      :      0.73s CPU      0.77s WALL (       1 calls)
     wfcinit:atom :      0.06s CPU      0.07s WALL (       4 calls)
     wfcinit:wfcr :      7.36s CPU      8.35s WALL (       4 calls)
     potinit      :      1.08s CPU      1.24s WALL (       1 calls)
     hinit0       :      1.12s CPU      1.14s WALL (       1 calls)

     Called by electrons:
     c_bands      :    265.88s CPU    290.80s WALL (       1 calls)
     v_of_rho     :      0.92s CPU      1.04s WALL (       1 calls)
     v_h          :      0.06s CPU      0.07s WALL (       1 calls)
     v_xc         :      0.86s CPU      0.97s WALL (       1 calls)

     Called by c_bands:
     init_us_2    :      0.22s CPU      0.22s WALL (       8 calls)
     cegterg      :    203.25s CPU    225.50s WALL (      14 calls)

     Called by sum_band:

     Called by *egterg:
     cdiaghg      :      0.91s CPU      0.98s WALL (     259 calls)
     cegterg:over :     11.07s CPU     11.36s WALL (     255 calls)
     cegterg:upda :      6.00s CPU      6.15s WALL (     255 calls)
     cegterg:last :     10.68s CPU     10.87s WALL (     147 calls)
     h_psi        :    176.72s CPU    198.94s WALL (     273 calls)
     g_psi        :      0.96s CPU      0.94s WALL (     255 calls)

     Called by h_psi:
     h_psi:calbec :      9.19s CPU      9.43s WALL (     273 calls)
     vloc_psi     :    155.62s CPU    177.21s WALL (     273 calls)
                                        0.00s GPU  (     273 calls)
     add_vuspsi   :      7.49s CPU      7.81s WALL (     273 calls)
     vhpsi        :      3.46s CPU      3.53s WALL (     273 calls)

     General routines
     calbec       :     11.88s CPU     12.13s WALL (     550 calls)
     fft          :      0.81s CPU      0.85s WALL (      19 calls)
     fftw         :    128.92s CPU    149.64s WALL (   15476 calls)

     Parallel routines

     Hubbard U routines
     vhpsi        :      3.46s CPU      3.53s WALL (     273 calls)

     PWSCF        :   4m29.96s CPU   4m55.70s WALL


   This run was terminated on:  11:30:14   3Oct2026            

=------------------------------------------------------------------------------=
   JOB DONE.
=------------------------------------------------------------------------------=
