
     Program PWSCF v.7.5 starts on  3Oct2026 at 11:58:36 

     This program is part of the open-source Quantum ESPRESSO suite
     for quantum simulation of materials; please cite
         "P. Giannozzi et al., J. Phys.:Condens. Matter 21 395502 (2009);
         "P. Giannozzi et al., J. Phys.:Condens. Matter 29 465901 (2017);
         "P. Giannozzi et al., J. Chem. Phys. 152 154105 (2020);
          URL http://www.quantum-espresso.org", 
     in publications or presentations arising from this work. More details at
     http://www.quantum-espresso.org/quote

     Parallel version (MPI & OpenMP), running on      32 processor cores
     Number of MPI processes:                32
     Threads/MPI process:                     1

     MPI processes distributed on     1 nodes
     409189 MiB available memory on the printing compute node when the environment starts

     Reading input from KVCr_U4_4_LCM_nscf.in

     Current dimensions of program PWSCF are:
     Max number of different atomic species (ntypx) = 10
     Max number of k-points (npk) =  40000
     Max angular momentum in pseudopotentials (lmaxx) =  4

     Atomic positions and unit cell read from directory:
     /tmp/scratch/KVCr_U4_4_LCM/KVCr_U4_4_LCM.save/

     Message from routine setup:
     using ibrav=0 with symmetry is DISCOURAGED, use correct ibrav instead

     K-points division:     npool     =      16
     R & G space division:  proc/nbgrp/npool/nimage =       2
     Subspace diagonalization in iterative solution of the eigenvalue problem:
     a serial algorithm will be used


     Parallelization info
     --------------------
     sticks:   dense  smooth     PW     G-vecs:    dense   smooth      PW
     Min        3090    3090    831               160420   160420   22367
     Max        3091    3091    832               160423   160423   22368
     Sum        6181    6181   1663               320843   320843   44735

     Using Slab Decomposition



     bravais-lattice index     =            0
     lattice parameter (alat)  =      14.2709  a.u.
     unit-cell volume          =    2055.1352 (a.u.)^3
     number of atoms/cell      =           15
     number of atomic types    =            5
     number of electrons       =        90.00
     number of Kohn-Sham states=           54
     kinetic-energy cutoff     =     110.0000  Ry
     charge density cutoff     =     440.0000  Ry
     Exchange-correlation= PBE
                           (   1   4   3   4   0   0   0)
     Hubbard projectors: ortho-atomic
     Hubbard parameters of DFT+U (Dudarev formulation) in eV:
     U(V-3d) =  4.0000
     U(Cr-3d) =  4.0000

     Internal variables: lda_plus_u =T, lda_plus_u_kind = 0

     Internal variables: orbital_resolved =F, hub_pot_fix =F, apply_U = F

     celldm(1)=  14.270914  celldm(2)=   0.000000  celldm(3)=   0.000000
     celldm(4)=   0.000000  celldm(5)=   0.000000  celldm(6)=   0.000000

     crystal axes: (cart. coord. in units of alat)
               a(1) = (   0.000000   0.707107   0.707107 )  
               a(2) = (   0.707107   0.000000   0.707107 )  
               a(3) = (   0.707107   0.707107   0.000000 )  

     reciprocal axes: (cart. coord. in units 2 pi/alat)
               b(1) = ( -0.707107  0.707107  0.707107 )  
               b(2) = (  0.707107 -0.707107  0.707107 )  
               b(3) = (  0.707107  0.707107 -0.707107 )  


     PseudoPot. # 1 for K  read from file:
     /data/pseudo/dojo_sr/K.upf
     MD5 check sum: 0aa97b2c023445f040759afc9fdb6c80
     Pseudo is Norm-conserving + core correction, Zval =  9.0
     Generated using ONCVPSP code by D. R. Hamann
     Using radial grid of 2222 points,  6 beta functions with: 
                l(1) =   0
                l(2) =   0
                l(3) =   1
                l(4) =   1
                l(5) =   2
                l(6) =   2

     PseudoPot. # 2 for V  read from file:
     /data/pseudo/dojo_sr/V.upf
     MD5 check sum: 40fb93c06b4f9d8c28c5ccd071294a04
     Pseudo is Norm-conserving + core correction, Zval = 13.0
     Generated using ONCVPSP code by D. R. Hamann
     Using radial grid of 1536 points,  6 beta functions with: 
                l(1) =   0
                l(2) =   0
                l(3) =   1
                l(4) =   1
                l(5) =   2
                l(6) =   2

     PseudoPot. # 3 for Cr read from file:
     /data/pseudo/dojo_sr/Cr.upf
     MD5 check sum: 41892f80c335c8b1e803fd21ab4016b0
     Pseudo is Norm-conserving + core correction, Zval = 14.0
     Generated using ONCVPSP code by D. R. Hamann
     Using radial grid of 1638 points,  6 beta functions with: 
                l(1) =   0
                l(2) =   0
                l(3) =   1
                l(4) =   1
                l(5) =   2
                l(6) =   2

     PseudoPot. # 4 for C  read from file:
     /data/pseudo/dojo_sr/C.upf
     MD5 check sum: 34a24e64c0a39f27c6c36b90a16ac686
     Pseudo is Norm-conserving + core correction, Zval =  4.0
     Generated using ONCVPSP code by D. R. Hamann
     Using radial grid of 1248 points,  4 beta functions with: 
                l(1) =   0
                l(2) =   0
                l(3) =   1
                l(4) =   1

     PseudoPot. # 5 for N  read from file:
     /data/pseudo/dojo_sr/N.upf
     MD5 check sum: d34365f73bb0e2ee98afc20ec3e87676
     Pseudo is Norm-conserving + core correction, Zval =  5.0
     Generated using ONCVPSP code by D. R. Hamann
     Using radial grid of 1058 points,  4 beta functions with: 
                l(1) =   0
                l(2) =   0
                l(3) =   1
                l(4) =   1

     atomic species   valence    mass     pseudopotential
     K                 9.00    39.09830     K ( 1.00)
     V                13.00    50.94150     V ( 1.00)
     Cr               14.00    51.99610     Cr( 1.00)
     C                 4.00    12.01100     C ( 1.00)
     N                 5.00    14.00700     N ( 1.00)

     Starting magnetic structure 
     atomic species   magnetization
     K               0.000
     V              -0.231
     Cr              0.214
     C               0.000
     N               0.000

     24 Sym. Ops. (no inversion) found


                                    s                        frac. trans.

      isym =  1     identity                                     

 cryst.   s( 1) = (     1          0          0      )
                  (     0          1          0      )
                  (     0          0          1      )

 cart.    s( 1) = (  1.0000000  0.0000000  0.0000000 )
                  (  0.0000000  1.0000000  0.0000000 )
                  (  0.0000000  0.0000000  1.0000000 )


      isym =  2     180 deg rotation - cart. axis [0,0,1]        

 cryst.   s( 2) = (     0          1         -1      )
                  (     1          0         -1      )
                  (     0          0         -1      )

 cart.    s( 2) = ( -1.0000000  0.0000000  0.0000000 )
                  (  0.0000000 -1.0000000  0.0000000 )
                  (  0.0000000  0.0000000  1.0000000 )


      isym =  3     180 deg rotation - cart. axis [0,1,0]        

 cryst.   s( 3) = (     0         -1          1      )
                  (     0         -1          0      )
                  (     1         -1          0      )

 cart.    s( 3) = ( -1.0000000  0.0000000  0.0000000 )
                  (  0.0000000  1.0000000  0.0000000 )
                  (  0.0000000  0.0000000 -1.0000000 )


      isym =  4     180 deg rotation - cart. axis [1,0,0]        

 cryst.   s( 4) = (    -1          0          0      )
                  (    -1          0          1      )
                  (    -1          1          0      )

 cart.    s( 4) = (  1.0000000  0.0000000  0.0000000 )
                  (  0.0000000 -1.0000000  0.0000000 )
                  (  0.0000000  0.0000000 -1.0000000 )


      isym =  5     120 deg rotation - cart. axis [-1,-1,-1]     

 cryst.   s( 5) = (     0          0          1      )
                  (     1          0          0      )
                  (     0          1          0      )

 cart.    s( 5) = (  0.0000000  1.0000000  0.0000000 )
                  (  0.0000000  0.0000000  1.0000000 )
                  (  1.0000000  0.0000000  0.0000000 )


      isym =  6     120 deg rotation - cart. axis [-1,1,1]       

 cryst.   s( 6) = (     1         -1          0      )
                  (     0         -1          1      )
                  (     0         -1          0      )

 cart.    s( 6) = (  0.0000000 -1.0000000  0.0000000 )
                  (  0.0000000  0.0000000  1.0000000 )
                  ( -1.0000000  0.0000000  0.0000000 )


      isym =  7     120 deg rotation - cart. axis [1,1,-1]       

 cryst.   s( 7) = (    -1          1          0      )
                  (    -1          0          0      )
                  (    -1          0          1      )

 cart.    s( 7) = (  0.0000000  1.0000000  0.0000000 )
                  (  0.0000000  0.0000000 -1.0000000 )
                  ( -1.0000000  0.0000000  0.0000000 )


      isym =  8     120 deg rotation - cart. axis [1,-1,1]       

 cryst.   s( 8) = (     0          0         -1      )
                  (     0          1         -1      )
                  (     1          0         -1      )

 cart.    s( 8) = (  0.0000000 -1.0000000  0.0000000 )
                  (  0.0000000  0.0000000 -1.0000000 )
                  (  1.0000000  0.0000000  0.0000000 )


      isym =  9     120 deg rotation - cart. axis [1,1,1]        

 cryst.   s( 9) = (     0          1          0      )
                  (     0          0          1      )
                  (     1          0          0      )

 cart.    s( 9) = (  0.0000000  0.0000000  1.0000000 )
                  (  1.0000000  0.0000000  0.0000000 )
                  (  0.0000000  1.0000000  0.0000000 )


      isym = 10     120 deg rotation - cart. axis [-1,1,-1]      

 cryst.   s(10) = (    -1          0          1      )
                  (    -1          1          0      )
                  (    -1          0          0      )

 cart.    s(10) = (  0.0000000  0.0000000  1.0000000 )
                  ( -1.0000000  0.0000000  0.0000000 )
                  (  0.0000000 -1.0000000  0.0000000 )


      isym = 11     120 deg rotation - cart. axis [1,-1,-1]      

 cryst.   s(11) = (     1          0         -1      )
                  (     0          0         -1      )
                  (     0          1         -1      )

 cart.    s(11) = (  0.0000000  0.0000000 -1.0000000 )
                  ( -1.0000000  0.0000000  0.0000000 )
                  (  0.0000000  1.0000000  0.0000000 )


      isym = 12     120 deg rotation - cart. axis [-1,-1,1]      

 cryst.   s(12) = (     0         -1          0      )
                  (     1         -1          0      )
                  (     0         -1          1      )

 cart.    s(12) = (  0.0000000  0.0000000 -1.0000000 )
                  (  1.0000000  0.0000000  0.0000000 )
                  (  0.0000000 -1.0000000  0.0000000 )


      isym = 13     inv. 180 deg rotation - cart. axis [1,1,0]   

 cryst.   s(13) = (     1          0         -1      )
                  (     0          1         -1      )
                  (     0          0         -1      )

 cart.    s(13) = (  0.0000000 -1.0000000  0.0000000 )
                  ( -1.0000000  0.0000000  0.0000000 )
                  (  0.0000000  0.0000000  1.0000000 )


      isym = 14     inv. 180 deg rotation - cart. axis [1,-1,0]  

 cryst.   s(14) = (     0          1          0      )
                  (     1          0          0      )
                  (     0          0          1      )

 cart.    s(14) = (  0.0000000  1.0000000  0.0000000 )
                  (  1.0000000  0.0000000  0.0000000 )
                  (  0.0000000  0.0000000  1.0000000 )


      isym = 15     inv.  90 deg rotation - cart. axis [0,0,-1]  

 cryst.   s(15) = (     0         -1          0      )
                  (     0         -1          1      )
                  (     1         -1          0      )

 cart.    s(15) = (  0.0000000 -1.0000000  0.0000000 )
                  (  1.0000000  0.0000000  0.0000000 )
                  (  0.0000000  0.0000000 -1.0000000 )


      isym = 16     inv.  90 deg rotation - cart. axis [0,0,1]   

 cryst.   s(16) = (    -1          0          1      )
                  (    -1          0          0      )
                  (    -1          1          0      )

 cart.    s(16) = (  0.0000000  1.0000000  0.0000000 )
                  ( -1.0000000  0.0000000  0.0000000 )
                  (  0.0000000  0.0000000 -1.0000000 )


      isym = 17     inv. 180 deg rotation - cart. axis [1,0,1]   

 cryst.   s(17) = (     1         -1          0      )
                  (     0         -1          0      )
                  (     0         -1          1      )

 cart.    s(17) = (  0.0000000  0.0000000 -1.0000000 )
                  (  0.0000000  1.0000000  0.0000000 )
                  ( -1.0000000  0.0000000  0.0000000 )


      isym = 18     inv. 180 deg rotation - cart. axis [-1,0,1]  

 cryst.   s(18) = (     0          0          1      )
                  (     0          1          0      )
                  (     1          0          0      )

 cart.    s(18) = (  0.0000000  0.0000000  1.0000000 )
                  (  0.0000000  1.0000000  0.0000000 )
                  (  1.0000000  0.0000000  0.0000000 )


      isym = 19     inv.  90 deg rotation - cart. axis [0,1,0]   

 cryst.   s(19) = (     0          0         -1      )
                  (     1          0         -1      )
                  (     0          1         -1      )

 cart.    s(19) = (  0.0000000  0.0000000 -1.0000000 )
                  (  0.0000000 -1.0000000  0.0000000 )
                  (  1.0000000  0.0000000  0.0000000 )


      isym = 20     inv.  90 deg rotation - cart. axis [0,-1,0]  

 cryst.   s(20) = (    -1          1          0      )
                  (    -1          0          1      )
                  (    -1          0          0      )

 cart.    s(20) = (  0.0000000  0.0000000  1.0000000 )
                  (  0.0000000 -1.0000000  0.0000000 )
                  ( -1.0000000  0.0000000  0.0000000 )


      isym = 21     inv. 180 deg rotation - cart. axis [0,1,1]   

 cryst.   s(21) = (    -1          0          0      )
                  (    -1          1          0      )
                  (    -1          0          1      )

 cart.    s(21) = (  1.0000000  0.0000000  0.0000000 )
                  (  0.0000000  0.0000000 -1.0000000 )
                  (  0.0000000 -1.0000000  0.0000000 )


      isym = 22     inv. 180 deg rotation - cart. axis [0,1,-1]  

 cryst.   s(22) = (     1          0          0      )
                  (     0          0          1      )
                  (     0          1          0      )

 cart.    s(22) = (  1.0000000  0.0000000  0.0000000 )
                  (  0.0000000  0.0000000  1.0000000 )
                  (  0.0000000  1.0000000  0.0000000 )


      isym = 23     inv.  90 deg rotation - cart. axis [-1,0,0]  

 cryst.   s(23) = (     0          1         -1      )
                  (     0          0         -1      )
                  (     1          0         -1      )

 cart.    s(23) = ( -1.0000000  0.0000000  0.0000000 )
                  (  0.0000000  0.0000000 -1.0000000 )
                  (  0.0000000  1.0000000  0.0000000 )


      isym = 24     inv.  90 deg rotation - cart. axis [1,0,0]   

 cryst.   s(24) = (     0         -1          1      )
                  (     1         -1          0      )
                  (     0         -1          0      )

 cart.    s(24) = ( -1.0000000  0.0000000  0.0000000 )
                  (  0.0000000  0.0000000  1.0000000 )
                  (  0.0000000 -1.0000000  0.0000000 )


   Cartesian axes

     site n.     atom                  positions (alat units)
         1        K      tau(   1) = (   0.3535534   0.3535534   0.3535534  )
         2        V      tau(   2) = (   0.0000000   0.0000000   0.0000000  )
         3        Cr     tau(   3) = (   0.7071068   0.7071068   0.7071068  )
         4        C      tau(   4) = (   0.4343911   0.7071068   0.7071068  )
         5        C      tau(   5) = (   0.9798225   0.7071068   0.7071068  )
         6        C      tau(   6) = (   0.7071068   0.4343911   0.7071068  )
         7        C      tau(   7) = (   0.7071068   0.9798225   0.7071068  )
         8        C      tau(   8) = (   0.7071068   0.7071068   0.4343911  )
         9        C      tau(   9) = (   0.7071068   0.7071068   0.9798225  )
        10        N      tau(  10) = (   0.2796732   0.7071068   0.7071068  )
        11        N      tau(  11) = (   1.1345404   0.7071068   0.7071068  )
        12        N      tau(  12) = (   0.7071068   0.2796732   0.7071068  )
        13        N      tau(  13) = (   0.7071068   1.1345404   0.7071068  )
        14        N      tau(  14) = (   0.7071068   0.7071068   0.2796732  )
        15        N      tau(  15) = (   0.7071068   0.7071068   1.1345404  )

   Crystallographic axes

     site n.     atom                  positions (cryst. coord.)
         1        K      tau(   1) = (  0.2500000  0.2500000  0.2500000  )
         2        V      tau(   2) = (  0.0000000  0.0000000  0.0000000  )
         3        Cr     tau(   3) = (  0.5000000  0.5000000  0.5000000  )
         4        C      tau(   4) = (  0.6928391  0.3071609  0.3071609  )
         5        C      tau(   5) = (  0.3071609  0.6928391  0.6928391  )
         6        C      tau(   6) = (  0.3071609  0.6928391  0.3071609  )
         7        C      tau(   7) = (  0.6928391  0.3071609  0.6928391  )
         8        C      tau(   8) = (  0.3071609  0.3071609  0.6928391  )
         9        C      tau(   9) = (  0.6928391  0.6928391  0.3071609  )
        10        N      tau(  10) = (  0.8022412  0.1977588  0.1977588  )
        11        N      tau(  11) = (  0.1977588  0.8022412  0.8022412  )
        12        N      tau(  12) = (  0.1977588  0.8022412  0.1977588  )
        13        N      tau(  13) = (  0.8022412  0.1977588  0.8022412  )
        14        N      tau(  14) = (  0.1977588  0.1977588  0.8022412  )
        15        N      tau(  15) = (  0.8022412  0.8022412  0.1977588  )

     number of k points=    29  Gaussian smearing, width (Ry)=  0.0050
                       cart. coord. in units 2pi/alat
        k(    1) = (   0.0000000   0.0000000   0.0000000), wk =   0.0019531
        k(    2) = (   0.0883883   0.0883883  -0.0883883), wk =   0.0156250
        k(    3) = (   0.1767767   0.1767767  -0.1767767), wk =   0.0156250
        k(    4) = (   0.2651650   0.2651650  -0.2651650), wk =   0.0156250
        k(    5) = (  -0.3535534  -0.3535534   0.3535534), wk =   0.0078125
        k(    6) = (   0.1767767   0.0000000   0.0000000), wk =   0.0117188
        k(    7) = (   0.2651650   0.0883883  -0.0883883), wk =   0.0468750
        k(    8) = (   0.3535534   0.1767767  -0.1767767), wk =   0.0468750
        k(    9) = (  -0.2651650  -0.4419417   0.4419417), wk =   0.0468750
        k(   10) = (  -0.1767767  -0.3535534   0.3535534), wk =   0.0468750
        k(   11) = (  -0.0883883  -0.2651650   0.2651650), wk =   0.0468750
        k(   12) = (   0.0000000  -0.1767767   0.1767767), wk =   0.0234375
        k(   13) = (   0.3535534   0.0000000   0.0000000), wk =   0.0117188
        k(   14) = (   0.4419417   0.0883883  -0.0883883), wk =   0.0468750
        k(   15) = (  -0.1767767  -0.5303301   0.5303301), wk =   0.0468750
        k(   16) = (  -0.0883883  -0.4419417   0.4419417), wk =   0.0468750
        k(   17) = (   0.0000000  -0.3535534   0.3535534), wk =   0.0234375
        k(   18) = (   0.5303301   0.0000000   0.0000000), wk =   0.0117188
        k(   19) = (  -0.0883883  -0.6187184   0.6187184), wk =   0.0468750
        k(   20) = (   0.0000000  -0.5303301   0.5303301), wk =   0.0234375
        k(   21) = (  -0.7071068   0.0000000   0.0000000), wk =   0.0058594
        k(   22) = (   0.3535534   0.1767767   0.0000000), wk =   0.0468750
        k(   23) = (  -0.2651650  -0.4419417   0.6187184), wk =   0.0937500
        k(   24) = (  -0.1767767  -0.3535534   0.5303301), wk =   0.0468750
        k(   25) = (  -0.1767767  -0.5303301   0.7071068), wk =   0.0468750
        k(   26) = (  -0.0883883  -0.4419417   0.6187184), wk =   0.0937500
        k(   27) = (  -0.0000000  -0.3535534   0.5303301), wk =   0.0468750
        k(   28) = (  -0.7071068   0.1767767   0.0000000), wk =   0.0234375
        k(   29) = (  -0.7071068   0.3535534   0.0000000), wk =   0.0117188

                       cryst. coord.
        k(    1) = (   0.0000000   0.0000000   0.0000000), wk =   0.0019531
        k(    2) = (   0.0000000   0.0000000   0.1250000), wk =   0.0156250
        k(    3) = (   0.0000000   0.0000000   0.2500000), wk =   0.0156250
        k(    4) = (   0.0000000   0.0000000   0.3750000), wk =   0.0156250
        k(    5) = (   0.0000000   0.0000000  -0.5000000), wk =   0.0078125
        k(    6) = (   0.0000000   0.1250000   0.1250000), wk =   0.0117188
        k(    7) = (   0.0000000   0.1250000   0.2500000), wk =   0.0468750
        k(    8) = (   0.0000000   0.1250000   0.3750000), wk =   0.0468750
        k(    9) = (   0.0000000   0.1250000  -0.5000000), wk =   0.0468750
        k(   10) = (   0.0000000   0.1250000  -0.3750000), wk =   0.0468750
        k(   11) = (   0.0000000   0.1250000  -0.2500000), wk =   0.0468750
        k(   12) = (   0.0000000   0.1250000  -0.1250000), wk =   0.0234375
        k(   13) = (   0.0000000   0.2500000   0.2500000), wk =   0.0117188
        k(   14) = (   0.0000000   0.2500000   0.3750000), wk =   0.0468750
        k(   15) = (   0.0000000   0.2500000  -0.5000000), wk =   0.0468750
        k(   16) = (   0.0000000   0.2500000  -0.3750000), wk =   0.0468750
        k(   17) = (   0.0000000   0.2500000  -0.2500000), wk =   0.0234375
        k(   18) = (   0.0000000   0.3750000   0.3750000), wk =   0.0117188
        k(   19) = (   0.0000000   0.3750000  -0.5000000), wk =   0.0468750
        k(   20) = (   0.0000000   0.3750000  -0.3750000), wk =   0.0234375
        k(   21) = (   0.0000000  -0.5000000  -0.5000000), wk =   0.0058594
        k(   22) = (   0.1250000   0.2500000   0.3750000), wk =   0.0468750
        k(   23) = (   0.1250000   0.2500000  -0.5000000), wk =   0.0937500
        k(   24) = (   0.1250000   0.2500000  -0.3750000), wk =   0.0468750
        k(   25) = (   0.1250000   0.3750000  -0.5000000), wk =   0.0468750
        k(   26) = (   0.1250000   0.3750000  -0.3750000), wk =   0.0937500
        k(   27) = (   0.1250000   0.3750000  -0.2500000), wk =   0.0468750
        k(   28) = (   0.1250000  -0.5000000  -0.3750000), wk =   0.0234375
        k(   29) = (   0.2500000  -0.5000000  -0.2500000), wk =   0.0117188

     Dense  grid:   320843 G-vectors     FFT dimensions: (  96,  96,  96)

     Dynamical RAM for                 wfc:      16.50 MB

     Dynamical RAM for     wfc (w. buffer):      82.48 MB

     Dynamical RAM for             U proj.:       3.05 MB

     Dynamical RAM for  U proj. (w. buff.):      15.27 MB

     Dynamical RAM for           str. fact:      12.24 MB

     Dynamical RAM for           local pot:       0.00 MB

     Dynamical RAM for          nlocal pot:      45.82 MB

     Dynamical RAM for                qrad:       8.42 MB

     Dynamical RAM for          rho,v,vnew:      34.94 MB

     Dynamical RAM for           G-vectors:      10.40 MB

     Dynamical RAM for          h,s,v(r/c):       0.53 MB

     Dynamical RAM for          <psi|beta>:       0.12 MB

     Dynamical RAM for                 psi:      32.99 MB

     Dynamical RAM for                hpsi:      32.99 MB

     Dynamical RAM for      wfcinit/wfcrot:      33.06 MB

     Estimated static dynamical RAM per process >     244.50 MB

     Estimated max dynamical RAM per process >     311.14 MB

     Estimated total dynamical RAM >       9.72 GB
     Generating pointlists ...
     new r_m :   0.2085 (alat units)  2.9753 (a.u.) for type    1
     new r_m :   0.1154 (alat units)  1.6464 (a.u.) for type    2
     new r_m :   0.1125 (alat units)  1.6054 (a.u.) for type    3
     new r_m :   0.0638 (alat units)  0.9108 (a.u.) for type    4
     new r_m :   0.0638 (alat units)  0.9108 (a.u.) for type    5

     The potential is recalculated from file :
     /tmp/scratch/KVCr_U4_4_LCM/KVCr_U4_4_LCM.save/charge-density


     HUBBARD ENERGY =    0.3037  (Ry)

     STARTING HUBBARD OCCUPATIONS:

     =================== HUBBARD OCCUPATIONS ===================
     ------------------------ ATOM    2 ------------------------
     Tr[ns(  2)] (up, down, total) =   0.37046  3.13183  3.50229
     Atomic magnetic moment for atom   2 =  -2.76137
     SPIN  1
     eigenvalues:
       0.022  0.022  0.022  0.152  0.152
     eigenvectors (columns):
       0.000 -0.000  0.000 -0.585  0.811
       0.347  0.327  0.879 -0.000 -0.000
       0.619  0.624 -0.476 -0.000 -0.000
      -0.000  0.000 -0.000 -0.811 -0.585
      -0.705  0.710  0.014  0.000  0.000
     occupation matrix ns (before diag.):
       0.152 -0.000  0.000 -0.000  0.000
      -0.000  0.022 -0.000  0.000  0.000
       0.000 -0.000  0.022  0.000  0.000
      -0.000  0.000  0.000  0.152 -0.000
       0.000  0.000  0.000 -0.000  0.022
     SPIN  2
     eigenvalues:
       0.187  0.187  0.919  0.919  0.919
     eigenvectors (columns):
       0.417 -0.909 -0.000 -0.000  0.000
      -0.000 -0.000  0.330 -0.251 -0.910
      -0.000 -0.000  0.603 -0.685  0.408
       0.909  0.417  0.000  0.000 -0.000
       0.000  0.000 -0.726 -0.684 -0.075
     occupation matrix ns (before diag.):
       0.187 -0.000 -0.000 -0.000  0.000
      -0.000  0.919 -0.000  0.000  0.000
      -0.000 -0.000  0.919  0.000  0.000
      -0.000  0.000  0.000  0.187 -0.000
       0.000  0.000  0.000 -0.000  0.919
     ------------------------ ATOM    3 ------------------------
     Tr[ns(  3)] (up, down, total) =   3.83113  0.82195  4.65307
     Atomic magnetic moment for atom   3 =   3.00918
     SPIN  1
     eigenvalues:
       0.494  0.494  0.948  0.948  0.948
     eigenvectors (columns):
       0.447  0.894 -0.000 -0.000 -0.000
      -0.000  0.000  0.325 -0.140  0.935
      -0.000  0.000  0.599 -0.735 -0.318
       0.894 -0.447  0.000  0.000  0.000
       0.000 -0.000 -0.732 -0.663  0.155
     occupation matrix ns (before diag.):
       0.494 -0.000 -0.000 -0.000  0.000
      -0.000  0.948 -0.000  0.000  0.000
      -0.000 -0.000  0.948  0.000  0.000
      -0.000  0.000  0.000  0.494 -0.000
       0.000  0.000  0.000 -0.000  0.948
     SPIN  2
     eigenvalues:
       0.038  0.038  0.038  0.354  0.354
     eigenvectors (columns):
      -0.000  0.000  0.000  0.317 -0.949
      -0.309  0.004  0.951  0.000  0.000
      -0.608 -0.770 -0.194  0.000  0.000
       0.000 -0.000 -0.000  0.949  0.317
       0.731 -0.638  0.240 -0.000 -0.000
     occupation matrix ns (before diag.):
       0.354 -0.000  0.000 -0.000  0.000
      -0.000  0.038 -0.000  0.000  0.000
       0.000 -0.000  0.038  0.000  0.000
      -0.000  0.000  0.000  0.354 -0.000
       0.000  0.000  0.000 -0.000  0.038

     Number of occupied Hubbard levels =    8.1554

     Atomic wfc used for Hubbard projectors are orthogonalized

     Starting wfcs are   73 randomized atomic wfcs

     Band Structure Calculation
     Davidson diagonalization with overlap

     Computing kpt #:     1  of     4 on this pool
     total cpu time spent up to now is       84.2 secs

     Computing kpt #:     2  of     4 on this pool
     total cpu time spent up to now is      166.6 secs

     Computing kpt #:     3  of     4 on this pool
     total cpu time spent up to now is      243.9 secs

     Computing kpt #:     4  of     4 on this pool
     total cpu time spent up to now is      290.2 secs

     ethr =  1.67E-10,  avg # of iterations = 94.4

     total cpu time spent up to now is      303.8 secs

     End of band structure calculation

 ------ SPIN UP ------------


          k = 0.0000 0.0000 0.0000 ( 39957 PWs)   bands (ev):

   -71.4890 -59.5513 -42.8661 -42.8661 -42.8661 -33.4347 -33.4347 -33.4347
   -29.1659 -16.2561 -16.0672 -16.0672 -16.0672 -16.0120 -16.0120 -12.6133
   -12.6133 -12.6133  -6.8576  -4.9774  -4.9774  -4.9774  -4.8652  -4.8652
    -4.5209  -3.4770  -3.4770  -3.4770  -2.8534  -2.8534  -2.3696  -2.3696
    -2.3696  -2.0245  -2.0245  -2.0245  -1.8398  -1.8398  -1.8398  -1.5302
    -1.5302  -1.5302  -1.4047  -1.4047  -1.4047   4.4729   4.4729   4.7462
     4.7462   4.7462   5.1814   5.8236   5.8236   5.8236

     occupation numbers 
     1.0000   1.0000   1.0000   1.0000   1.0000   1.0000   1.0000   1.0000
     1.0000   1.0000   1.0000   1.0000   1.0000   1.0000   1.0000   1.0000
     1.0000   1.0000   1.0000   1.0000   1.0000   1.0000   1.0000   1.0000
     1.0000   1.0000   1.0000   1.0000   1.0000   1.0000   1.0000   1.0000
     1.0000   1.0000   1.0000   1.0000   1.0000   1.0000   1.0000   1.0000
     1.0000   1.0000   1.0000   1.0000   1.0000   0.0000   0.0000   0.0000
     0.0000   0.0000   0.0000   0.0000   0.0000   0.0000

          k = 0.0884 0.0884-0.0884 ( 40023 PWs)   bands (ev):

   -71.4890 -59.5513 -42.8661 -42.8661 -42.8661 -33.4347 -33.4347 -33.4347
   -29.1659 -16.2504 -16.0735 -16.0653 -16.0653 -16.0140 -16.0140 -12.6132
   -12.6132 -12.6127  -6.8193  -5.1906  -4.9681  -4.9681  -4.8641  -4.8641
    -4.3153  -3.4683  -3.4561  -3.4561  -2.8706  -2.8706  -2.4433  -2.4074
    -2.4074  -2.0934  -2.0934  -2.0094  -1.8583  -1.8467  -1.8467  -1.5488
    -1.4990  -1.4990  -1.3538  -1.3376  -1.3376   4.4784   4.4784   4.7671
     4.7903   4.7903   5.2647   5.7933   5.8547   5.8547

     occupation numbers 
     1.0000   1.0000   1.0000   1.0000   1.0000   1.0000   1.0000   1.0000
     1.0000   1.0000   1.0000   1.0000   1.0000   1.0000   1.0000   1.0000
     1.0000   1.0000   1.0000   1.0000   1.0000   1.0000   1.0000   1.0000
     1.0000   1.0000   1.0000   1.0000   1.0000   1.0000   1.0000   1.0000
     1.0000   1.0000   1.0000   1.0000   1.0000   1.0000   1.0000   1.0000
     1.0000   1.0000   1.0000   1.0000   1.0000   0.0000   0.0000   0.0000
     0.0000   0.0000   0.0000   0.0000   0.0000   0.0000

          k = 0.1768 0.1768-0.1768 ( 40014 PWs)   bands (ev):

   -71.4890 -59.5513 -42.8661 -42.8661 -42.8661 -33.4347 -33.4347 -33.4347
   -29.1660 -16.2346 -16.0910 -16.0601 -16.0601 -16.0193 -16.0193 -12.6128
   -12.6128 -12.6113  -6.7086  -5.5250  -4.9438  -4.9438  -4.8627  -4.8627
    -4.0075  -3.4379  -3.3990  -3.3990  -2.9035  -2.9035  -2.6270  -2.5275
    -2.5275  -2.2152  -2.2152  -1.9667  -1.8949  -1.8399  -1.8399  -1.5997
    -1.4331  -1.4331  -1.2526  -1.2215  -1.2215   4.4943   4.4943   4.8265
     4.9132   4.9132   5.4837   5.7247   5.8944   5.8944

     occupation numbers 
     1.0000   1.0000   1.0000   1.0000   1.0000   1.0000   1.0000   1.0000
     1.0000   1.0000   1.0000   1.0000   1.0000   1.0000   1.0000   1.0000
     1.0000   1.0000   1.0000   1.0000   1.0000   1.0000   1.0000   1.0000
     1.0000   1.0000   1.0000   1.0000   1.0000   1.0000   1.0000   1.0000
     1.0000   1.0000   1.0000   1.0000   1.0000   1.0000   1.0000   1.0000
     1.0000   1.0000   1.0000   1.0000   1.0000   0.0000   0.0000   0.0000
     0.0000   0.0000   0.0000   0.0000   0.0000   0.0000

          k = 0.2652 0.2652-0.2652 ( 40026 PWs)   bands (ev):

   -71.4890 -59.5513 -42.8661 -42.8661 -42.8661 -33.4347 -33.4347 -33.4347
   -29.1660 -16.2136 -16.1135 -16.0529 -16.0529 -16.0267 -16.0267 -12.6124
   -12.6124 -12.6099  -6.5454  -5.8348  -4.9146  -4.9146  -4.8656  -4.8656
    -3.7645  -3.3598  -3.3290  -3.3290  -2.9109  -2.9109  -2.8570  -2.6915
    -2.6915  -2.3099  -2.3099  -1.9271  -1.9074  -1.8107  -1.8107  -1.6672
    -1.3841  -1.3841  -1.1691  -1.1335  -1.1335   4.5139   4.5139   4.9026
     5.0810   5.0810   5.5760   5.8138   5.8138   5.8449

     occupation numbers 
     1.0000   1.0000   1.0000   1.0000   1.0000   1.0000   1.0000   1.0000
     1.0000   1.0000   1.0000   1.0000   1.0000   1.0000   1.0000   1.0000
     1.0000   1.0000   1.0000   1.0000   1.0000   1.0000   1.0000   1.0000
     1.0000   1.0000   1.0000   1.0000   1.0000   1.0000   1.0000   1.0000
     1.0000   1.0000   1.0000   1.0000   1.0000   1.0000   1.0000   1.0000
     1.0000   1.0000   1.0000   1.0000   1.0000   0.0000   0.0000   0.0000
     0.0000   0.0000   0.0000   0.0000   0.0000   0.0000

          k =-0.3536-0.3536 0.3536 ( 40094 PWs)   bands (ev):

   -71.4890 -59.5513 -42.8661 -42.8661 -42.8661 -33.4347 -33.4347 -33.4347
   -29.1660 -16.2014 -16.1264 -16.0483 -16.0483 -16.0314 -16.0314 -12.6122
   -12.6122 -12.6093  -6.4297  -6.0007  -4.8979  -4.8979  -4.8712  -4.8712
    -3.6787  -3.2948  -3.2948  -3.2525  -3.0199  -2.8712  -2.8712  -2.8068
    -2.8068  -2.3451  -2.3451  -1.9400  -1.8695  -1.7950  -1.7950  -1.7085
    -1.3676  -1.3676  -1.1379  -1.1017  -1.1017   4.5229   4.5229   4.9418
     5.1837   5.1837   5.5389   5.7204   5.7204   6.0159

     occupation numbers 
     1.0000   1.0000   1.0000   1.0000   1.0000   1.0000   1.0000   1.0000
     1.0000   1.0000   1.0000   1.0000   1.0000   1.0000   1.0000   1.0000
     1.0000   1.0000   1.0000   1.0000   1.0000   1.0000   1.0000   1.0000
     1.0000   1.0000   1.0000   1.0000   1.0000   1.0000   1.0000   1.0000
     1.0000   1.0000   1.0000   1.0000   1.0000   1.0000   1.0000   1.0000
     1.0000   1.0000   1.0000   1.0000   1.0000   0.0000   0.0000   0.0000
     0.0000   0.0000   0.0000   0.0000   0.0000   0.0000

          k = 0.1768 0.0000 0.0000 ( 40009 PWs)   bands (ev):

   -71.4890 -59.5513 -42.8661 -42.8661 -42.8661 -33.4347 -33.4347 -33.4347
   -29.1659 -16.2486 -16.0701 -16.0674 -16.0674 -16.0174 -16.0119 -12.6130
   -12.6130 -12.6127  -6.8082  -5.2302  -4.9671  -4.9671  -4.8656  -4.8617
    -4.2722  -3.4807  -3.4417  -3.4417  -2.9008  -2.8528  -2.4537  -2.4299
    -2.4299  -2.0992  -2.0992  -2.0319  -1.8926  -1.8926  -1.7576  -1.5307
    -1.5022  -1.5022  -1.4047  -1.2894  -1.2894   4.4785   4.4793   4.7481
     4.8207   4.8207   5.2924   5.8212   5.8493   5.8493

     occupation numbers 
     1.0000   1.0000   1.0000   1.0000   1.0000   1.0000   1.0000   1.0000
     1.0000   1.0000   1.0000   1.0000   1.0000   1.0000   1.0000   1.0000
     1.0000   1.0000   1.0000   1.0000   1.0000   1.0000   1.0000   1.0000
     1.0000   1.0000   1.0000   1.0000   1.0000   1.0000   1.0000   1.0000
     1.0000   1.0000   1.0000   1.0000   1.0000   1.0000   1.0000   1.0000
     1.0000   1.0000   1.0000   1.0000   1.0000   0.0000   0.0000   0.0000
     0.0000   0.0000   0.0000   0.0000   0.0000   0.0000

          k = 0.2652 0.0884-0.0884 ( 40035 PWs)   bands (ev):

   -71.4890 -59.5513 -42.8661 -42.8661 -42.8661 -33.4347 -33.4347 -33.4347
   -29.1660 -16.2364 -16.0830 -16.0658 -16.0614 -16.0241 -16.0137 -12.6127
   -12.6126 -12.6116  -6.7265  -5.4741  -4.9493  -4.9476  -4.8654  -4.8579
    -4.0417  -3.4702  -3.3927  -3.3903  -2.9473  -2.8657  -2.6125  -2.5305
    -2.5013  -2.1926  -2.1894  -2.0058  -1.9536  -1.9169  -1.6885  -1.5699
    -1.4581  -1.4400  -1.3445  -1.1897  -1.1863   4.4871   4.4898   4.7799
     4.9266   4.9370   5.4681   5.7634   5.8867   5.9209

     occupation numbers 
     1.0000   1.0000   1.0000   1.0000   1.0000   1.0000   1.0000   1.0000
     1.0000   1.0000   1.0000   1.0000   1.0000   1.0000   1.0000   1.0000
     1.0000   1.0000   1.0000   1.0000   1.0000   1.0000   1.0000   1.0000
     1.0000   1.0000   1.0000   1.0000   1.0000   1.0000   1.0000   1.0000
     1.0000   1.0000   1.0000   1.0000   1.0000   1.0000   1.0000   1.0000
     1.0000   1.0000   1.0000   1.0000   1.0000   0.0000   0.0000   0.0000
     0.0000   0.0000   0.0000   0.0000   0.0000   0.0000

          k = 0.3536 0.1768-0.1768 ( 40059 PWs)   bands (ev):

   -71.4890 -59.5513 -42.8661 -42.8661 -42.8661 -33.4347 -33.4347 -33.4347
   -29.1660 -16.2173 -16.1040 -16.0607 -16.0534 -16.0319 -16.0190 -12.6122
   -12.6122 -12.6103  -6.5872  -5.7581  -4.9217  -4.9192  -4.8667  -4.8578
    -3.7976  -3.4263  -3.3211  -3.3204  -2.9736  -2.8799  -2.8328  -2.6854
    -2.6136  -2.2999  -2.2915  -2.0164  -1.9478  -1.8897  -1.6537  -1.6403
    -1.3971  -1.3786  -1.2354  -1.1118  -1.1024   4.5015   4.5068   4.8599
     5.0682   5.1107   5.6108   5.8111   5.8547   5.9280

     occupation numbers 
     1.0000   1.0000   1.0000   1.0000   1.0000   1.0000   1.0000   1.0000
     1.0000   1.0000   1.0000   1.0000   1.0000   1.0000   1.0000   1.0000
     1.0000   1.0000   1.0000   1.0000   1.0000   1.0000   1.0000   1.0000
     1.0000   1.0000   1.0000   1.0000   1.0000   1.0000   1.0000   1.0000
     1.0000   1.0000   1.0000   1.0000   1.0000   1.0000   1.0000   1.0000
     1.0000   1.0000   1.0000   1.0000   1.0000   0.0000   0.0000   0.0000
     0.0000   0.0000   0.0000   0.0000   0.0000   0.0000

          k =-0.2652-0.4419 0.4419 ( 40040 PWs)   bands (ev):

   -71.4890 -59.5513 -42.8661 -42.8661 -42.8661 -33.4347 -33.4347 -33.4347
   -29.1660 -16.2008 -16.1218 -16.0534 -16.0515 -16.0337 -16.0263 -12.6121
   -12.6119 -12.6094  -6.4445  -5.9739  -4.8982  -4.8958  -4.8707  -4.8664
    -3.6614  -3.3431  -3.2785  -3.2382  -3.0531  -2.9254  -2.8767  -2.7976
    -2.7416  -2.3603  -2.3524  -2.0519  -1.8902  -1.8376  -1.7062  -1.6615
    -1.3556  -1.3521  -1.1506  -1.0850  -1.0689   4.5100   4.5216   4.9451
     5.1628   5.2470   5.5971   5.7550   5.7906   6.0522

     occupation numbers 
     1.0000   1.0000   1.0000   1.0000   1.0000   1.0000   1.0000   1.0000
     1.0000   1.0000   1.0000   1.0000   1.0000   1.0000   1.0000   1.0000
     1.0000   1.0000   1.0000   1.0000   1.0000   1.0000   1.0000   1.0000
     1.0000   1.0000   1.0000   1.0000   1.0000   1.0000   1.0000   1.0000
     1.0000   1.0000   1.0000   1.0000   1.0000   1.0000   1.0000   1.0000
     1.0000   1.0000   1.0000   1.0000   1.0000   0.0000   0.0000   0.0000
     0.0000   0.0000   0.0000   0.0000   0.0000   0.0000

          k =-0.1768-0.3536 0.3536 ( 40010 PWs)   bands (ev):

   -71.4890 -59.5513 -42.8661 -42.8661 -42.8661 -33.4347 -33.4347 -33.4347
   -29.1660 -16.2047 -16.1179 -16.0584 -16.0483 -16.0314 -16.0265 -12.6122
   -12.6118 -12.6096  -6.4797  -5.9265  -4.9033  -4.9011  -4.8691  -4.8650
    -3.6877  -3.3562  -3.3020  -3.2640  -2.9981  -2.9380  -2.8823  -2.7530
    -2.7097  -2.3481  -2.3456  -2.0547  -1.8979  -1.8012  -1.7049  -1.6974
    -1.3737  -1.3439  -1.1337  -1.1040  -1.0945   4.5058   4.5225   4.9453
     5.1445   5.1669   5.5942   5.7967   5.8395   5.9901

     occupation numbers 
     1.0000   1.0000   1.0000   1.0000   1.0000   1.0000   1.0000   1.0000
     1.0000   1.0000   1.0000   1.0000   1.0000   1.0000   1.0000   1.0000
     1.0000   1.0000   1.0000   1.0000   1.0000   1.0000   1.0000   1.0000
     1.0000   1.0000   1.0000   1.0000   1.0000   1.0000   1.0000   1.0000
     1.0000   1.0000   1.0000   1.0000   1.0000   1.0000   1.0000   1.0000
     1.0000   1.0000   1.0000   1.0000   1.0000   0.0000   0.0000   0.0000
     0.0000   0.0000   0.0000   0.0000   0.0000   0.0000

          k =-0.0884-0.2652 0.2652 ( 40013 PWs)   bands (ev):

   -71.4890 -59.5513 -42.8661 -42.8661 -42.8661 -33.4347 -33.4347 -33.4347
   -29.1660 -16.2239 -16.0981 -16.0650 -16.0526 -16.0269 -16.0192 -12.6126
   -12.6122 -12.6107  -6.6340  -5.6766  -4.9303  -4.9274  -4.8651  -4.8596
    -3.8688  -3.4299  -3.3691  -3.3367  -2.9450  -2.8984  -2.7711  -2.6014
    -2.5726  -2.2720  -2.2719  -2.0238  -1.9550  -1.7970  -1.7599  -1.6300
    -1.4206  -1.3810  -1.2090  -1.1723  -1.1428   4.4939   4.5078   4.8648
     4.9896   5.0259   5.5929   5.7325   5.9009   5.9526

     occupation numbers 
     1.0000   1.0000   1.0000   1.0000   1.0000   1.0000   1.0000   1.0000
     1.0000   1.0000   1.0000   1.0000   1.0000   1.0000   1.0000   1.0000
     1.0000   1.0000   1.0000   1.0000   1.0000   1.0000   1.0000   1.0000
     1.0000   1.0000   1.0000   1.0000   1.0000   1.0000   1.0000   1.0000
     1.0000   1.0000   1.0000   1.0000   1.0000   1.0000   1.0000   1.0000
     1.0000   1.0000   1.0000   1.0000   1.0000   0.0000   0.0000   0.0000
     0.0000   0.0000   0.0000   0.0000   0.0000   0.0000

          k = 0.0000-0.1768 0.1768 ( 40006 PWs)   bands (ev):

   -71.4890 -59.5513 -42.8661 -42.8661 -42.8661 -33.4347 -33.4347 -33.4347
   -29.1660 -16.2414 -16.0806 -16.0677 -16.0599 -16.0195 -16.0146 -12.6130
   -12.6127 -12.6120  -6.7584  -5.3945  -4.9567  -4.9526  -4.8646  -4.8609
    -4.1212  -3.4612  -3.4293  -3.4089  -2.9112  -2.8764  -2.5631  -2.4747
    -2.4592  -2.1722  -2.1606  -1.9978  -1.9532  -1.8146  -1.8071  -1.5718
    -1.4750  -1.4469  -1.3057  -1.2752  -1.2307   4.4835   4.4889   4.7933
     4.8508   4.8830   5.3949   5.7574   5.8728   5.9151

     occupation numbers 
     1.0000   1.0000   1.0000   1.0000   1.0000   1.0000   1.0000   1.0000
     1.0000   1.0000   1.0000   1.0000   1.0000   1.0000   1.0000   1.0000
     1.0000   1.0000   1.0000   1.0000   1.0000   1.0000   1.0000   1.0000
     1.0000   1.0000   1.0000   1.0000   1.0000   1.0000   1.0000   1.0000
     1.0000   1.0000   1.0000   1.0000   1.0000   1.0000   1.0000   1.0000
     1.0000   1.0000   1.0000   1.0000   1.0000   0.0000   0.0000   0.0000
     0.0000   0.0000   0.0000   0.0000   0.0000   0.0000

          k = 0.3536 0.0000 0.0000 ( 40046 PWs)   bands (ev):

   -71.4890 -59.5513 -42.8661 -42.8661 -42.8661 -33.4347 -33.4347 -33.4347
   -29.1660 -16.2290 -16.0764 -16.0681 -16.0681 -16.0324 -16.0116 -12.6123
   -12.6123 -12.6113  -6.6851  -5.5556  -4.9410  -4.9410  -4.8664  -4.8503
    -3.9456  -3.4899  -3.3454  -3.3454  -3.0104  -2.8513  -2.6918  -2.5921
    -2.5921  -2.2154  -2.2154  -2.0498  -1.9774  -1.9774  -1.5403  -1.5318
    -1.4476  -1.4476  -1.4000  -1.1031  -1.1031   4.4791   4.4942   4.7537
     5.0563   5.0563   5.5836   5.8264   5.9192   5.9192

     occupation numbers 
     1.0000   1.0000   1.0000   1.0000   1.0000   1.0000   1.0000   1.0000
     1.0000   1.0000   1.0000   1.0000   1.0000   1.0000   1.0000   1.0000
     1.0000   1.0000   1.0000   1.0000   1.0000   1.0000   1.0000   1.0000
     1.0000   1.0000   1.0000   1.0000   1.0000   1.0000   1.0000   1.0000
     1.0000   1.0000   1.0000   1.0000   1.0000   1.0000   1.0000   1.0000
     1.0000   1.0000   1.0000   1.0000   1.0000   0.0000   0.0000   0.0000
     0.0000   0.0000   0.0000   0.0000   0.0000   0.0000

          k = 0.4419 0.0884-0.0884 ( 40048 PWs)   bands (ev):

   -71.4890 -59.5513 -42.8661 -42.8661 -42.8661 -33.4347 -33.4347 -33.4347
   -29.1660 -16.2145 -16.0909 -16.0665 -16.0604 -16.0416 -16.0134 -12.6119
   -12.6118 -12.6104  -6.5923  -5.7290  -4.9213  -4.9196  -4.8671  -4.8448
    -3.7743  -3.4795  -3.2823  -3.2803  -3.0529  -2.8754  -2.8576  -2.7040
    -2.6663  -2.2959  -2.2853  -2.0514  -2.0231  -1.9794  -1.5815  -1.4796
    -1.3931  -1.3910  -1.3285  -1.0342  -1.0313   4.4775   4.5050   4.7871
     5.2227   5.2466   5.6810   5.8949   5.9392   6.0099

     occupation numbers 
     1.0000   1.0000   1.0000   1.0000   1.0000   1.0000   1.0000   1.0000
     1.0000   1.0000   1.0000   1.0000   1.0000   1.0000   1.0000   1.0000
     1.0000   1.0000   1.0000   1.0000   1.0000   1.0000   1.0000   1.0000
     1.0000   1.0000   1.0000   1.0000   1.0000   1.0000   1.0000   1.0000
     1.0000   1.0000   1.0000   1.0000   1.0000   1.0000   1.0000   1.0000
     1.0000   1.0000   1.0000   1.0000   1.0000   0.0000   0.0000   0.0000
     0.0000   0.0000   0.0000   0.0000   0.0000   0.0000

          k =-0.1768-0.5303 0.5303 ( 40037 PWs)   bands (ev):

   -71.4890 -59.5513 -42.8661 -42.8661 -42.8661 -33.4347 -33.4347 -33.4347
   -29.1660 -16.1989 -16.1092 -16.0613 -16.0590 -16.0413 -16.0186 -12.6117
   -12.6112 -12.6097  -6.4754  -5.9128  -4.8993  -4.8951  -4.8694  -4.8503
    -3.6203  -3.4235  -3.2453  -3.2336  -3.0806  -3.0033  -2.8844  -2.7835
    -2.7344  -2.3736  -2.3502  -2.1439  -1.9630  -1.9207  -1.6668  -1.5080
    -1.3450  -1.3072  -1.2265  -1.0127  -1.0012   4.4804   4.5184   4.8731
     5.2811   5.4268   5.6962   5.8532   5.9550   6.1490

     occupation numbers 
     1.0000   1.0000   1.0000   1.0000   1.0000   1.0000   1.0000   1.0000
     1.0000   1.0000   1.0000   1.0000   1.0000   1.0000   1.0000   1.0000
     1.0000   1.0000   1.0000   1.0000   1.0000   1.0000   1.0000   1.0000
     1.0000   1.0000   1.0000   1.0000   1.0000   1.0000   1.0000   1.0000
     1.0000   1.0000   1.0000   1.0000   1.0000   1.0000   1.0000   1.0000
     1.0000   1.0000   1.0000   1.0000   1.0000   0.0000   0.0000   0.0000
     0.0000   0.0000   0.0000   0.0000   0.0000   0.0000

          k =-0.0884-0.4419 0.4419 ( 40068 PWs)   bands (ev):

   -71.4890 -59.5513 -42.8661 -42.8661 -42.8661 -33.4347 -33.4347 -33.4347
   -29.1660 -16.1950 -16.1161 -16.0658 -16.0538 -16.0317 -16.0261 -12.6118
   -12.6109 -12.6098  -6.4274  -5.9832  -4.8930  -4.8805  -4.8686  -4.8669
    -3.5929  -3.3614  -3.2476  -3.2273  -3.1693  -2.9510  -2.8941  -2.7917
    -2.7303  -2.3993  -2.3731  -2.1781  -1.9154  -1.8460  -1.7254  -1.5740
    -1.3434  -1.2808  -1.1457  -1.0452  -1.0221   4.4843   4.5265   4.9693
     5.1770   5.3583   5.7216   5.9181   5.9307   6.1943

     occupation numbers 
     1.0000   1.0000   1.0000   1.0000   1.0000   1.0000   1.0000   1.0000
     1.0000   1.0000   1.0000   1.0000   1.0000   1.0000   1.0000   1.0000
     1.0000   1.0000   1.0000   1.0000   1.0000   1.0000   1.0000   1.0000
     1.0000   1.0000   1.0000   1.0000   1.0000   1.0000   1.0000   1.0000
     1.0000   1.0000   1.0000   1.0000   1.0000   1.0000   1.0000   1.0000
     1.0000   1.0000   1.0000   1.0000   1.0000   0.0000   0.0000   0.0000
     0.0000   0.0000   0.0000   0.0000   0.0000   0.0000

          k = 0.0000-0.3536 0.3536 ( 40038 PWs)   bands (ev):

   -71.4890 -59.5513 -42.8661 -42.8661 -42.8661 -33.4347 -33.4347 -33.4347
   -29.1660 -16.2077 -16.1077 -16.0687 -16.0483 -16.0314 -16.0235 -12.6122
   -12.6112 -12.6102  -6.5193  -5.8615  -4.9074  -4.9039  -4.8676  -4.8602
    -3.7004  -3.4068  -3.3093  -3.2703  -2.9874  -2.9686  -2.8930  -2.6986
    -2.6455  -2.3524  -2.3411  -2.1345  -1.9284  -1.8041  -1.6893  -1.6617
    -1.3794  -1.3167  -1.1287  -1.1066  -1.0876   4.4891   4.5221   4.9478
     5.1151   5.1531   5.6173   5.9273   6.0059   6.0292

     occupation numbers 
     1.0000   1.0000   1.0000   1.0000   1.0000   1.0000   1.0000   1.0000
     1.0000   1.0000   1.0000   1.0000   1.0000   1.0000   1.0000   1.0000
     1.0000   1.0000   1.0000   1.0000   1.0000   1.0000   1.0000   1.0000
     1.0000   1.0000   1.0000   1.0000   1.0000   1.0000   1.0000   1.0000
     1.0000   1.0000   1.0000   1.0000   1.0000   1.0000   1.0000   1.0000
     1.0000   1.0000   1.0000   1.0000   1.0000   0.0000   0.0000   0.0000
     0.0000   0.0000   0.0000   0.0000   0.0000   0.0000

          k = 0.5303 0.0000 0.0000 ( 40022 PWs)   bands (ev):

   -71.4890 -59.5513 -42.8661 -42.8661 -42.8661 -33.4347 -33.4347 -33.4347
   -29.1660 -16.2063 -16.0799 -16.0687 -16.0687 -16.0533 -16.0113 -12.6115
   -12.6115 -12.6099  -6.5606  -5.7651  -4.9130  -4.9130  -4.8672  -4.8319
    -3.6979  -3.5021  -3.2210  -3.2210  -3.1242  -2.9687  -2.8498  -2.7601
    -2.7601  -2.3263  -2.3263  -2.0675  -2.0284  -2.0284  -1.5329  -1.4218
    -1.4064  -1.4064  -1.2808  -0.9695  -0.9695   4.4577   4.5084   4.7582
     5.4620   5.4620   5.7378   6.0150   6.0150   6.0792

     occupation numbers 
     1.0000   1.0000   1.0000   1.0000   1.0000   1.0000   1.0000   1.0000
     1.0000   1.0000   1.0000   1.0000   1.0000   1.0000   1.0000   1.0000
     1.0000   1.0000   1.0000   1.0000   1.0000   1.0000   1.0000   1.0000
     1.0000   1.0000   1.0000   1.0000   1.0000   1.0000   1.0000   1.0000
     1.0000   1.0000   1.0000   1.0000   1.0000   1.0000   1.0000   1.0000
     1.0000   1.0000   1.0000   1.0000   1.0000   0.0000   0.0000   0.0000
     0.0000   0.0000   0.0000   0.0000   0.0000   0.0000

          k =-0.0884-0.6187 0.6187 ( 40061 PWs)   bands (ev):

   -71.4890 -59.5513 -42.8661 -42.8661 -42.8661 -33.4347 -33.4347 -33.4347
   -29.1661 -16.1966 -16.0916 -16.0669 -16.0664 -16.0544 -16.0131 -12.6113
   -12.6111 -12.6095  -6.5016  -5.8543  -4.9004  -4.8986  -4.8681  -4.8301
    -3.5882  -3.4922  -3.2249  -3.1779  -3.1169  -3.0615  -2.8777  -2.8064
    -2.7978  -2.3851  -2.3599  -2.0994  -2.0396  -2.0066  -1.5864  -1.4197
    -1.3646  -1.3604  -1.2129  -0.9477  -0.9442   4.4520   4.5153   4.7910
     5.5318   5.6908   5.8159   5.9817   6.0909   6.2387

     occupation numbers 
     1.0000   1.0000   1.0000   1.0000   1.0000   1.0000   1.0000   1.0000
     1.0000   1.0000   1.0000   1.0000   1.0000   1.0000   1.0000   1.0000
     1.0000   1.0000   1.0000   1.0000   1.0000   1.0000   1.0000   1.0000
     1.0000   1.0000   1.0000   1.0000   1.0000   1.0000   1.0000   1.0000
     1.0000   1.0000   1.0000   1.0000   1.0000   1.0000   1.0000   1.0000
     1.0000   1.0000   1.0000   1.0000   1.0000   0.0000   0.0000   0.0000
     0.0000   0.0000   0.0000   0.0000   0.0000   0.0000

          k = 0.0000-0.5303 0.5303 ( 40054 PWs)   bands (ev):

   -71.4890 -59.5513 -42.8661 -42.8661 -42.8661 -33.4347 -33.4347 -33.4347
   -29.1661 -16.1914 -16.1067 -16.0694 -16.0615 -16.0417 -16.0185 -12.6115
   -12.6105 -12.6098  -6.4406  -5.9504  -4.8908  -4.8843  -4.8691  -4.8460
    -3.5361  -3.4081  -3.2761  -3.1909  -3.1890  -2.9487  -2.9347  -2.8273
    -2.7625  -2.4228  -2.3611  -2.1991  -1.9766  -1.9273  -1.6753  -1.4770
    -1.3337  -1.2625  -1.1981  -0.9769  -0.9639   4.4626   4.5230   4.8771
     5.3419   5.6118   5.8700   6.0097   6.1080   6.2074

     occupation numbers 
     1.0000   1.0000   1.0000   1.0000   1.0000   1.0000   1.0000   1.0000
     1.0000   1.0000   1.0000   1.0000   1.0000   1.0000   1.0000   1.0000
     1.0000   1.0000   1.0000   1.0000   1.0000   1.0000   1.0000   1.0000
     1.0000   1.0000   1.0000   1.0000   1.0000   1.0000   1.0000   1.0000
     1.0000   1.0000   1.0000   1.0000   1.0000   1.0000   1.0000   1.0000
     1.0000   1.0000   1.0000   1.0000   1.0000   0.0000   0.0000   0.0000
     0.0000   0.0000   0.0000   0.0000   0.0000   0.0000

          k =-0.7071 0.0000 0.0000 ( 40170 PWs)   bands (ev):

   -71.4890 -59.5513 -42.8661 -42.8661 -42.8661 -33.4347 -33.4347 -33.4347
   -29.1661 -16.1955 -16.0752 -16.0696 -16.0690 -16.0690 -16.0111 -12.6112
   -12.6112 -12.6093  -6.5114  -5.8304  -4.9009  -4.9009  -4.8675  -4.8208
    -3.5826  -3.5168  -3.1499  -3.1499  -3.1410  -3.1380  -2.8491  -2.8382
    -2.8382  -2.3802  -2.3802  -2.0749  -2.0429  -2.0429  -1.5333  -1.4181
    -1.3918  -1.3918  -1.1824  -0.9228  -0.9228   4.4405   4.5141   4.7599
     5.7414   5.9502   5.9502   5.9571   5.9571   6.2192

     occupation numbers 
     1.0000   1.0000   1.0000   1.0000   1.0000   1.0000   1.0000   1.0000
     1.0000   1.0000   1.0000   1.0000   1.0000   1.0000   1.0000   1.0000
     1.0000   1.0000   1.0000   1.0000   1.0000   1.0000   1.0000   1.0000
     1.0000   1.0000   1.0000   1.0000   1.0000   1.0000   1.0000   1.0000
     1.0000   1.0000   1.0000   1.0000   1.0000   1.0000   1.0000   1.0000
     1.0000   1.0000   1.0000   1.0000   1.0000   0.0000   0.0000   0.0000
     0.0000   0.0000   0.0000   0.0000   0.0000   0.0000

          k = 0.3536 0.1768 0.0000 ( 40042 PWs)   bands (ev):

   -71.4890 -59.5513 -42.8661 -42.8661 -42.8661 -33.4347 -33.4347 -33.4347
   -29.1660 -16.2228 -16.0921 -16.0683 -16.0553 -16.0321 -16.0154 -12.6124
   -12.6120 -12.6108  -6.6356  -5.6641  -4.9304  -4.9280  -4.8662  -4.8539
    -3.8609  -3.4613  -3.3419  -3.3231  -2.9925  -2.8731  -2.7874  -2.6142
    -2.5938  -2.2687  -2.2573  -2.0508  -1.9857  -1.9112  -1.6091  -1.6020
    -1.4216  -1.3853  -1.2911  -1.1079  -1.1022   4.4874   4.5032   4.8152
     5.0624   5.0794   5.6221   5.7641   5.9373   5.9851

     occupation numbers 
     1.0000   1.0000   1.0000   1.0000   1.0000   1.0000   1.0000   1.0000
     1.0000   1.0000   1.0000   1.0000   1.0000   1.0000   1.0000   1.0000
     1.0000   1.0000   1.0000   1.0000   1.0000   1.0000   1.0000   1.0000
     1.0000   1.0000   1.0000   1.0000   1.0000   1.0000   1.0000   1.0000
     1.0000   1.0000   1.0000   1.0000   1.0000   1.0000   1.0000   1.0000
     1.0000   1.0000   1.0000   1.0000   1.0000   0.0000   0.0000   0.0000
     0.0000   0.0000   0.0000   0.0000   0.0000   0.0000

          k =-0.2652-0.4419 0.6187 ( 40028 PWs)   bands (ev):

   -71.4890 -59.5513 -42.8661 -42.8661 -42.8661 -33.4347 -33.4347 -33.4347
   -29.1660 -16.2052 -16.1085 -16.0655 -16.0517 -16.0361 -16.0206 -12.6120
   -12.6114 -12.6100  -6.5073  -5.8756  -4.9055  -4.9022  -4.8686  -4.8561
    -3.6788  -3.4189  -3.2767  -3.2630  -3.0121  -2.9851  -2.8759  -2.7425
    -2.6793  -2.3498  -2.3384  -2.1251  -1.9388  -1.8808  -1.6769  -1.5816
    -1.3597  -1.3294  -1.1921  -1.0781  -1.0321   4.4890   4.5185   4.9025
     5.1588   5.2679   5.6371   5.9010   5.9677   6.0272

     occupation numbers 
     1.0000   1.0000   1.0000   1.0000   1.0000   1.0000   1.0000   1.0000
     1.0000   1.0000   1.0000   1.0000   1.0000   1.0000   1.0000   1.0000
     1.0000   1.0000   1.0000   1.0000   1.0000   1.0000   1.0000   1.0000
     1.0000   1.0000   1.0000   1.0000   1.0000   1.0000   1.0000   1.0000
     1.0000   1.0000   1.0000   1.0000   1.0000   1.0000   1.0000   1.0000
     1.0000   1.0000   1.0000   1.0000   1.0000   0.0000   0.0000   0.0000
     0.0000   0.0000   0.0000   0.0000   0.0000   0.0000

          k =-0.1768-0.3536 0.5303 ( 40076 PWs)   bands (ev):

   -71.4890 -59.5513 -42.8661 -42.8661 -42.8661 -33.4347 -33.4347 -33.4347
   -29.1660 -16.1955 -16.1182 -16.0596 -16.0571 -16.0313 -16.0265 -12.6118
   -12.6112 -12.6096  -6.4252  -5.9886  -4.8929  -4.8842  -4.8688  -4.8667
    -3.6039  -3.3602  -3.2478  -3.2120  -3.1594  -2.9364  -2.9117  -2.7733
    -2.7601  -2.3852  -2.3733  -2.1520  -1.9081  -1.8542  -1.7258  -1.5802
    -1.3278  -1.3109  -1.1225  -1.0979  -1.0059   4.4902   4.5250   4.9732
     5.1424   5.3977   5.7055   5.8295   5.8530   6.1777

     occupation numbers 
     1.0000   1.0000   1.0000   1.0000   1.0000   1.0000   1.0000   1.0000
     1.0000   1.0000   1.0000   1.0000   1.0000   1.0000   1.0000   1.0000
     1.0000   1.0000   1.0000   1.0000   1.0000   1.0000   1.0000   1.0000
     1.0000   1.0000   1.0000   1.0000   1.0000   1.0000   1.0000   1.0000
     1.0000   1.0000   1.0000   1.0000   1.0000   1.0000   1.0000   1.0000
     1.0000   1.0000   1.0000   1.0000   1.0000   0.0000   0.0000   0.0000
     0.0000   0.0000   0.0000   0.0000   0.0000   0.0000

          k =-0.1768-0.5303 0.7071 ( 40038 PWs)   bands (ev):

   -71.4890 -59.5513 -42.8661 -42.8661 -42.8661 -33.4347 -33.4347 -33.4347
   -29.1660 -16.2019 -16.0975 -16.0688 -16.0593 -16.0456 -16.0152 -12.6116
   -12.6112 -12.6099  -6.5153  -5.8460  -4.9043  -4.9024  -4.8683  -4.8411
    -3.6422  -3.4707  -3.2499  -3.2207  -3.0603  -3.0337  -2.8636  -2.7734
    -2.7407  -2.3547  -2.3376  -2.1231  -1.9971  -1.9791  -1.6214  -1.4711
    -1.3474  -1.3224  -1.2623  -1.0069  -0.9696   4.4679   4.5145   4.8224
     5.3306   5.4724   5.7116   6.0160   6.0335   6.1370

     occupation numbers 
     1.0000   1.0000   1.0000   1.0000   1.0000   1.0000   1.0000   1.0000
     1.0000   1.0000   1.0000   1.0000   1.0000   1.0000   1.0000   1.0000
     1.0000   1.0000   1.0000   1.0000   1.0000   1.0000   1.0000   1.0000
     1.0000   1.0000   1.0000   1.0000   1.0000   1.0000   1.0000   1.0000
     1.0000   1.0000   1.0000   1.0000   1.0000   1.0000   1.0000   1.0000
     1.0000   1.0000   1.0000   1.0000   1.0000   0.0000   0.0000   0.0000
     0.0000   0.0000   0.0000   0.0000   0.0000   0.0000

          k =-0.0884-0.4419 0.6187 ( 40051 PWs)   bands (ev):

   -71.4890 -59.5513 -42.8661 -42.8661 -42.8661 -33.4347 -33.4347 -33.4347
   -29.1661 -16.1921 -16.1079 -16.0665 -16.0651 -16.0370 -16.0205 -12.6114
   -12.6106 -12.6099  -6.4383  -5.9562  -4.8912  -4.8815  -4.8697  -4.8509
    -3.5368  -3.4170  -3.2767  -3.2012  -3.1632  -2.9733  -2.9093  -2.8213
    -2.7583  -2.4010  -2.3673  -2.2070  -1.9676  -1.9098  -1.6991  -1.5044
    -1.3052  -1.2600  -1.1837  -1.0336  -0.9459   4.4661   4.5236   4.9116
     5.2278   5.6674   5.8405   5.9435   6.0367   6.2749

     occupation numbers 
     1.0000   1.0000   1.0000   1.0000   1.0000   1.0000   1.0000   1.0000
     1.0000   1.0000   1.0000   1.0000   1.0000   1.0000   1.0000   1.0000
     1.0000   1.0000   1.0000   1.0000   1.0000   1.0000   1.0000   1.0000
     1.0000   1.0000   1.0000   1.0000   1.0000   1.0000   1.0000   1.0000
     1.0000   1.0000   1.0000   1.0000   1.0000   1.0000   1.0000   1.0000
     1.0000   1.0000   1.0000   1.0000   1.0000   0.0000   0.0000   0.0000
     0.0000   0.0000   0.0000   0.0000   0.0000   0.0000

          k =-0.0000-0.3536 0.5303 ( 40063 PWs)   bands (ev):

   -71.4890 -59.5513 -42.8661 -42.8661 -42.8661 -33.4347 -33.4347 -33.4347
   -29.1661 -16.1937 -16.1114 -16.0691 -16.0583 -16.0312 -16.0250 -12.6116
   -12.6105 -12.6101  -6.4329  -5.9699  -4.8922  -4.8769  -4.8710  -4.8610
    -3.5624  -3.3943  -3.2582  -3.2217  -3.1671  -2.9747  -2.8756  -2.8197
    -2.7306  -2.3966  -2.3700  -2.2119  -1.9379  -1.8655  -1.7297  -1.5438
    -1.3120  -1.2721  -1.1200  -1.0945  -0.9695   4.4742   4.5258   4.9747
     5.1328   5.5017   5.7650   6.0367   6.0475   6.2082

     occupation numbers 
     1.0000   1.0000   1.0000   1.0000   1.0000   1.0000   1.0000   1.0000
     1.0000   1.0000   1.0000   1.0000   1.0000   1.0000   1.0000   1.0000
     1.0000   1.0000   1.0000   1.0000   1.0000   1.0000   1.0000   1.0000
     1.0000   1.0000   1.0000   1.0000   1.0000   1.0000   1.0000   1.0000
     1.0000   1.0000   1.0000   1.0000   1.0000   1.0000   1.0000   1.0000
     1.0000   1.0000   1.0000   1.0000   1.0000   0.0000   0.0000   0.0000
     0.0000   0.0000   0.0000   0.0000   0.0000   0.0000

          k =-0.7071 0.1768 0.0000 ( 40038 PWs)   bands (ev):

   -71.4890 -59.5513 -42.8661 -42.8661 -42.8661 -33.4347 -33.4347 -33.4347
   -29.1661 -16.1925 -16.0958 -16.0696 -16.0690 -16.0475 -16.0150 -12.6112
   -12.6109 -12.6095  -6.4712  -5.8991  -4.8943  -4.8902  -4.8688  -4.8334
    -3.5195  -3.4914  -3.2585  -3.1806  -3.1408  -3.0225  -2.8969  -2.8489
    -2.7809  -2.3982  -2.3793  -2.1462  -2.0140  -1.9906  -1.6264  -1.4480
    -1.3341  -1.3031  -1.1944  -0.9703  -0.9229   4.4509   4.5193   4.8248
     5.4204   5.9466   5.9515   5.9577   6.1023   6.2082

     occupation numbers 
     1.0000   1.0000   1.0000   1.0000   1.0000   1.0000   1.0000   1.0000
     1.0000   1.0000   1.0000   1.0000   1.0000   1.0000   1.0000   1.0000
     1.0000   1.0000   1.0000   1.0000   1.0000   1.0000   1.0000   1.0000
     1.0000   1.0000   1.0000   1.0000   1.0000   1.0000   1.0000   1.0000
     1.0000   1.0000   1.0000   1.0000   1.0000   1.0000   1.0000   1.0000
     1.0000   1.0000   1.0000   1.0000   1.0000   0.0000   0.0000   0.0000
     0.0000   0.0000   0.0000   0.0000   0.0000   0.0000

          k =-0.7071 0.3536 0.0000 ( 39932 PWs)   bands (ev):

   -71.4890 -59.5513 -42.8661 -42.8661 -42.8661 -33.4347 -33.4347 -33.4347
   -29.1661 -16.1890 -16.1065 -16.0696 -16.0690 -16.0313 -16.0239 -12.6112
   -12.6102 -12.6102  -6.4207  -5.9766  -4.8878  -4.8707  -4.8670  -4.8587
    -3.4523  -3.4419  -3.3264  -3.2269  -3.1408  -2.9454  -2.9152  -2.8735
    -2.7525  -2.3962  -2.3783  -2.2475  -1.9762  -1.8793  -1.7369  -1.5133
    -1.2623  -1.2519  -1.1193  -1.0889  -0.9230   4.4597   4.5260   4.9704
     5.1331   5.9429   5.9528   5.9582   6.1872   6.1902

     occupation numbers 
     1.0000   1.0000   1.0000   1.0000   1.0000   1.0000   1.0000   1.0000
     1.0000   1.0000   1.0000   1.0000   1.0000   1.0000   1.0000   1.0000
     1.0000   1.0000   1.0000   1.0000   1.0000   1.0000   1.0000   1.0000
     1.0000   1.0000   1.0000   1.0000   1.0000   1.0000   1.0000   1.0000
     1.0000   1.0000   1.0000   1.0000   1.0000   1.0000   1.0000   1.0000
     1.0000   1.0000   1.0000   1.0000   1.0000   0.0000   0.0000   0.0000
     0.0000   0.0000   0.0000   0.0000   0.0000   0.0000

 ------ SPIN DOWN ----------


          k = 0.0000 0.0000 0.0000 ( 39957 PWs)   bands (ev):

   -68.5171 -62.1124 -39.8548 -39.8548 -39.8548 -36.0029 -36.0029 -36.0029
   -29.1664 -16.2239 -16.0321 -16.0321 -16.0321 -15.9715 -15.9715 -12.6134
   -12.6134 -12.6134  -6.8694  -5.0245  -5.0245  -5.0245  -4.8032  -4.8032
    -4.5163  -3.1787  -3.1787  -3.1787  -2.4353  -2.4353  -2.3534  -2.3534
    -2.3534  -2.0027  -2.0027  -2.0027  -1.8539  -1.8539  -1.8539  -1.4988
    -1.4988  -1.4988   0.5992   0.5992   0.5992   3.9324   3.9324   3.9324
     5.2081   5.7020   5.7020   5.7020   5.8356   5.8356

     occupation numbers 
     1.0000   1.0000   1.0000   1.0000   1.0000   1.0000   1.0000   1.0000
     1.0000   1.0000   1.0000   1.0000   1.0000   1.0000   1.0000   1.0000
     1.0000   1.0000   1.0000   1.0000   1.0000   1.0000   1.0000   1.0000
     1.0000   1.0000   1.0000   1.0000   1.0000   1.0000   1.0000   1.0000
     1.0000   1.0000   1.0000   1.0000   1.0000   1.0000   1.0000   1.0000
     1.0000   1.0000   1.0000   1.0000   1.0000   0.0000   0.0000   0.0000
     0.0000   0.0000   0.0000   0.0000   0.0000   0.0000

          k = 0.0884 0.0884-0.0884 ( 40023 PWs)   bands (ev):

   -68.5171 -62.1124 -39.8548 -39.8548 -39.8548 -36.0029 -36.0028 -36.0028
   -29.1664 -16.2180 -16.0387 -16.0299 -16.0299 -15.9737 -15.9737 -12.6132
   -12.6132 -12.6128  -6.8284  -5.2353  -5.0138  -5.0138  -4.8038  -4.8038
    -4.3143  -3.1838  -3.1566  -3.1566  -2.5059  -2.5059  -2.3684  -2.3299
    -2.3299  -2.0484  -2.0484  -1.9872  -1.8957  -1.8518  -1.8518  -1.5180
    -1.4712  -1.4712   0.6498   0.6516   0.6516   3.8784   3.8996   3.8996
     5.2860   5.7073   5.7073   5.7506   5.9115   5.9115

     occupation numbers 
     1.0000   1.0000   1.0000   1.0000   1.0000   1.0000   1.0000   1.0000
     1.0000   1.0000   1.0000   1.0000   1.0000   1.0000   1.0000   1.0000
     1.0000   1.0000   1.0000   1.0000   1.0000   1.0000   1.0000   1.0000
     1.0000   1.0000   1.0000   1.0000   1.0000   1.0000   1.0000   1.0000
     1.0000   1.0000   1.0000   1.0000   1.0000   1.0000   1.0000   1.0000
     1.0000   1.0000   1.0000   1.0000   1.0000   0.0000   0.0000   0.0000
     0.0000   0.0000   0.0000   0.0000   0.0000   0.0000

          k = 0.1768 0.1768-0.1768 ( 40014 PWs)   bands (ev):

   -68.5171 -62.1124 -39.8548 -39.8548 -39.8548 -36.0029 -36.0028 -36.0028
   -29.1663 -16.2018 -16.0567 -16.0238 -16.0238 -15.9800 -15.9800 -12.6129
   -12.6129 -12.6115  -6.7080  -5.5801  -4.9860  -4.9860  -4.8068  -4.8068
    -3.9970  -3.2084  -3.0956  -3.0956  -2.6013  -2.6013  -2.4014  -2.3613
    -2.3613  -2.1707  -2.1707  -1.9996  -1.9433  -1.8054  -1.8054  -1.5706
    -1.4249  -1.4249   0.7730   0.7764   0.7764   3.7500   3.8183   3.8183
     5.4933   5.7753   5.7753   5.8757   6.0559   6.0559

     occupation numbers 
     1.0000   1.0000   1.0000   1.0000   1.0000   1.0000   1.0000   1.0000
     1.0000   1.0000   1.0000   1.0000   1.0000   1.0000   1.0000   1.0000
     1.0000   1.0000   1.0000   1.0000   1.0000   1.0000   1.0000   1.0000
     1.0000   1.0000   1.0000   1.0000   1.0000   1.0000   1.0000   1.0000
     1.0000   1.0000   1.0000   1.0000   1.0000   1.0000   1.0000   1.0000
     1.0000   1.0000   1.0000   1.0000   1.0000   0.0000   0.0000   0.0000
     0.0000   0.0000   0.0000   0.0000   0.0000   0.0000

          k = 0.2652 0.2652-0.2652 ( 40026 PWs)   bands (ev):

   -68.5171 -62.1124 -39.8548 -39.8548 -39.8548 -36.0029 -36.0028 -36.0028
   -29.1663 -16.1799 -16.0802 -16.0150 -16.0150 -15.9890 -15.9890 -12.6125
   -12.6125 -12.6101  -6.5174  -5.9189  -4.9542  -4.9542  -4.8134  -4.8134
    -3.7099  -3.2751  -3.0176  -3.0176  -2.6632  -2.6632  -2.4374  -2.4374
    -2.4253  -2.2977  -2.2977  -2.1127  -1.8820  -1.7355  -1.7355  -1.6406
    -1.3986  -1.3986   0.8989   0.9001   0.9001   3.6214   3.7333   3.7333
     5.7261   5.9103   5.9103   6.0486   6.1499   6.1499

     occupation numbers 
     1.0000   1.0000   1.0000   1.0000   1.0000   1.0000   1.0000   1.0000
     1.0000   1.0000   1.0000   1.0000   1.0000   1.0000   1.0000   1.0000
     1.0000   1.0000   1.0000   1.0000   1.0000   1.0000   1.0000   1.0000
     1.0000   1.0000   1.0000   1.0000   1.0000   1.0000   1.0000   1.0000
     1.0000   1.0000   1.0000   1.0000   1.0000   1.0000   1.0000   1.0000
     1.0000   1.0000   1.0000   1.0000   1.0000   0.0000   0.0000   0.0000
     0.0000   0.0000   0.0000   0.0000   0.0000   0.0000

          k =-0.3536-0.3536 0.3536 ( 40094 PWs)   bands (ev):

   -68.5171 -62.1124 -39.8548 -39.8548 -39.8548 -36.0029 -36.0028 -36.0028
   -29.1663 -16.1670 -16.0938 -16.0084 -16.0084 -15.9956 -15.9956 -12.6124
   -12.6124 -12.6095  -6.3306  -6.1566  -4.9390  -4.9390  -4.8179  -4.8179
    -3.5467  -3.3567  -2.9773  -2.9773  -2.6773  -2.6773  -2.4899  -2.4899
    -2.4293  -2.3462  -2.3462  -2.1654  -1.8421  -1.7028  -1.7028  -1.6841
    -1.3931  -1.3931   0.9514   0.9514   0.9524   3.5673   3.6968   3.6968
     5.8202   6.0180   6.0180   6.1338   6.1338   6.1710

     occupation numbers 
     1.0000   1.0000   1.0000   1.0000   1.0000   1.0000   1.0000   1.0000
     1.0000   1.0000   1.0000   1.0000   1.0000   1.0000   1.0000   1.0000
     1.0000   1.0000   1.0000   1.0000   1.0000   1.0000   1.0000   1.0000
     1.0000   1.0000   1.0000   1.0000   1.0000   1.0000   1.0000   1.0000
     1.0000   1.0000   1.0000   1.0000   1.0000   1.0000   1.0000   1.0000
     1.0000   1.0000   1.0000   1.0000   1.0000   0.0000   0.0000   0.0000
     0.0000   0.0000   0.0000   0.0000   0.0000   0.0000

          k = 0.1768 0.0000 0.0000 ( 40009 PWs)   bands (ev):

   -68.5171 -62.1124 -39.8548 -39.8548 -39.8548 -36.0029 -36.0029 -36.0028
   -29.1664 -16.2162 -16.0345 -16.0324 -16.0324 -15.9776 -15.9714 -12.6131
   -12.6131 -12.6128  -6.8163  -5.2713  -5.0140  -5.0140  -4.8089  -4.8036
    -4.2679  -3.1837  -3.1497  -3.1497  -2.5887  -2.4347  -2.3555  -2.3555
    -2.3428  -2.0598  -2.0598  -2.0102  -1.9142  -1.9142  -1.7575  -1.4993
    -1.4744  -1.4744   0.5995   0.6978   0.6978   3.8654   3.8654   3.9343
     5.3108   5.6308   5.7962   5.7962   5.8431   5.9590

     occupation numbers 
     1.0000   1.0000   1.0000   1.0000   1.0000   1.0000   1.0000   1.0000
     1.0000   1.0000   1.0000   1.0000   1.0000   1.0000   1.0000   1.0000
     1.0000   1.0000   1.0000   1.0000   1.0000   1.0000   1.0000   1.0000
     1.0000   1.0000   1.0000   1.0000   1.0000   1.0000   1.0000   1.0000
     1.0000   1.0000   1.0000   1.0000   1.0000   1.0000   1.0000   1.0000
     1.0000   1.0000   1.0000   1.0000   1.0000   0.0000   0.0000   0.0000
     0.0000   0.0000   0.0000   0.0000   0.0000   0.0000

          k = 0.2652 0.0884-0.0884 ( 40035 PWs)   bands (ev):

   -68.5171 -62.1124 -39.8548 -39.8548 -39.8548 -36.0029 -36.0028 -36.0028
   -29.1663 -16.2036 -16.0481 -16.0304 -16.0251 -15.9854 -15.9735 -12.6128
   -12.6127 -12.6118  -6.7274  -5.5221  -4.9950  -4.9909  -4.8146  -4.8050
    -4.0299  -3.1942  -3.1059  -3.1024  -2.6915  -2.4963  -2.4015  -2.3703
    -2.3459  -2.1842  -2.1532  -1.9829  -1.9799  -1.9162  -1.6710  -1.5384
    -1.4428  -1.4239   0.6516   0.8102   0.8104   3.7858   3.8050   3.9011
     5.4684   5.6717   5.8138   5.8888   5.9712   6.0489

     occupation numbers 
     1.0000   1.0000   1.0000   1.0000   1.0000   1.0000   1.0000   1.0000
     1.0000   1.0000   1.0000   1.0000   1.0000   1.0000   1.0000   1.0000
     1.0000   1.0000   1.0000   1.0000   1.0000   1.0000   1.0000   1.0000
     1.0000   1.0000   1.0000   1.0000   1.0000   1.0000   1.0000   1.0000
     1.0000   1.0000   1.0000   1.0000   1.0000   1.0000   1.0000   1.0000
     1.0000   1.0000   1.0000   1.0000   1.0000   0.0000   0.0000   0.0000
     0.0000   0.0000   0.0000   0.0000   0.0000   0.0000

          k = 0.3536 0.1768-0.1768 ( 40059 PWs)   bands (ev):

   -68.5171 -62.1124 -39.8548 -39.8548 -39.8548 -36.0029 -36.0028 -36.0028
   -29.1663 -16.1836 -16.0701 -16.0244 -16.0153 -15.9951 -15.9796 -12.6124
   -12.6124 -12.6105  -6.5684  -5.8281  -4.9649  -4.9566  -4.8218  -4.8098
    -3.7624  -3.2353  -3.0458  -3.0301  -2.7561  -2.5750  -2.4703  -2.4190
    -2.3983  -2.3042  -2.2656  -2.0964  -1.9177  -1.8488  -1.6168  -1.6094
    -1.4044  -1.3782   0.7759   0.9227   0.9230   3.6848   3.7496   3.8170
     5.6766   5.8460   5.8773   6.0088   6.1140   6.1241

     occupation numbers 
     1.0000   1.0000   1.0000   1.0000   1.0000   1.0000   1.0000   1.0000
     1.0000   1.0000   1.0000   1.0000   1.0000   1.0000   1.0000   1.0000
     1.0000   1.0000   1.0000   1.0000   1.0000   1.0000   1.0000   1.0000
     1.0000   1.0000   1.0000   1.0000   1.0000   1.0000   1.0000   1.0000
     1.0000   1.0000   1.0000   1.0000   1.0000   1.0000   1.0000   1.0000
     1.0000   1.0000   1.0000   1.0000   1.0000   0.0000   0.0000   0.0000
     0.0000   0.0000   0.0000   0.0000   0.0000   0.0000

          k =-0.2652-0.4419 0.4419 ( 40040 PWs)   bands (ev):

   -68.5171 -62.1124 -39.8548 -39.8548 -39.8548 -36.0029 -36.0028 -36.0028
   -29.1663 -16.1661 -16.0890 -16.0156 -16.0126 -15.9976 -15.9886 -12.6122
   -12.6120 -12.6097  -6.3668  -6.1045  -4.9403  -4.9340  -4.8291  -4.8161
    -3.5541  -3.3214  -3.0115  -2.9683  -2.7404  -2.6554  -2.5148  -2.5018
    -2.4056  -2.3400  -2.3399  -2.1982  -1.8566  -1.7661  -1.6740  -1.6277
    -1.3691  -1.3662   0.9000   0.9698   0.9700   3.6202   3.7345   3.7345
     5.8221   5.9805   5.9967   6.0882   6.1311   6.1878

     occupation numbers 
     1.0000   1.0000   1.0000   1.0000   1.0000   1.0000   1.0000   1.0000
     1.0000   1.0000   1.0000   1.0000   1.0000   1.0000   1.0000   1.0000
     1.0000   1.0000   1.0000   1.0000   1.0000   1.0000   1.0000   1.0000
     1.0000   1.0000   1.0000   1.0000   1.0000   1.0000   1.0000   1.0000
     1.0000   1.0000   1.0000   1.0000   1.0000   1.0000   1.0000   1.0000
     1.0000   1.0000   1.0000   1.0000   1.0000   0.0000   0.0000   0.0000
     0.0000   0.0000   0.0000   0.0000   0.0000   0.0000

          k =-0.1768-0.3536 0.3536 ( 40010 PWs)   bands (ev):

   -68.5171 -62.1124 -39.8548 -39.8548 -39.8548 -36.0029 -36.0028 -36.0028
   -29.1663 -16.1704 -16.0848 -16.0215 -16.0084 -15.9956 -15.9883 -12.6124
   -12.6120 -12.6099  -6.4269  -6.0323  -4.9440  -4.9404  -4.8249  -4.8158
    -3.6078  -3.2893  -3.0345  -2.9715  -2.7237  -2.6664  -2.4936  -2.4806
    -2.4055  -2.3438  -2.2937  -2.2023  -1.8682  -1.7159  -1.6945  -1.6608
    -1.3928  -1.3496   0.9216   0.9246   0.9519   3.6207   3.7159   3.7729
     5.7940   5.9351   5.9624   6.0945   6.1190   6.1847

     occupation numbers 
     1.0000   1.0000   1.0000   1.0000   1.0000   1.0000   1.0000   1.0000
     1.0000   1.0000   1.0000   1.0000   1.0000   1.0000   1.0000   1.0000
     1.0000   1.0000   1.0000   1.0000   1.0000   1.0000   1.0000   1.0000
     1.0000   1.0000   1.0000   1.0000   1.0000   1.0000   1.0000   1.0000
     1.0000   1.0000   1.0000   1.0000   1.0000   1.0000   1.0000   1.0000
     1.0000   1.0000   1.0000   1.0000   1.0000   0.0000   0.0000   0.0000
     0.0000   0.0000   0.0000   0.0000   0.0000   0.0000

          k =-0.0884-0.2652 0.2652 ( 40013 PWs)   bands (ev):

   -68.5171 -62.1124 -39.8548 -39.8548 -39.8548 -36.0029 -36.0028 -36.0028
   -29.1663 -16.1906 -16.0638 -16.0294 -16.0146 -15.9893 -15.9797 -12.6127
   -12.6123 -12.6109  -6.6235  -5.7393  -4.9754  -4.9648  -4.8150  -4.8097
    -3.8459  -3.2124  -3.0846  -3.0467  -2.6964  -2.6042  -2.4200  -2.3971
    -2.3848  -2.2865  -2.1813  -2.1116  -1.9305  -1.7771  -1.7233  -1.5953
    -1.4279  -1.3727   0.8079   0.8135   0.8994   3.6859   3.7703   3.8392
     5.6195   5.7785   5.8349   5.9776   6.0888   6.1190

     occupation numbers 
     1.0000   1.0000   1.0000   1.0000   1.0000   1.0000   1.0000   1.0000
     1.0000   1.0000   1.0000   1.0000   1.0000   1.0000   1.0000   1.0000
     1.0000   1.0000   1.0000   1.0000   1.0000   1.0000   1.0000   1.0000
     1.0000   1.0000   1.0000   1.0000   1.0000   1.0000   1.0000   1.0000
     1.0000   1.0000   1.0000   1.0000   1.0000   1.0000   1.0000   1.0000
     1.0000   1.0000   1.0000   1.0000   1.0000   0.0000   0.0000   0.0000
     0.0000   0.0000   0.0000   0.0000   0.0000   0.0000

          k = 0.0000-0.1768 0.1768 ( 40006 PWs)   bands (ev):

   -68.5171 -62.1124 -39.8548 -39.8548 -39.8548 -36.0029 -36.0028 -36.0028
   -29.1663 -16.2088 -16.0457 -16.0326 -16.0236 -15.9802 -15.9745 -12.6131
   -12.6128 -12.6121  -6.7625  -5.4422  -5.0035  -4.9946  -4.8078  -4.8054
    -4.1151  -3.1883  -3.1300  -3.1199  -2.6115  -2.5331  -2.3603  -2.3538
    -2.3496  -2.1539  -2.0796  -1.9952  -1.9760  -1.8362  -1.7825  -1.5382
    -1.4600  -1.4255   0.6960   0.7003   0.7750   3.7932   3.8445   3.8906
     5.4065   5.6933   5.7393   5.8932   5.9272   6.0267

     occupation numbers 
     1.0000   1.0000   1.0000   1.0000   1.0000   1.0000   1.0000   1.0000
     1.0000   1.0000   1.0000   1.0000   1.0000   1.0000   1.0000   1.0000
     1.0000   1.0000   1.0000   1.0000   1.0000   1.0000   1.0000   1.0000
     1.0000   1.0000   1.0000   1.0000   1.0000   1.0000   1.0000   1.0000
     1.0000   1.0000   1.0000   1.0000   1.0000   1.0000   1.0000   1.0000
     1.0000   1.0000   1.0000   1.0000   1.0000   0.0000   0.0000   0.0000
     0.0000   0.0000   0.0000   0.0000   0.0000   0.0000

          k = 0.3536 0.0000 0.0000 ( 40046 PWs)   bands (ev):

   -68.5171 -62.1124 -39.8548 -39.8548 -39.8548 -36.0029 -36.0029 -36.0028
   -29.1663 -16.1956 -16.0398 -16.0330 -16.0330 -15.9947 -15.9710 -12.6124
   -12.6124 -12.6115  -6.6808  -5.5998  -4.9878  -4.9878  -4.8288  -4.8043
    -3.9231  -3.1980  -3.0687  -3.0687  -2.8119  -2.4776  -2.4331  -2.3740
    -2.3740  -2.2423  -2.2423  -2.0284  -1.9726  -1.9726  -1.5158  -1.5004
    -1.4333  -1.4333   0.6004   0.8946   0.8946   3.8029   3.8029   3.9391
     5.5220   5.6905   5.8595   5.9479   5.9479   6.0458

     occupation numbers 
     1.0000   1.0000   1.0000   1.0000   1.0000   1.0000   1.0000   1.0000
     1.0000   1.0000   1.0000   1.0000   1.0000   1.0000   1.0000   1.0000
     1.0000   1.0000   1.0000   1.0000   1.0000   1.0000   1.0000   1.0000
     1.0000   1.0000   1.0000   1.0000   1.0000   1.0000   1.0000   1.0000
     1.0000   1.0000   1.0000   1.0000   1.0000   1.0000   1.0000   1.0000
     1.0000   1.0000   1.0000   1.0000   1.0000   0.0000   0.0000   0.0000
     0.0000   0.0000   0.0000   0.0000   0.0000   0.0000

          k = 0.4419 0.0884-0.0884 ( 40048 PWs)   bands (ev):

   -68.5171 -62.1124 -39.8548 -39.8548 -39.8548 -36.0029 -36.0028 -36.0028
   -29.1663 -16.1801 -16.0560 -16.0311 -16.0232 -16.0054 -15.9731 -12.6120
   -12.6119 -12.6106  -6.5734  -5.7866  -4.9672  -4.9607  -4.8409  -4.8064
    -3.7399  -3.2130  -3.0374  -3.0058  -2.8845  -2.5562  -2.4797  -2.4464
    -2.4231  -2.3137  -2.3125  -2.0309  -1.9922  -1.9574  -1.5515  -1.4616
    -1.3832  -1.3685   0.6525   0.9786   0.9787   3.7903   3.8114   3.9063
     5.6180   5.8658   5.8866   6.0036   6.0524   6.0579

     occupation numbers 
     1.0000   1.0000   1.0000   1.0000   1.0000   1.0000   1.0000   1.0000
     1.0000   1.0000   1.0000   1.0000   1.0000   1.0000   1.0000   1.0000
     1.0000   1.0000   1.0000   1.0000   1.0000   1.0000   1.0000   1.0000
     1.0000   1.0000   1.0000   1.0000   1.0000   1.0000   1.0000   1.0000
     1.0000   1.0000   1.0000   1.0000   1.0000   1.0000   1.0000   1.0000
     1.0000   1.0000   1.0000   1.0000   1.0000   0.0000   0.0000   0.0000
     0.0000   0.0000   0.0000   0.0000   0.0000   0.0000

          k =-0.1768-0.5303 0.5303 ( 40037 PWs)   bands (ev):

   -68.5171 -62.1124 -39.8548 -39.8548 -39.8548 -36.0029 -36.0028 -36.0028
   -29.1663 -16.1634 -16.0758 -16.0250 -16.0218 -16.0050 -15.9793 -12.6119
   -12.6114 -12.6100  -6.4208  -6.0093  -4.9435  -4.9258  -4.8554  -4.8116
    -3.5541  -3.2624  -3.0668  -2.9386  -2.8466  -2.6183  -2.5909  -2.5021
    -2.4596  -2.3433  -2.3433  -2.1414  -1.9114  -1.8805  -1.6368  -1.5059
    -1.3446  -1.2933   0.7766   1.0134   1.0138   3.7537   3.8255   3.8294
     5.7802   5.9173   5.9846   6.0152   6.1028   6.2032

     occupation numbers 
     1.0000   1.0000   1.0000   1.0000   1.0000   1.0000   1.0000   1.0000
     1.0000   1.0000   1.0000   1.0000   1.0000   1.0000   1.0000   1.0000
     1.0000   1.0000   1.0000   1.0000   1.0000   1.0000   1.0000   1.0000
     1.0000   1.0000   1.0000   1.0000   1.0000   1.0000   1.0000   1.0000
     1.0000   1.0000   1.0000   1.0000   1.0000   1.0000   1.0000   1.0000
     1.0000   1.0000   1.0000   1.0000   1.0000   0.0000   0.0000   0.0000
     0.0000   0.0000   0.0000   0.0000   0.0000   0.0000

          k =-0.0884-0.4419 0.4419 ( 40068 PWs)   bands (ev):

   -68.5171 -62.1124 -39.8548 -39.8548 -39.8548 -36.0029 -36.0028 -36.0028
   -29.1663 -16.1593 -16.0830 -16.0302 -16.0159 -15.9936 -15.9883 -12.6120
   -12.6111 -12.6100  -6.3333  -6.1228  -4.9319  -4.9218  -4.8532  -4.8157
    -3.5041  -3.2727  -3.1043  -2.9055  -2.7624  -2.7494  -2.5635  -2.5040
    -2.4194  -2.3597  -2.3185  -2.2418  -1.8626  -1.7874  -1.6866  -1.5885
    -1.3506  -1.2741   0.9002   0.9775   0.9807   3.6903   3.7720   3.8488
     5.8447   5.9407   5.9753   6.0444   6.0492   6.2738

     occupation numbers 
     1.0000   1.0000   1.0000   1.0000   1.0000   1.0000   1.0000   1.0000
     1.0000   1.0000   1.0000   1.0000   1.0000   1.0000   1.0000   1.0000
     1.0000   1.0000   1.0000   1.0000   1.0000   1.0000   1.0000   1.0000
     1.0000   1.0000   1.0000   1.0000   1.0000   1.0000   1.0000   1.0000
     1.0000   1.0000   1.0000   1.0000   1.0000   1.0000   1.0000   1.0000
     1.0000   1.0000   1.0000   1.0000   1.0000   0.0000   0.0000   0.0000
     0.0000   0.0000   0.0000   0.0000   0.0000   0.0000

          k = 0.0000-0.3536 0.3536 ( 40038 PWs)   bands (ev):

   -68.5171 -62.1124 -39.8548 -39.8548 -39.8548 -36.0029 -36.0028 -36.0028
   -29.1663 -16.1733 -16.0737 -16.0337 -16.0085 -15.9956 -15.9844 -12.6124
   -12.6114 -12.6105  -6.4829  -5.9466  -4.9503  -4.9418  -4.8321  -4.8138
    -3.6553  -3.2073  -3.1157  -2.9644  -2.7619  -2.6619  -2.4898  -2.4766
    -2.3860  -2.3418  -2.2414  -2.2364  -1.8974  -1.7206  -1.6865  -1.6468
    -1.3925  -1.3092   0.8920   0.8983   0.9519   3.6508   3.7617   3.8538
     5.7546   5.8352   5.9403   6.0332   6.1124   6.1883

     occupation numbers 
     1.0000   1.0000   1.0000   1.0000   1.0000   1.0000   1.0000   1.0000
     1.0000   1.0000   1.0000   1.0000   1.0000   1.0000   1.0000   1.0000
     1.0000   1.0000   1.0000   1.0000   1.0000   1.0000   1.0000   1.0000
     1.0000   1.0000   1.0000   1.0000   1.0000   1.0000   1.0000   1.0000
     1.0000   1.0000   1.0000   1.0000   1.0000   1.0000   1.0000   1.0000
     1.0000   1.0000   1.0000   1.0000   1.0000   0.0000   0.0000   0.0000
     0.0000   0.0000   0.0000   0.0000   0.0000   0.0000

          k = 0.5303 0.0000 0.0000 ( 40022 PWs)   bands (ev):

   -68.5171 -62.1124 -39.8548 -39.8548 -39.8548 -36.0029 -36.0029 -36.0028
   -29.1663 -16.1709 -16.0434 -16.0337 -16.0337 -16.0178 -15.9707 -12.6117
   -12.6117 -12.6101  -6.5341  -5.8196  -4.9600  -4.9600  -4.8546  -4.8051
    -3.6525  -3.2292  -3.0137  -2.9522  -2.9522  -2.6410  -2.5240  -2.5240
    -2.4314  -2.3212  -2.3212  -2.0466  -2.0074  -2.0074  -1.5016  -1.4016
    -1.4016  -1.2783   0.6013   1.0342   1.0342   3.8858   3.8858   3.9440
     5.5992   5.8740   5.9655   6.0283   6.0283   6.0573

     occupation numbers 
     1.0000   1.0000   1.0000   1.0000   1.0000   1.0000   1.0000   1.0000
     1.0000   1.0000   1.0000   1.0000   1.0000   1.0000   1.0000   1.0000
     1.0000   1.0000   1.0000   1.0000   1.0000   1.0000   1.0000   1.0000
     1.0000   1.0000   1.0000   1.0000   1.0000   1.0000   1.0000   1.0000
     1.0000   1.0000   1.0000   1.0000   1.0000   1.0000   1.0000   1.0000
     1.0000   1.0000   1.0000   1.0000   1.0000   0.0000   0.0000   0.0000
     0.0000   0.0000   0.0000   0.0000   0.0000   0.0000

          k =-0.0884-0.6187 0.6187 ( 40061 PWs)   bands (ev):

   -68.5171 -62.1124 -39.8548 -39.8548 -39.8548 -36.0029 -36.0028 -36.0028
   -29.1662 -16.1601 -16.0574 -16.0316 -16.0308 -16.0185 -15.9728 -12.6115
   -12.6113 -12.6098  -6.4580  -5.9261  -4.9467  -4.9354  -4.8691  -4.8073
    -3.5362  -3.2605  -3.0817  -2.8918  -2.8887  -2.6743  -2.6289  -2.5836
    -2.4552  -2.3436  -2.3275  -2.0567  -2.0019  -1.9788  -1.5587  -1.4205
    -1.3597  -1.2134   0.6532   1.0570   1.0573   3.8968   3.9200   3.9308
     5.6895   5.8828   5.9230   6.0179   6.0501   6.2210

     occupation numbers 
     1.0000   1.0000   1.0000   1.0000   1.0000   1.0000   1.0000   1.0000
     1.0000   1.0000   1.0000   1.0000   1.0000   1.0000   1.0000   1.0000
     1.0000   1.0000   1.0000   1.0000   1.0000   1.0000   1.0000   1.0000
     1.0000   1.0000   1.0000   1.0000   1.0000   1.0000   1.0000   1.0000
     1.0000   1.0000   1.0000   1.0000   1.0000   1.0000   1.0000   1.0000
     1.0000   1.0000   1.0000   1.0000   1.0000   0.0000   0.0000   0.0000
     0.0000   0.0000   0.0000   0.0000   0.0000   0.0000

          k = 0.0000-0.5303 0.5303 ( 40054 PWs)   bands (ev):

   -68.5171 -62.1124 -39.8548 -39.8548 -39.8548 -36.0029 -36.0028 -36.0028
   -29.1662 -16.1545 -16.0735 -16.0344 -16.0253 -16.0044 -15.9791 -12.6116
   -12.6107 -12.6101  -6.3640  -6.0629  -4.9347  -4.8965  -4.8902  -4.8119
    -3.4603  -3.2791  -3.1183  -2.8645  -2.8520  -2.7210  -2.6323  -2.5365
    -2.4887  -2.3537  -2.3339  -2.1567  -1.9124  -1.8905  -1.6473  -1.4892
    -1.3322  -1.2159   0.7769   1.0335   1.0353   3.8032   3.8588   3.9160
     5.8532   5.9003   5.9195   5.9943   6.0091   6.2510

     occupation numbers 
     1.0000   1.0000   1.0000   1.0000   1.0000   1.0000   1.0000   1.0000
     1.0000   1.0000   1.0000   1.0000   1.0000   1.0000   1.0000   1.0000
     1.0000   1.0000   1.0000   1.0000   1.0000   1.0000   1.0000   1.0000
     1.0000   1.0000   1.0000   1.0000   1.0000   1.0000   1.0000   1.0000
     1.0000   1.0000   1.0000   1.0000   1.0000   1.0000   1.0000   1.0000
     1.0000   1.0000   1.0000   1.0000   1.0000   0.0000   0.0000   0.0000
     0.0000   0.0000   0.0000   0.0000   0.0000   0.0000

          k =-0.7071 0.0000 0.0000 ( 40170 PWs)   bands (ev):

   -68.5171 -62.1123 -39.8548 -39.8548 -39.8548 -36.0029 -36.0029 -36.0029
   -29.1662 -16.1586 -16.0399 -16.0346 -16.0340 -16.0340 -15.9706 -12.6114
   -12.6114 -12.6095  -6.4709  -5.8922  -4.9480  -4.9480  -4.8680  -4.8055
    -3.5229  -3.2782  -3.0890  -2.8621  -2.8621  -2.7129  -2.6514  -2.6514
    -2.4306  -2.3250  -2.3250  -2.0541  -2.0210  -2.0210  -1.5020  -1.3899
    -1.3899  -1.1799   0.6016   1.0751   1.0751   3.9461   3.9751   3.9751
     5.6383   5.8795   5.8973   6.0208   6.0208   6.1578

     occupation numbers 
     1.0000   1.0000   1.0000   1.0000   1.0000   1.0000   1.0000   1.0000
     1.0000   1.0000   1.0000   1.0000   1.0000   1.0000   1.0000   1.0000
     1.0000   1.0000   1.0000   1.0000   1.0000   1.0000   1.0000   1.0000
     1.0000   1.0000   1.0000   1.0000   1.0000   1.0000   1.0000   1.0000
     1.0000   1.0000   1.0000   1.0000   1.0000   1.0000   1.0000   1.0000
     1.0000   1.0000   1.0000   1.0000   1.0000   0.0000   0.0000   0.0000
     0.0000   0.0000   0.0000   0.0000   0.0000   0.0000

          k = 0.3536 0.1768 0.0000 ( 40042 PWs)   bands (ev):

   -68.5171 -62.1124 -39.8548 -39.8548 -39.8548 -36.0029 -36.0028 -36.0028
   -29.1663 -16.1893 -16.0573 -16.0332 -16.0177 -15.9949 -15.9754 -12.6125
   -12.6121 -12.6110  -6.6249  -5.7213  -4.9771  -4.9666  -4.8255  -4.8072
    -3.8368  -3.1996  -3.0838  -3.0397  -2.7825  -2.5321  -2.4716  -2.3910
    -2.3773  -2.2942  -2.2426  -2.0552  -1.9608  -1.8937  -1.5845  -1.5680
    -1.4202  -1.3736   0.6988   0.8948   0.9227   3.7238   3.7917   3.8850
     5.6055   5.7656   5.8391   5.9869   6.0507   6.0930

     occupation numbers 
     1.0000   1.0000   1.0000   1.0000   1.0000   1.0000   1.0000   1.0000
     1.0000   1.0000   1.0000   1.0000   1.0000   1.0000   1.0000   1.0000
     1.0000   1.0000   1.0000   1.0000   1.0000   1.0000   1.0000   1.0000
     1.0000   1.0000   1.0000   1.0000   1.0000   1.0000   1.0000   1.0000
     1.0000   1.0000   1.0000   1.0000   1.0000   1.0000   1.0000   1.0000
     1.0000   1.0000   1.0000   1.0000   1.0000   0.0000   0.0000   0.0000
     0.0000   0.0000   0.0000   0.0000   0.0000   0.0000

          k =-0.2652-0.4419 0.6187 ( 40028 PWs)   bands (ev):

   -68.5171 -62.1124 -39.8548 -39.8548 -39.8548 -36.0029 -36.0028 -36.0028
   -29.1663 -16.1705 -16.0748 -16.0299 -16.0127 -16.0001 -15.9815 -12.6122
   -12.6116 -12.6102  -6.4665  -5.9629  -4.9485  -4.9383  -4.8392  -4.8124
    -3.6266  -3.2360  -3.0781  -2.9606  -2.8151  -2.6090  -2.5254  -2.4949
    -2.4040  -2.3534  -2.3085  -2.1563  -1.9026  -1.8317  -1.6435  -1.5697
    -1.3635  -1.3257   0.8113   0.9698   0.9790   3.6865   3.7728   3.8447
     5.7531   5.8777   5.9609   6.0484   6.0948   6.1769

     occupation numbers 
     1.0000   1.0000   1.0000   1.0000   1.0000   1.0000   1.0000   1.0000
     1.0000   1.0000   1.0000   1.0000   1.0000   1.0000   1.0000   1.0000
     1.0000   1.0000   1.0000   1.0000   1.0000   1.0000   1.0000   1.0000
     1.0000   1.0000   1.0000   1.0000   1.0000   1.0000   1.0000   1.0000
     1.0000   1.0000   1.0000   1.0000   1.0000   1.0000   1.0000   1.0000
     1.0000   1.0000   1.0000   1.0000   1.0000   0.0000   0.0000   0.0000
     0.0000   0.0000   0.0000   0.0000   0.0000   0.0000

          k =-0.1768-0.3536 0.5303 ( 40076 PWs)   bands (ev):

   -68.5171 -62.1124 -39.8548 -39.8548 -39.8548 -36.0029 -36.0028 -36.0028
   -29.1663 -16.1600 -16.0854 -16.0226 -16.0203 -15.9927 -15.9892 -12.6120
   -12.6114 -12.6099  -6.3267  -6.1339  -4.9318  -4.9250  -4.8484  -4.8159
    -3.5021  -3.3000  -3.0679  -2.9296  -2.7799  -2.6944  -2.5457  -2.5311
    -2.4152  -2.3709  -2.3186  -2.2231  -1.8581  -1.7938  -1.6910  -1.5849
    -1.3291  -1.3133   0.9205   0.9264   1.0136   3.6868   3.7522   3.8234
     5.8473   5.9658   5.9846   6.0495   6.0655   6.2595

     occupation numbers 
     1.0000   1.0000   1.0000   1.0000   1.0000   1.0000   1.0000   1.0000
     1.0000   1.0000   1.0000   1.0000   1.0000   1.0000   1.0000   1.0000
     1.0000   1.0000   1.0000   1.0000   1.0000   1.0000   1.0000   1.0000
     1.0000   1.0000   1.0000   1.0000   1.0000   1.0000   1.0000   1.0000
     1.0000   1.0000   1.0000   1.0000   1.0000   1.0000   1.0000   1.0000
     1.0000   1.0000   1.0000   1.0000   1.0000   0.0000   0.0000   0.0000
     0.0000   0.0000   0.0000   0.0000   0.0000   0.0000

          k =-0.1768-0.5303 0.7071 ( 40038 PWs)   bands (ev):

   -68.5171 -62.1124 -39.8548 -39.8548 -39.8548 -36.0029 -36.0028 -36.0028
   -29.1663 -16.1664 -16.0632 -16.0338 -16.0221 -16.0097 -15.9752 -12.6117
   -12.6114 -12.6101  -6.4768  -5.9203  -4.9492  -4.9381  -4.8577  -4.8087
    -3.5978  -3.2297  -3.0715  -2.9326  -2.8998  -2.6195  -2.5482  -2.5218
    -2.4788  -2.3521  -2.3165  -2.0752  -1.9611  -1.9437  -1.5927  -1.4669
    -1.3382  -1.2846   0.6996   1.0136   1.0342   3.8017   3.8560   3.9065
     5.6966   5.8711   5.9765   6.0312   6.0562   6.1691

     occupation numbers 
     1.0000   1.0000   1.0000   1.0000   1.0000   1.0000   1.0000   1.0000
     1.0000   1.0000   1.0000   1.0000   1.0000   1.0000   1.0000   1.0000
     1.0000   1.0000   1.0000   1.0000   1.0000   1.0000   1.0000   1.0000
     1.0000   1.0000   1.0000   1.0000   1.0000   1.0000   1.0000   1.0000
     1.0000   1.0000   1.0000   1.0000   1.0000   1.0000   1.0000   1.0000
     1.0000   1.0000   1.0000   1.0000   1.0000   0.0000   0.0000   0.0000
     0.0000   0.0000   0.0000   0.0000   0.0000   0.0000

          k =-0.0884-0.4419 0.6187 ( 40051 PWs)   bands (ev):

   -68.5171 -62.1124 -39.8548 -39.8548 -39.8548 -36.0029 -36.0028 -36.0028
   -29.1662 -16.1555 -16.0746 -16.0309 -16.0296 -15.9990 -15.9815 -12.6116
   -12.6109 -12.6101  -6.3593  -6.0729  -4.9301  -4.9110  -4.8770  -4.8131
    -3.4732  -3.2693  -3.1059  -2.9192  -2.8298  -2.6817  -2.6113  -2.5550
    -2.4957  -2.3554  -2.3205  -2.1608  -1.8950  -1.8775  -1.6699  -1.5150
    -1.3012  -1.2443   0.8118   0.9793   1.0571   3.7930   3.8137   3.9276
     5.8319   5.9027   5.9389   5.9984   6.0312   6.2657

     occupation numbers 
     1.0000   1.0000   1.0000   1.0000   1.0000   1.0000   1.0000   1.0000
     1.0000   1.0000   1.0000   1.0000   1.0000   1.0000   1.0000   1.0000
     1.0000   1.0000   1.0000   1.0000   1.0000   1.0000   1.0000   1.0000
     1.0000   1.0000   1.0000   1.0000   1.0000   1.0000   1.0000   1.0000
     1.0000   1.0000   1.0000   1.0000   1.0000   1.0000   1.0000   1.0000
     1.0000   1.0000   1.0000   1.0000   1.0000   0.0000   0.0000   0.0000
     0.0000   0.0000   0.0000   0.0000   0.0000   0.0000

          k =-0.0000-0.3536 0.5303 ( 40063 PWs)   bands (ev):

   -68.5171 -62.1124 -39.8548 -39.8548 -39.8548 -36.0029 -36.0028 -36.0028
   -29.1662 -16.1575 -16.0781 -16.0341 -16.0215 -15.9923 -15.9871 -12.6118
   -12.6107 -12.6103  -6.3472  -6.0972  -4.9260  -4.9216  -4.8639  -4.8149
    -3.4957  -3.2461  -3.1263  -2.9003  -2.8302  -2.6980  -2.5682  -2.5396
    -2.4697  -2.3542  -2.3108  -2.2067  -1.8716  -1.8218  -1.6952  -1.5589
    -1.3110  -1.2649   0.8952   0.9240   1.0343   3.7286   3.7953   3.9014
     5.8320   5.9000   5.9725   6.0222   6.0369   6.2837

     occupation numbers 
     1.0000   1.0000   1.0000   1.0000   1.0000   1.0000   1.0000   1.0000
     1.0000   1.0000   1.0000   1.0000   1.0000   1.0000   1.0000   1.0000
     1.0000   1.0000   1.0000   1.0000   1.0000   1.0000   1.0000   1.0000
     1.0000   1.0000   1.0000   1.0000   1.0000   1.0000   1.0000   1.0000
     1.0000   1.0000   1.0000   1.0000   1.0000   1.0000   1.0000   1.0000
     1.0000   1.0000   1.0000   1.0000   1.0000   0.0000   0.0000   0.0000
     0.0000   0.0000   0.0000   0.0000   0.0000   0.0000

          k =-0.7071 0.1768 0.0000 ( 40038 PWs)   bands (ev):

   -68.5171 -62.1124 -39.8548 -39.8548 -39.8548 -36.0029 -36.0029 -36.0028
   -29.1662 -16.1555 -16.0619 -16.0346 -16.0340 -16.0105 -15.9751 -12.6114
   -12.6111 -12.6098  -6.4149  -5.9849  -4.9372  -4.9204  -4.8804  -4.8091
    -3.4801  -3.2788  -3.0968  -2.9134  -2.8313  -2.6815  -2.6360  -2.6336
    -2.4691  -2.3631  -2.3198  -2.0825  -1.9636  -1.9606  -1.6005  -1.4505
    -1.3249  -1.1982   0.7000   1.0344   1.0751   3.8762   3.8878   3.9751
     5.7516   5.8785   5.9008   6.0051   6.0190   6.1935

     occupation numbers 
     1.0000   1.0000   1.0000   1.0000   1.0000   1.0000   1.0000   1.0000
     1.0000   1.0000   1.0000   1.0000   1.0000   1.0000   1.0000   1.0000
     1.0000   1.0000   1.0000   1.0000   1.0000   1.0000   1.0000   1.0000
     1.0000   1.0000   1.0000   1.0000   1.0000   1.0000   1.0000   1.0000
     1.0000   1.0000   1.0000   1.0000   1.0000   1.0000   1.0000   1.0000
     1.0000   1.0000   1.0000   1.0000   1.0000   0.0000   0.0000   0.0000
     0.0000   0.0000   0.0000   0.0000   0.0000   0.0000

          k =-0.7071 0.3536 0.0000 ( 39932 PWs)   bands (ev):

   -68.5171 -62.1124 -39.8548 -39.8548 -39.8548 -36.0029 -36.0029 -36.0028
   -29.1662 -16.1519 -16.0732 -16.0346 -16.0339 -15.9914 -15.9862 -12.6114
   -12.6105 -12.6103  -6.3229  -6.1105  -4.9136  -4.9057  -4.8944  -4.8144
    -3.4328  -3.2795  -3.1037  -2.9593  -2.7854  -2.6713  -2.6556  -2.5862
    -2.5217  -2.3358  -2.3169  -2.1748  -1.8843  -1.8576  -1.7057  -1.5288
    -1.2563  -1.2434   0.8917   0.8999   1.0751   3.8051   3.8131   3.9751
     5.8782   5.8911   5.9058   5.9408   6.0135   6.2326

     occupation numbers 
     1.0000   1.0000   1.0000   1.0000   1.0000   1.0000   1.0000   1.0000
     1.0000   1.0000   1.0000   1.0000   1.0000   1.0000   1.0000   1.0000
     1.0000   1.0000   1.0000   1.0000   1.0000   1.0000   1.0000   1.0000
     1.0000   1.0000   1.0000   1.0000   1.0000   1.0000   1.0000   1.0000
     1.0000   1.0000   1.0000   1.0000   1.0000   1.0000   1.0000   1.0000
     1.0000   1.0000   1.0000   1.0000   1.0000   0.0000   0.0000   0.0000
     0.0000   0.0000   0.0000   0.0000   0.0000   0.0000

     the Fermi energy is     2.0181 ev
     (compare with:     2.0158 eV, computed in scf)

     Writing all to output data dir /tmp/scratch/KVCr_U4_4_LCM/KVCr_U4_4_LCM.save/ :
     XML data file, pseudopotentials, collected wavefunctions

     init_run     :      3.52s CPU      3.80s WALL (       1 calls)
     electrons    :    276.02s CPU    299.70s WALL (       1 calls)

     Called by init_run:
     wfcinit      :      0.83s CPU      0.86s WALL (       1 calls)
     wfcinit:atom :      0.08s CPU      0.08s WALL (       4 calls)
     wfcinit:wfcr :      7.58s CPU      8.55s WALL (       4 calls)
     potinit      :      1.18s CPU      1.31s WALL (       1 calls)
     hinit0       :      1.10s CPU      1.16s WALL (       1 calls)

     Called by electrons:
     c_bands      :    275.94s CPU    299.61s WALL (       1 calls)
     v_of_rho     :      1.00s CPU      1.12s WALL (       1 calls)
     v_h          :      0.09s CPU      0.09s WALL (       1 calls)
     v_xc         :      0.91s CPU      1.03s WALL (       1 calls)

     Called by c_bands:
     init_us_2    :      0.20s CPU      0.21s WALL (       8 calls)
     cegterg      :    189.29s CPU    209.45s WALL (      13 calls)

     Called by sum_band:

     Called by *egterg:
     cdiaghg      :      0.96s CPU      0.94s WALL (     237 calls)
     cegterg:over :     10.36s CPU     10.66s WALL (     233 calls)
     cegterg:upda :      5.78s CPU      6.00s WALL (     233 calls)
     cegterg:last :     11.26s CPU     11.53s WALL (     143 calls)
     h_psi        :    164.97s CPU    185.17s WALL (     250 calls)
     g_psi        :      0.88s CPU      0.91s WALL (     233 calls)

     Called by h_psi:
     h_psi:calbec :      8.58s CPU      8.93s WALL (     250 calls)
     vloc_psi     :    144.60s CPU    164.22s WALL (     250 calls)
                                        0.00s GPU  (     250 calls)
     add_vuspsi   :      8.32s CPU      8.49s WALL (     250 calls)
     vhpsi        :      2.39s CPU      2.49s WALL (     250 calls)

     General routines
     calbec       :     10.24s CPU     10.70s WALL (     504 calls)
     fft          :      0.82s CPU      0.90s WALL (      19 calls)
     fftw         :    113.75s CPU    133.19s WALL (   14956 calls)

     Parallel routines

     Hubbard U routines
     vhpsi        :      2.39s CPU      2.49s WALL (     250 calls)

     PWSCF        :   4m40.17s CPU   5m 4.65s WALL


   This run was terminated on:  12: 3:41   3Oct2026            

=------------------------------------------------------------------------------=
   JOB DONE.
=------------------------------------------------------------------------------=
