
     Program PWSCF v.7.5 starts on  3Oct2026 at 11:12:22 

     This program is part of the open-source Quantum ESPRESSO suite
     for quantum simulation of materials; please cite
         "P. Giannozzi et al., J. Phys.:Condens. Matter 21 395502 (2009);
         "P. Giannozzi et al., J. Phys.:Condens. Matter 29 465901 (2017);
         "P. Giannozzi et al., J. Chem. Phys. 152 154105 (2020);
          URL http://www.quantum-espresso.org", 
     in publications or presentations arising from this work. More details at
     http://www.quantum-espresso.org/quote

     Parallel version (MPI & OpenMP), running on      32 processor cores
     Number of MPI processes:                32
     Threads/MPI process:                     1

     MPI processes distributed on     1 nodes
     409104 MiB available memory on the printing compute node when the environment starts

     Reading input from KVCr_LCM_nscf.in

     Current dimensions of program PWSCF are:
     Max number of different atomic species (ntypx) = 10
     Max number of k-points (npk) =  40000
     Max angular momentum in pseudopotentials (lmaxx) =  4

     Atomic positions and unit cell read from directory:
     /tmp/scratch/KVCr_LCM/KVCr_LCM.save/

     Message from routine setup:
     using ibrav=0 with symmetry is DISCOURAGED, use correct ibrav instead

     K-points division:     npool     =      16
     R & G space division:  proc/nbgrp/npool/nimage =       2
     Subspace diagonalization in iterative solution of the eigenvalue problem:
     a serial algorithm will be used


     Parallelization info
     --------------------
     sticks:   dense  smooth     PW     G-vecs:    dense   smooth      PW
     Min        3090    3090    831               160420   160420   22367
     Max        3091    3091    832               160423   160423   22368
     Sum        6181    6181   1663               320843   320843   44735

     Using Slab Decomposition



     bravais-lattice index     =            0
     lattice parameter (alat)  =      14.2709  a.u.
     unit-cell volume          =    2055.1352 (a.u.)^3
     number of atoms/cell      =           15
     number of atomic types    =            5
     number of electrons       =        90.00
     number of Kohn-Sham states=           54
     kinetic-energy cutoff     =     110.0000  Ry
     charge density cutoff     =     440.0000  Ry
     Exchange-correlation= PBE
                           (   1   4   3   4   0   0   0)
     Hubbard projectors: ortho-atomic
     Hubbard parameters of DFT+U (Dudarev formulation) in eV:
     U(V-3d) =  3.0000
     U(Cr-3d) =  3.0000

     Internal variables: lda_plus_u =T, lda_plus_u_kind = 0

     Internal variables: orbital_resolved =F, hub_pot_fix =F, apply_U = F

     celldm(1)=  14.270914  celldm(2)=   0.000000  celldm(3)=   0.000000
     celldm(4)=   0.000000  celldm(5)=   0.000000  celldm(6)=   0.000000

     crystal axes: (cart. coord. in units of alat)
               a(1) = (   0.000000   0.707107   0.707107 )  
               a(2) = (   0.707107   0.000000   0.707107 )  
               a(3) = (   0.707107   0.707107   0.000000 )  

     reciprocal axes: (cart. coord. in units 2 pi/alat)
               b(1) = ( -0.707107  0.707107  0.707107 )  
               b(2) = (  0.707107 -0.707107  0.707107 )  
               b(3) = (  0.707107  0.707107 -0.707107 )  


     PseudoPot. # 1 for K  read from file:
     /data/pseudo/dojo_sr/K.upf
     MD5 check sum: 0aa97b2c023445f040759afc9fdb6c80
     Pseudo is Norm-conserving + core correction, Zval =  9.0
     Generated using ONCVPSP code by D. R. Hamann
     Using radial grid of 2222 points,  6 beta functions with: 
                l(1) =   0
                l(2) =   0
                l(3) =   1
                l(4) =   1
                l(5) =   2
                l(6) =   2

     PseudoPot. # 2 for V  read from file:
     /data/pseudo/dojo_sr/V.upf
     MD5 check sum: 40fb93c06b4f9d8c28c5ccd071294a04
     Pseudo is Norm-conserving + core correction, Zval = 13.0
     Generated using ONCVPSP code by D. R. Hamann
     Using radial grid of 1536 points,  6 beta functions with: 
                l(1) =   0
                l(2) =   0
                l(3) =   1
                l(4) =   1
                l(5) =   2
                l(6) =   2

     PseudoPot. # 3 for Cr read from file:
     /data/pseudo/dojo_sr/Cr.upf
     MD5 check sum: 41892f80c335c8b1e803fd21ab4016b0
     Pseudo is Norm-conserving + core correction, Zval = 14.0
     Generated using ONCVPSP code by D. R. Hamann
     Using radial grid of 1638 points,  6 beta functions with: 
                l(1) =   0
                l(2) =   0
                l(3) =   1
                l(4) =   1
                l(5) =   2
                l(6) =   2

     PseudoPot. # 4 for C  read from file:
     /data/pseudo/dojo_sr/C.upf
     MD5 check sum: 34a24e64c0a39f27c6c36b90a16ac686
     Pseudo is Norm-conserving + core correction, Zval =  4.0
     Generated using ONCVPSP code by D. R. Hamann
     Using radial grid of 1248 points,  4 beta functions with: 
                l(1) =   0
                l(2) =   0
                l(3) =   1
                l(4) =   1

     PseudoPot. # 5 for N  read from file:
     /data/pseudo/dojo_sr/N.upf
     MD5 check sum: d34365f73bb0e2ee98afc20ec3e87676
     Pseudo is Norm-conserving + core correction, Zval =  5.0
     Generated using ONCVPSP code by D. R. Hamann
     Using radial grid of 1058 points,  4 beta functions with: 
                l(1) =   0
                l(2) =   0
                l(3) =   1
                l(4) =   1

     atomic species   valence    mass     pseudopotential
     K                 9.00    39.09830     K ( 1.00)
     V                13.00    50.94150     V ( 1.00)
     Cr               14.00    51.99610     Cr( 1.00)
     C                 4.00    12.01100     C ( 1.00)
     N                 5.00    14.00700     N ( 1.00)

     Starting magnetic structure 
     atomic species   magnetization
     K               0.000
     V              -0.231
     Cr              0.214
     C               0.000
     N               0.000

     24 Sym. Ops. (no inversion) found


                                    s                        frac. trans.

      isym =  1     identity                                     

 cryst.   s( 1) = (     1          0          0      )
                  (     0          1          0      )
                  (     0          0          1      )

 cart.    s( 1) = (  1.0000000  0.0000000  0.0000000 )
                  (  0.0000000  1.0000000  0.0000000 )
                  (  0.0000000  0.0000000  1.0000000 )


      isym =  2     180 deg rotation - cart. axis [0,0,1]        

 cryst.   s( 2) = (     0          1         -1      )
                  (     1          0         -1      )
                  (     0          0         -1      )

 cart.    s( 2) = ( -1.0000000  0.0000000  0.0000000 )
                  (  0.0000000 -1.0000000  0.0000000 )
                  (  0.0000000  0.0000000  1.0000000 )


      isym =  3     180 deg rotation - cart. axis [0,1,0]        

 cryst.   s( 3) = (     0         -1          1      )
                  (     0         -1          0      )
                  (     1         -1          0      )

 cart.    s( 3) = ( -1.0000000  0.0000000  0.0000000 )
                  (  0.0000000  1.0000000  0.0000000 )
                  (  0.0000000  0.0000000 -1.0000000 )


      isym =  4     180 deg rotation - cart. axis [1,0,0]        

 cryst.   s( 4) = (    -1          0          0      )
                  (    -1          0          1      )
                  (    -1          1          0      )

 cart.    s( 4) = (  1.0000000  0.0000000  0.0000000 )
                  (  0.0000000 -1.0000000  0.0000000 )
                  (  0.0000000  0.0000000 -1.0000000 )


      isym =  5     120 deg rotation - cart. axis [-1,-1,-1]     

 cryst.   s( 5) = (     0          0          1      )
                  (     1          0          0      )
                  (     0          1          0      )

 cart.    s( 5) = (  0.0000000  1.0000000  0.0000000 )
                  (  0.0000000  0.0000000  1.0000000 )
                  (  1.0000000  0.0000000  0.0000000 )


      isym =  6     120 deg rotation - cart. axis [-1,1,1]       

 cryst.   s( 6) = (     1         -1          0      )
                  (     0         -1          1      )
                  (     0         -1          0      )

 cart.    s( 6) = (  0.0000000 -1.0000000  0.0000000 )
                  (  0.0000000  0.0000000  1.0000000 )
                  ( -1.0000000  0.0000000  0.0000000 )


      isym =  7     120 deg rotation - cart. axis [1,1,-1]       

 cryst.   s( 7) = (    -1          1          0      )
                  (    -1          0          0      )
                  (    -1          0          1      )

 cart.    s( 7) = (  0.0000000  1.0000000  0.0000000 )
                  (  0.0000000  0.0000000 -1.0000000 )
                  ( -1.0000000  0.0000000  0.0000000 )


      isym =  8     120 deg rotation - cart. axis [1,-1,1]       

 cryst.   s( 8) = (     0          0         -1      )
                  (     0          1         -1      )
                  (     1          0         -1      )

 cart.    s( 8) = (  0.0000000 -1.0000000  0.0000000 )
                  (  0.0000000  0.0000000 -1.0000000 )
                  (  1.0000000  0.0000000  0.0000000 )


      isym =  9     120 deg rotation - cart. axis [1,1,1]        

 cryst.   s( 9) = (     0          1          0      )
                  (     0          0          1      )
                  (     1          0          0      )

 cart.    s( 9) = (  0.0000000  0.0000000  1.0000000 )
                  (  1.0000000  0.0000000  0.0000000 )
                  (  0.0000000  1.0000000  0.0000000 )


      isym = 10     120 deg rotation - cart. axis [-1,1,-1]      

 cryst.   s(10) = (    -1          0          1      )
                  (    -1          1          0      )
                  (    -1          0          0      )

 cart.    s(10) = (  0.0000000  0.0000000  1.0000000 )
                  ( -1.0000000  0.0000000  0.0000000 )
                  (  0.0000000 -1.0000000  0.0000000 )


      isym = 11     120 deg rotation - cart. axis [1,-1,-1]      

 cryst.   s(11) = (     1          0         -1      )
                  (     0          0         -1      )
                  (     0          1         -1      )

 cart.    s(11) = (  0.0000000  0.0000000 -1.0000000 )
                  ( -1.0000000  0.0000000  0.0000000 )
                  (  0.0000000  1.0000000  0.0000000 )


      isym = 12     120 deg rotation - cart. axis [-1,-1,1]      

 cryst.   s(12) = (     0         -1          0      )
                  (     1         -1          0      )
                  (     0         -1          1      )

 cart.    s(12) = (  0.0000000  0.0000000 -1.0000000 )
                  (  1.0000000  0.0000000  0.0000000 )
                  (  0.0000000 -1.0000000  0.0000000 )


      isym = 13     inv. 180 deg rotation - cart. axis [1,1,0]   

 cryst.   s(13) = (     1          0         -1      )
                  (     0          1         -1      )
                  (     0          0         -1      )

 cart.    s(13) = (  0.0000000 -1.0000000  0.0000000 )
                  ( -1.0000000  0.0000000  0.0000000 )
                  (  0.0000000  0.0000000  1.0000000 )


      isym = 14     inv. 180 deg rotation - cart. axis [1,-1,0]  

 cryst.   s(14) = (     0          1          0      )
                  (     1          0          0      )
                  (     0          0          1      )

 cart.    s(14) = (  0.0000000  1.0000000  0.0000000 )
                  (  1.0000000  0.0000000  0.0000000 )
                  (  0.0000000  0.0000000  1.0000000 )


      isym = 15     inv.  90 deg rotation - cart. axis [0,0,-1]  

 cryst.   s(15) = (     0         -1          0      )
                  (     0         -1          1      )
                  (     1         -1          0      )

 cart.    s(15) = (  0.0000000 -1.0000000  0.0000000 )
                  (  1.0000000  0.0000000  0.0000000 )
                  (  0.0000000  0.0000000 -1.0000000 )


      isym = 16     inv.  90 deg rotation - cart. axis [0,0,1]   

 cryst.   s(16) = (    -1          0          1      )
                  (    -1          0          0      )
                  (    -1          1          0      )

 cart.    s(16) = (  0.0000000  1.0000000  0.0000000 )
                  ( -1.0000000  0.0000000  0.0000000 )
                  (  0.0000000  0.0000000 -1.0000000 )


      isym = 17     inv. 180 deg rotation - cart. axis [1,0,1]   

 cryst.   s(17) = (     1         -1          0      )
                  (     0         -1          0      )
                  (     0         -1          1      )

 cart.    s(17) = (  0.0000000  0.0000000 -1.0000000 )
                  (  0.0000000  1.0000000  0.0000000 )
                  ( -1.0000000  0.0000000  0.0000000 )


      isym = 18     inv. 180 deg rotation - cart. axis [-1,0,1]  

 cryst.   s(18) = (     0          0          1      )
                  (     0          1          0      )
                  (     1          0          0      )

 cart.    s(18) = (  0.0000000  0.0000000  1.0000000 )
                  (  0.0000000  1.0000000  0.0000000 )
                  (  1.0000000  0.0000000  0.0000000 )


      isym = 19     inv.  90 deg rotation - cart. axis [0,1,0]   

 cryst.   s(19) = (     0          0         -1      )
                  (     1          0         -1      )
                  (     0          1         -1      )

 cart.    s(19) = (  0.0000000  0.0000000 -1.0000000 )
                  (  0.0000000 -1.0000000  0.0000000 )
                  (  1.0000000  0.0000000  0.0000000 )


      isym = 20     inv.  90 deg rotation - cart. axis [0,-1,0]  

 cryst.   s(20) = (    -1          1          0      )
                  (    -1          0          1      )
                  (    -1          0          0      )

 cart.    s(20) = (  0.0000000  0.0000000  1.0000000 )
                  (  0.0000000 -1.0000000  0.0000000 )
                  ( -1.0000000  0.0000000  0.0000000 )


      isym = 21     inv. 180 deg rotation - cart. axis [0,1,1]   

 cryst.   s(21) = (    -1          0          0      )
                  (    -1          1          0      )
                  (    -1          0          1      )

 cart.    s(21) = (  1.0000000  0.0000000  0.0000000 )
                  (  0.0000000  0.0000000 -1.0000000 )
                  (  0.0000000 -1.0000000  0.0000000 )


      isym = 22     inv. 180 deg rotation - cart. axis [0,1,-1]  

 cryst.   s(22) = (     1          0          0      )
                  (     0          0          1      )
                  (     0          1          0      )

 cart.    s(22) = (  1.0000000  0.0000000  0.0000000 )
                  (  0.0000000  0.0000000  1.0000000 )
                  (  0.0000000  1.0000000  0.0000000 )


      isym = 23     inv.  90 deg rotation - cart. axis [-1,0,0]  

 cryst.   s(23) = (     0          1         -1      )
                  (     0          0         -1      )
                  (     1          0         -1      )

 cart.    s(23) = ( -1.0000000  0.0000000  0.0000000 )
                  (  0.0000000  0.0000000 -1.0000000 )
                  (  0.0000000  1.0000000  0.0000000 )


      isym = 24     inv.  90 deg rotation - cart. axis [1,0,0]   

 cryst.   s(24) = (     0         -1          1      )
                  (     1         -1          0      )
                  (     0         -1          0      )

 cart.    s(24) = ( -1.0000000  0.0000000  0.0000000 )
                  (  0.0000000  0.0000000  1.0000000 )
                  (  0.0000000 -1.0000000  0.0000000 )


   Cartesian axes

     site n.     atom                  positions (alat units)
         1        K      tau(   1) = (   0.3535534   0.3535534   0.3535534  )
         2        V      tau(   2) = (   0.0000000   0.0000000   0.0000000  )
         3        Cr     tau(   3) = (   0.7071068   0.7071068   0.7071068  )
         4        C      tau(   4) = (   0.4343911   0.7071068   0.7071068  )
         5        C      tau(   5) = (   0.9798225   0.7071068   0.7071068  )
         6        C      tau(   6) = (   0.7071068   0.4343911   0.7071068  )
         7        C      tau(   7) = (   0.7071068   0.9798225   0.7071068  )
         8        C      tau(   8) = (   0.7071068   0.7071068   0.4343911  )
         9        C      tau(   9) = (   0.7071068   0.7071068   0.9798225  )
        10        N      tau(  10) = (   0.2796732   0.7071068   0.7071068  )
        11        N      tau(  11) = (   1.1345404   0.7071068   0.7071068  )
        12        N      tau(  12) = (   0.7071068   0.2796732   0.7071068  )
        13        N      tau(  13) = (   0.7071068   1.1345404   0.7071068  )
        14        N      tau(  14) = (   0.7071068   0.7071068   0.2796732  )
        15        N      tau(  15) = (   0.7071068   0.7071068   1.1345404  )

   Crystallographic axes

     site n.     atom                  positions (cryst. coord.)
         1        K      tau(   1) = (  0.2500000  0.2500000  0.2500000  )
         2        V      tau(   2) = (  0.0000000  0.0000000  0.0000000  )
         3        Cr     tau(   3) = (  0.5000000  0.5000000  0.5000000  )
         4        C      tau(   4) = (  0.6928391  0.3071609  0.3071609  )
         5        C      tau(   5) = (  0.3071609  0.6928391  0.6928391  )
         6        C      tau(   6) = (  0.3071609  0.6928391  0.3071609  )
         7        C      tau(   7) = (  0.6928391  0.3071609  0.6928391  )
         8        C      tau(   8) = (  0.3071609  0.3071609  0.6928391  )
         9        C      tau(   9) = (  0.6928391  0.6928391  0.3071609  )
        10        N      tau(  10) = (  0.8022412  0.1977588  0.1977588  )
        11        N      tau(  11) = (  0.1977588  0.8022412  0.8022412  )
        12        N      tau(  12) = (  0.1977588  0.8022412  0.1977588  )
        13        N      tau(  13) = (  0.8022412  0.1977588  0.8022412  )
        14        N      tau(  14) = (  0.1977588  0.1977588  0.8022412  )
        15        N      tau(  15) = (  0.8022412  0.8022412  0.1977588  )

     number of k points=    29  Gaussian smearing, width (Ry)=  0.0050
                       cart. coord. in units 2pi/alat
        k(    1) = (   0.0000000   0.0000000   0.0000000), wk =   0.0019531
        k(    2) = (   0.0883883   0.0883883  -0.0883883), wk =   0.0156250
        k(    3) = (   0.1767767   0.1767767  -0.1767767), wk =   0.0156250
        k(    4) = (   0.2651650   0.2651650  -0.2651650), wk =   0.0156250
        k(    5) = (  -0.3535534  -0.3535534   0.3535534), wk =   0.0078125
        k(    6) = (   0.1767767   0.0000000   0.0000000), wk =   0.0117188
        k(    7) = (   0.2651650   0.0883883  -0.0883883), wk =   0.0468750
        k(    8) = (   0.3535534   0.1767767  -0.1767767), wk =   0.0468750
        k(    9) = (  -0.2651650  -0.4419417   0.4419417), wk =   0.0468750
        k(   10) = (  -0.1767767  -0.3535534   0.3535534), wk =   0.0468750
        k(   11) = (  -0.0883883  -0.2651650   0.2651650), wk =   0.0468750
        k(   12) = (   0.0000000  -0.1767767   0.1767767), wk =   0.0234375
        k(   13) = (   0.3535534   0.0000000   0.0000000), wk =   0.0117188
        k(   14) = (   0.4419417   0.0883883  -0.0883883), wk =   0.0468750
        k(   15) = (  -0.1767767  -0.5303301   0.5303301), wk =   0.0468750
        k(   16) = (  -0.0883883  -0.4419417   0.4419417), wk =   0.0468750
        k(   17) = (   0.0000000  -0.3535534   0.3535534), wk =   0.0234375
        k(   18) = (   0.5303301   0.0000000   0.0000000), wk =   0.0117188
        k(   19) = (  -0.0883883  -0.6187184   0.6187184), wk =   0.0468750
        k(   20) = (   0.0000000  -0.5303301   0.5303301), wk =   0.0234375
        k(   21) = (  -0.7071068   0.0000000   0.0000000), wk =   0.0058594
        k(   22) = (   0.3535534   0.1767767   0.0000000), wk =   0.0468750
        k(   23) = (  -0.2651650  -0.4419417   0.6187184), wk =   0.0937500
        k(   24) = (  -0.1767767  -0.3535534   0.5303301), wk =   0.0468750
        k(   25) = (  -0.1767767  -0.5303301   0.7071068), wk =   0.0468750
        k(   26) = (  -0.0883883  -0.4419417   0.6187184), wk =   0.0937500
        k(   27) = (  -0.0000000  -0.3535534   0.5303301), wk =   0.0468750
        k(   28) = (  -0.7071068   0.1767767   0.0000000), wk =   0.0234375
        k(   29) = (  -0.7071068   0.3535534   0.0000000), wk =   0.0117188

                       cryst. coord.
        k(    1) = (   0.0000000   0.0000000   0.0000000), wk =   0.0019531
        k(    2) = (   0.0000000   0.0000000   0.1250000), wk =   0.0156250
        k(    3) = (   0.0000000   0.0000000   0.2500000), wk =   0.0156250
        k(    4) = (   0.0000000   0.0000000   0.3750000), wk =   0.0156250
        k(    5) = (   0.0000000   0.0000000  -0.5000000), wk =   0.0078125
        k(    6) = (   0.0000000   0.1250000   0.1250000), wk =   0.0117188
        k(    7) = (   0.0000000   0.1250000   0.2500000), wk =   0.0468750
        k(    8) = (   0.0000000   0.1250000   0.3750000), wk =   0.0468750
        k(    9) = (   0.0000000   0.1250000  -0.5000000), wk =   0.0468750
        k(   10) = (   0.0000000   0.1250000  -0.3750000), wk =   0.0468750
        k(   11) = (   0.0000000   0.1250000  -0.2500000), wk =   0.0468750
        k(   12) = (   0.0000000   0.1250000  -0.1250000), wk =   0.0234375
        k(   13) = (   0.0000000   0.2500000   0.2500000), wk =   0.0117188
        k(   14) = (   0.0000000   0.2500000   0.3750000), wk =   0.0468750
        k(   15) = (   0.0000000   0.2500000  -0.5000000), wk =   0.0468750
        k(   16) = (   0.0000000   0.2500000  -0.3750000), wk =   0.0468750
        k(   17) = (   0.0000000   0.2500000  -0.2500000), wk =   0.0234375
        k(   18) = (   0.0000000   0.3750000   0.3750000), wk =   0.0117188
        k(   19) = (   0.0000000   0.3750000  -0.5000000), wk =   0.0468750
        k(   20) = (   0.0000000   0.3750000  -0.3750000), wk =   0.0234375
        k(   21) = (   0.0000000  -0.5000000  -0.5000000), wk =   0.0058594
        k(   22) = (   0.1250000   0.2500000   0.3750000), wk =   0.0468750
        k(   23) = (   0.1250000   0.2500000  -0.5000000), wk =   0.0937500
        k(   24) = (   0.1250000   0.2500000  -0.3750000), wk =   0.0468750
        k(   25) = (   0.1250000   0.3750000  -0.5000000), wk =   0.0468750
        k(   26) = (   0.1250000   0.3750000  -0.3750000), wk =   0.0937500
        k(   27) = (   0.1250000   0.3750000  -0.2500000), wk =   0.0468750
        k(   28) = (   0.1250000  -0.5000000  -0.3750000), wk =   0.0234375
        k(   29) = (   0.2500000  -0.5000000  -0.2500000), wk =   0.0117188

     Dense  grid:   320843 G-vectors     FFT dimensions: (  96,  96,  96)

     Dynamical RAM for                 wfc:      16.50 MB

     Dynamical RAM for     wfc (w. buffer):      82.48 MB

     Dynamical RAM for             U proj.:       3.05 MB

     Dynamical RAM for  U proj. (w. buff.):      15.27 MB

     Dynamical RAM for           str. fact:      12.24 MB

     Dynamical RAM for           local pot:       0.00 MB

     Dynamical RAM for          nlocal pot:      45.82 MB

     Dynamical RAM for                qrad:       8.42 MB

     Dynamical RAM for          rho,v,vnew:      34.94 MB

     Dynamical RAM for           G-vectors:      10.40 MB

     Dynamical RAM for          h,s,v(r/c):       0.53 MB

     Dynamical RAM for          <psi|beta>:       0.12 MB

     Dynamical RAM for                 psi:      32.99 MB

     Dynamical RAM for                hpsi:      32.99 MB

     Dynamical RAM for      wfcinit/wfcrot:      33.06 MB

     Estimated static dynamical RAM per process >     244.50 MB

     Estimated max dynamical RAM per process >     311.14 MB

     Estimated total dynamical RAM >       9.72 GB
     Generating pointlists ...
     new r_m :   0.2085 (alat units)  2.9753 (a.u.) for type    1
     new r_m :   0.1154 (alat units)  1.6464 (a.u.) for type    2
     new r_m :   0.1125 (alat units)  1.6054 (a.u.) for type    3
     new r_m :   0.0638 (alat units)  0.9108 (a.u.) for type    4
     new r_m :   0.0638 (alat units)  0.9108 (a.u.) for type    5

     The potential is recalculated from file :
     /tmp/scratch/KVCr_LCM/KVCr_LCM.save/charge-density


     HUBBARD ENERGY =    0.2422  (Ry)

     STARTING HUBBARD OCCUPATIONS:

     =================== HUBBARD OCCUPATIONS ===================
     ------------------------ ATOM    2 ------------------------
     Tr[ns(  2)] (up, down, total) =   0.40048  3.10475  3.50523
     Atomic magnetic moment for atom   2 =  -2.70426
     SPIN  1
     eigenvalues:
       0.026  0.026  0.026  0.162  0.162
     eigenvectors (columns):
      -0.000 -0.000 -0.000  0.418 -0.908
      -0.333  0.283 -0.899  0.000  0.000
      -0.599  0.673  0.434  0.000  0.000
       0.000  0.000  0.000  0.908  0.418
       0.729  0.683 -0.054 -0.000 -0.000
     occupation matrix ns (before diag.):
       0.162 -0.000  0.000 -0.000  0.000
      -0.000  0.026 -0.000  0.000  0.000
       0.000 -0.000  0.026  0.000  0.000
      -0.000  0.000  0.000  0.162 -0.000
       0.000  0.000  0.000 -0.000  0.026
     SPIN  2
     eigenvalues:
       0.200  0.200  0.902  0.902  0.902
     eigenvectors (columns):
       0.234 -0.972 -0.000 -0.000 -0.000
      -0.000 -0.000  0.323 -0.219  0.921
      -0.000 -0.000  0.598 -0.707 -0.378
       0.972  0.234  0.000  0.000  0.000
       0.000  0.000 -0.733 -0.673  0.097
     occupation matrix ns (before diag.):
       0.200 -0.000 -0.000 -0.000  0.000
      -0.000  0.902 -0.000  0.000  0.000
      -0.000 -0.000  0.902  0.000  0.000
      -0.000  0.000  0.000  0.200 -0.000
       0.000  0.000  0.000 -0.000  0.902
     ------------------------ ATOM    3 ------------------------
     Tr[ns(  3)] (up, down, total) =   3.80423  0.86924  4.67346
     Atomic magnetic moment for atom   3 =   2.93499
     SPIN  1
     eigenvalues:
       0.490  0.490  0.941  0.941  0.941
     eigenvectors (columns):
       0.337  0.941 -0.000 -0.000 -0.000
      -0.000  0.000  0.329 -0.263  0.907
      -0.000  0.000  0.593 -0.690 -0.415
       0.941 -0.337  0.000  0.000  0.000
       0.000 -0.000 -0.735 -0.674  0.071
     occupation matrix ns (before diag.):
       0.490 -0.000 -0.000 -0.000  0.000
      -0.000  0.941 -0.000  0.000  0.000
      -0.000 -0.000  0.941  0.000  0.000
      -0.000  0.000  0.000  0.490 -0.000
       0.000  0.000  0.000 -0.000  0.941
     SPIN  2
     eigenvalues:
       0.048  0.048  0.048  0.363  0.363
     eigenvectors (columns):
       0.000  0.000  0.000  0.340 -0.940
       0.333 -0.345  0.878  0.000  0.000
       0.590 -0.650 -0.479  0.000 -0.000
      -0.000 -0.000 -0.000  0.940  0.340
      -0.736 -0.677  0.012 -0.000 -0.000
     occupation matrix ns (before diag.):
       0.363 -0.000  0.000 -0.000  0.000
      -0.000  0.048 -0.000  0.000  0.000
       0.000 -0.000  0.048  0.000  0.000
      -0.000  0.000  0.000  0.363 -0.000
       0.000  0.000  0.000 -0.000  0.048

     Number of occupied Hubbard levels =    8.1787

     Atomic wfc used for Hubbard projectors are orthogonalized

     Starting wfcs are   73 randomized atomic wfcs

     Band Structure Calculation
     Davidson diagonalization with overlap

     Computing kpt #:     1  of     4 on this pool
     total cpu time spent up to now is       86.0 secs

     Computing kpt #:     2  of     4 on this pool
     total cpu time spent up to now is      170.1 secs

     Computing kpt #:     3  of     4 on this pool
     total cpu time spent up to now is      258.0 secs

     Computing kpt #:     4  of     4 on this pool
     total cpu time spent up to now is      302.6 secs

     ethr =  1.67E-10,  avg # of iterations = 98.9

     total cpu time spent up to now is      317.4 secs

     End of band structure calculation

 ------ SPIN UP ------------


          k = 0.0000 0.0000 0.0000 ( 39957 PWs)   bands (ev):

   -71.4363 -59.7453 -42.8109 -42.8109 -42.8109 -33.6210 -33.6210 -33.6210
   -29.1639 -16.2774 -16.0888 -16.0888 -16.0888 -16.0374 -16.0374 -12.6112
   -12.6112 -12.6112  -6.8594  -4.9933  -4.9933  -4.9933  -4.9050  -4.9050
    -4.5347  -3.3563  -3.3563  -3.3563  -2.8762  -2.8762  -2.3807  -2.3807
    -2.3807  -2.0391  -2.0391  -2.0391  -1.8431  -1.8431  -1.8431  -1.5461
    -1.5461  -1.5461  -1.0663  -1.0663  -1.0663   4.4969   4.4969   4.6417
     4.6417   4.6417   5.1835   5.8169   5.8169   5.8169

     occupation numbers 
     1.0000   1.0000   1.0000   1.0000   1.0000   1.0000   1.0000   1.0000
     1.0000   1.0000   1.0000   1.0000   1.0000   1.0000   1.0000   1.0000
     1.0000   1.0000   1.0000   1.0000   1.0000   1.0000   1.0000   1.0000
     1.0000   1.0000   1.0000   1.0000   1.0000   1.0000   1.0000   1.0000
     1.0000   1.0000   1.0000   1.0000   1.0000   1.0000   1.0000   1.0000
     1.0000   1.0000   1.0000   1.0000   1.0000   0.0000   0.0000   0.0000
     0.0000   0.0000   0.0000   0.0000   0.0000   0.0000

          k = 0.0884 0.0884-0.0884 ( 40023 PWs)   bands (ev):

   -71.4363 -59.7453 -42.8109 -42.8109 -42.8109 -33.6210 -33.6210 -33.6210
   -29.1639 -16.2717 -16.0951 -16.0870 -16.0870 -16.0393 -16.0393 -12.6111
   -12.6111 -12.6106  -6.8207  -5.2062  -4.9849  -4.9849  -4.9033  -4.9033
    -4.3298  -3.3498  -3.3334  -3.3334  -2.8908  -2.8908  -2.4402  -2.4137
    -2.4137  -2.0976  -2.0976  -2.0240  -1.8613  -1.8574  -1.8574  -1.5646
    -1.5084  -1.5084  -1.0267  -1.0168  -1.0168   4.5039   4.5039   4.6597
     4.6817   4.6817   5.2655   5.7873   5.8474   5.8474

     occupation numbers 
     1.0000   1.0000   1.0000   1.0000   1.0000   1.0000   1.0000   1.0000
     1.0000   1.0000   1.0000   1.0000   1.0000   1.0000   1.0000   1.0000
     1.0000   1.0000   1.0000   1.0000   1.0000   1.0000   1.0000   1.0000
     1.0000   1.0000   1.0000   1.0000   1.0000   1.0000   1.0000   1.0000
     1.0000   1.0000   1.0000   1.0000   1.0000   1.0000   1.0000   1.0000
     1.0000   1.0000   1.0000   1.0000   1.0000   0.0000   0.0000   0.0000
     0.0000   0.0000   0.0000   0.0000   0.0000   0.0000

          k = 0.1768 0.1768-0.1768 ( 40014 PWs)   bands (ev):

   -71.4363 -59.7453 -42.8109 -42.8109 -42.8109 -33.6210 -33.6210 -33.6210
   -29.1639 -16.2561 -16.1124 -16.0820 -16.0820 -16.0445 -16.0445 -12.6107
   -12.6107 -12.6092  -6.7085  -5.5419  -4.9630  -4.9630  -4.9003  -4.9003
    -4.0206  -3.3303  -3.2703  -3.2703  -2.9173  -2.9173  -2.5935  -2.5221
    -2.5221  -2.2198  -2.2198  -1.9814  -1.9006  -1.8564  -1.8564  -1.6154
    -1.4416  -1.4416  -0.9414  -0.9166  -0.9166   4.5248   4.5248   4.7096
     4.7909   4.7909   5.4802   5.7238   5.8846   5.8846

     occupation numbers 
     1.0000   1.0000   1.0000   1.0000   1.0000   1.0000   1.0000   1.0000
     1.0000   1.0000   1.0000   1.0000   1.0000   1.0000   1.0000   1.0000
     1.0000   1.0000   1.0000   1.0000   1.0000   1.0000   1.0000   1.0000
     1.0000   1.0000   1.0000   1.0000   1.0000   1.0000   1.0000   1.0000
     1.0000   1.0000   1.0000   1.0000   1.0000   1.0000   1.0000   1.0000
     1.0000   1.0000   1.0000   1.0000   1.0000   0.0000   0.0000   0.0000
     0.0000   0.0000   0.0000   0.0000   0.0000   0.0000

          k = 0.2652 0.2652-0.2652 ( 40026 PWs)   bands (ev):

   -71.4363 -59.7453 -42.8109 -42.8109 -42.8109 -33.6210 -33.6210 -33.6210
   -29.1640 -16.2353 -16.1347 -16.0749 -16.0749 -16.0517 -16.0517 -12.6103
   -12.6103 -12.6078  -6.5407  -5.8560  -4.9367  -4.9367  -4.9013  -4.9013
    -3.7634  -3.2945  -3.1914  -3.1914  -2.9143  -2.9143  -2.7810  -2.6803
    -2.6803  -2.3284  -2.3284  -1.9366  -1.9223  -1.8278  -1.8278  -1.6826
    -1.3954  -1.3954  -0.8661  -0.8334  -0.8334   4.5501   4.5501   4.7709
     4.9328   4.9328   5.5757   5.8089   5.8089   5.8465

     occupation numbers 
     1.0000   1.0000   1.0000   1.0000   1.0000   1.0000   1.0000   1.0000
     1.0000   1.0000   1.0000   1.0000   1.0000   1.0000   1.0000   1.0000
     1.0000   1.0000   1.0000   1.0000   1.0000   1.0000   1.0000   1.0000
     1.0000   1.0000   1.0000   1.0000   1.0000   1.0000   1.0000   1.0000
     1.0000   1.0000   1.0000   1.0000   1.0000   1.0000   1.0000   1.0000
     1.0000   1.0000   1.0000   1.0000   1.0000   0.0000   0.0000   0.0000
     0.0000   0.0000   0.0000   0.0000   0.0000   0.0000

          k =-0.3536-0.3536 0.3536 ( 40094 PWs)   bands (ev):

   -71.4363 -59.7453 -42.8109 -42.8109 -42.8109 -33.6210 -33.6210 -33.6210
   -29.1640 -16.2233 -16.1474 -16.0700 -16.0700 -16.0567 -16.0567 -12.6101
   -12.6101 -12.6072  -6.4165  -6.0304  -4.9201  -4.9201  -4.9072  -4.9072
    -3.6564  -3.2601  -3.1539  -3.1539  -2.8875  -2.8436  -2.8436  -2.8198
    -2.8198  -2.3707  -2.3707  -1.9511  -1.8846  -1.8116  -1.8116  -1.7237
    -1.3805  -1.3805  -0.8372  -0.8023  -0.8023   4.5618   4.5618   4.8008
     5.0114   5.0114   5.5464   5.7320   5.7320   6.0139

     occupation numbers 
     1.0000   1.0000   1.0000   1.0000   1.0000   1.0000   1.0000   1.0000
     1.0000   1.0000   1.0000   1.0000   1.0000   1.0000   1.0000   1.0000
     1.0000   1.0000   1.0000   1.0000   1.0000   1.0000   1.0000   1.0000
     1.0000   1.0000   1.0000   1.0000   1.0000   1.0000   1.0000   1.0000
     1.0000   1.0000   1.0000   1.0000   1.0000   1.0000   1.0000   1.0000
     1.0000   1.0000   1.0000   1.0000   1.0000   0.0000   0.0000   0.0000
     0.0000   0.0000   0.0000   0.0000   0.0000   0.0000

          k = 0.1768 0.0000 0.0000 ( 40009 PWs)   bands (ev):

   -71.4363 -59.7453 -42.8109 -42.8109 -42.8109 -33.6210 -33.6210 -33.6210
   -29.1639 -16.2700 -16.0918 -16.0890 -16.0890 -16.0425 -16.0373 -12.6109
   -12.6109 -12.6106  -6.8095  -5.2474  -4.9830  -4.9830  -4.9054  -4.8996
    -4.2882  -3.3608  -3.3193  -3.3193  -2.9172  -2.8755  -2.4648  -2.4249
    -2.4249  -2.1039  -2.1039  -2.0465  -1.9025  -1.9025  -1.7660  -1.5465
    -1.5102  -1.5102  -1.0665  -0.9777  -0.9777   4.5032   4.5058   4.6453
     4.7087   4.7087   5.2931   5.8147   5.8420   5.8420

     occupation numbers 
     1.0000   1.0000   1.0000   1.0000   1.0000   1.0000   1.0000   1.0000
     1.0000   1.0000   1.0000   1.0000   1.0000   1.0000   1.0000   1.0000
     1.0000   1.0000   1.0000   1.0000   1.0000   1.0000   1.0000   1.0000
     1.0000   1.0000   1.0000   1.0000   1.0000   1.0000   1.0000   1.0000
     1.0000   1.0000   1.0000   1.0000   1.0000   1.0000   1.0000   1.0000
     1.0000   1.0000   1.0000   1.0000   1.0000   0.0000   0.0000   0.0000
     0.0000   0.0000   0.0000   0.0000   0.0000   0.0000

          k = 0.2652 0.0884-0.0884 ( 40035 PWs)   bands (ev):

   -71.4363 -59.7453 -42.8109 -42.8109 -42.8109 -33.6210 -33.6210 -33.6210
   -29.1639 -16.2579 -16.1046 -16.0875 -16.0832 -16.0490 -16.0390 -12.6106
   -12.6105 -12.6096  -6.7269  -5.4921  -4.9662  -4.9657  -4.9046  -4.8934
    -4.0588  -3.3536  -3.2678  -3.2636  -2.9568  -2.8861  -2.6032  -2.5090
    -2.4954  -2.2028  -2.1900  -2.0194  -1.9632  -1.9313  -1.7004  -1.5843
    -1.4631  -1.4482  -1.0215  -0.8905  -0.8872   4.5156   4.5188   4.6738
     4.8040   4.8137   5.4660   5.7598   5.8776   5.9118

     occupation numbers 
     1.0000   1.0000   1.0000   1.0000   1.0000   1.0000   1.0000   1.0000
     1.0000   1.0000   1.0000   1.0000   1.0000   1.0000   1.0000   1.0000
     1.0000   1.0000   1.0000   1.0000   1.0000   1.0000   1.0000   1.0000
     1.0000   1.0000   1.0000   1.0000   1.0000   1.0000   1.0000   1.0000
     1.0000   1.0000   1.0000   1.0000   1.0000   1.0000   1.0000   1.0000
     1.0000   1.0000   1.0000   1.0000   1.0000   0.0000   0.0000   0.0000
     0.0000   0.0000   0.0000   0.0000   0.0000   0.0000

          k = 0.3536 0.1768-0.1768 ( 40059 PWs)   bands (ev):

   -71.4363 -59.7453 -42.8109 -42.8109 -42.8109 -33.6210 -33.6210 -33.6210
   -29.1640 -16.2390 -16.1254 -16.0826 -16.0753 -16.0568 -16.0441 -12.6102
   -12.6102 -12.6082  -6.5846  -5.7784  -4.9411  -4.9408  -4.9046  -4.8904
    -3.8084  -3.3254  -3.1980  -3.1858  -2.9762  -2.8928  -2.7898  -2.6589
    -2.6029  -2.3117  -2.3028  -2.0288  -1.9610  -1.9067  -1.6656  -1.6544
    -1.4054  -1.3887  -0.9279  -0.8175  -0.8078   4.5378   4.5382   4.7421
     4.9254   4.9650   5.6098   5.8101   5.8464   5.9180

     occupation numbers 
     1.0000   1.0000   1.0000   1.0000   1.0000   1.0000   1.0000   1.0000
     1.0000   1.0000   1.0000   1.0000   1.0000   1.0000   1.0000   1.0000
     1.0000   1.0000   1.0000   1.0000   1.0000   1.0000   1.0000   1.0000
     1.0000   1.0000   1.0000   1.0000   1.0000   1.0000   1.0000   1.0000
     1.0000   1.0000   1.0000   1.0000   1.0000   1.0000   1.0000   1.0000
     1.0000   1.0000   1.0000   1.0000   1.0000   0.0000   0.0000   0.0000
     0.0000   0.0000   0.0000   0.0000   0.0000   0.0000

          k =-0.2652-0.4419 0.4419 ( 40040 PWs)   bands (ev):

   -71.4363 -59.7453 -42.8109 -42.8109 -42.8109 -33.6210 -33.6210 -33.6210
   -29.1640 -16.2227 -16.1430 -16.0754 -16.0733 -16.0587 -16.0513 -12.6100
   -12.6098 -12.6074  -6.4342  -6.0017  -4.9200  -4.9197  -4.9072  -4.8971
    -3.6478  -3.2799  -3.1544  -3.1360  -2.9908  -2.8768  -2.8489  -2.8118
    -2.7198  -2.3771  -2.3757  -2.0678  -1.9036  -1.8544  -1.7199  -1.6730
    -1.3681  -1.3624  -0.8491  -0.7912  -0.7753   4.5482   4.5582   4.8127
     5.0016   5.0732   5.6024   5.7641   5.7863   6.0505

     occupation numbers 
     1.0000   1.0000   1.0000   1.0000   1.0000   1.0000   1.0000   1.0000
     1.0000   1.0000   1.0000   1.0000   1.0000   1.0000   1.0000   1.0000
     1.0000   1.0000   1.0000   1.0000   1.0000   1.0000   1.0000   1.0000
     1.0000   1.0000   1.0000   1.0000   1.0000   1.0000   1.0000   1.0000
     1.0000   1.0000   1.0000   1.0000   1.0000   1.0000   1.0000   1.0000
     1.0000   1.0000   1.0000   1.0000   1.0000   0.0000   0.0000   0.0000
     0.0000   0.0000   0.0000   0.0000   0.0000   0.0000

          k =-0.1768-0.3536 0.3536 ( 40010 PWs)   bands (ev):

   -71.4363 -59.7453 -42.8109 -42.8109 -42.8109 -33.6210 -33.6210 -33.6210
   -29.1640 -16.2266 -16.1392 -16.0803 -16.0700 -16.0567 -16.0514 -12.6101
   -12.6098 -12.6076  -6.4720  -5.9515  -4.9284  -4.9207  -4.9042  -4.8983
    -3.6819  -3.2867  -3.1599  -3.1579  -2.9562  -2.9285  -2.8502  -2.7194
    -2.7079  -2.3681  -2.3601  -2.0713  -1.9119  -1.8176  -1.7171  -1.7104
    -1.3868  -1.3527  -0.8348  -0.8071  -0.8007   4.5409   4.5612   4.8146
     4.9817   5.0133   5.6018   5.7895   5.8333   5.9904

     occupation numbers 
     1.0000   1.0000   1.0000   1.0000   1.0000   1.0000   1.0000   1.0000
     1.0000   1.0000   1.0000   1.0000   1.0000   1.0000   1.0000   1.0000
     1.0000   1.0000   1.0000   1.0000   1.0000   1.0000   1.0000   1.0000
     1.0000   1.0000   1.0000   1.0000   1.0000   1.0000   1.0000   1.0000
     1.0000   1.0000   1.0000   1.0000   1.0000   1.0000   1.0000   1.0000
     1.0000   1.0000   1.0000   1.0000   1.0000   0.0000   0.0000   0.0000
     0.0000   0.0000   0.0000   0.0000   0.0000   0.0000

          k =-0.0884-0.2652 0.2652 ( 40013 PWs)   bands (ev):

   -71.4363 -59.7453 -42.8109 -42.8109 -42.8109 -33.6210 -33.6210 -33.6210
   -29.1639 -16.2455 -16.1196 -16.0867 -16.0746 -16.0520 -16.0442 -12.6105
   -12.6101 -12.6087  -6.6325  -5.6956  -4.9500  -4.9475  -4.9021  -4.8949
    -3.8820  -3.3244  -3.2339  -3.2139  -2.9489  -2.9172  -2.7284  -2.5851
    -2.5640  -2.2887  -2.2662  -2.0381  -1.9694  -1.8140  -1.7713  -1.6430
    -1.4314  -1.3873  -0.9057  -0.8755  -0.8429   4.5238   4.5435   4.7477
     4.8630   4.8825   5.5903   5.7345   5.8917   5.9396

     occupation numbers 
     1.0000   1.0000   1.0000   1.0000   1.0000   1.0000   1.0000   1.0000
     1.0000   1.0000   1.0000   1.0000   1.0000   1.0000   1.0000   1.0000
     1.0000   1.0000   1.0000   1.0000   1.0000   1.0000   1.0000   1.0000
     1.0000   1.0000   1.0000   1.0000   1.0000   1.0000   1.0000   1.0000
     1.0000   1.0000   1.0000   1.0000   1.0000   1.0000   1.0000   1.0000
     1.0000   1.0000   1.0000   1.0000   1.0000   0.0000   0.0000   0.0000
     0.0000   0.0000   0.0000   0.0000   0.0000   0.0000

          k = 0.0000-0.1768 0.1768 ( 40006 PWs)   bands (ev):

   -71.4363 -59.7453 -42.8109 -42.8109 -42.8109 -33.6210 -33.6210 -33.6210
   -29.1639 -16.2628 -16.1022 -16.0893 -16.0817 -16.0446 -16.0399 -12.6109
   -12.6106 -12.6099  -6.7591  -5.4113  -4.9726  -4.9719  -4.9033  -4.8985
    -4.1367  -3.3450  -3.3026  -3.2859  -2.9244  -2.8966  -2.5457  -2.4717
    -2.4587  -2.1803  -2.1536  -2.0123  -1.9634  -1.8308  -1.8157  -1.5857
    -1.4829  -1.4534  -0.9890  -0.9676  -0.9243   4.5096   4.5189   4.6842
     4.7379   4.7617   5.3938   5.7534   5.8648   5.9063

     occupation numbers 
     1.0000   1.0000   1.0000   1.0000   1.0000   1.0000   1.0000   1.0000
     1.0000   1.0000   1.0000   1.0000   1.0000   1.0000   1.0000   1.0000
     1.0000   1.0000   1.0000   1.0000   1.0000   1.0000   1.0000   1.0000
     1.0000   1.0000   1.0000   1.0000   1.0000   1.0000   1.0000   1.0000
     1.0000   1.0000   1.0000   1.0000   1.0000   1.0000   1.0000   1.0000
     1.0000   1.0000   1.0000   1.0000   1.0000   0.0000   0.0000   0.0000
     0.0000   0.0000   0.0000   0.0000   0.0000   0.0000

          k = 0.3536 0.0000 0.0000 ( 40046 PWs)   bands (ev):

   -71.4363 -59.7453 -42.8109 -42.8109 -42.8109 -33.6210 -33.6210 -33.6210
   -29.1639 -16.2506 -16.0985 -16.0897 -16.0897 -16.0569 -16.0370 -12.6102
   -12.6102 -12.6092  -6.6854  -5.5760  -4.9570  -4.9570  -4.9062  -4.8820
    -3.9688  -3.3733  -3.2158  -3.2158  -3.0131  -2.8740  -2.7094  -2.5568
    -2.5568  -2.2296  -2.2296  -2.0642  -1.9906  -1.9906  -1.5477  -1.5460
    -1.4535  -1.4535  -1.0667  -0.8133  -0.8133   4.5129   4.5180   4.6522
     4.9266   4.9266   5.5798   5.8219   5.9087   5.9087

     occupation numbers 
     1.0000   1.0000   1.0000   1.0000   1.0000   1.0000   1.0000   1.0000
     1.0000   1.0000   1.0000   1.0000   1.0000   1.0000   1.0000   1.0000
     1.0000   1.0000   1.0000   1.0000   1.0000   1.0000   1.0000   1.0000
     1.0000   1.0000   1.0000   1.0000   1.0000   1.0000   1.0000   1.0000
     1.0000   1.0000   1.0000   1.0000   1.0000   1.0000   1.0000   1.0000
     1.0000   1.0000   1.0000   1.0000   1.0000   0.0000   0.0000   0.0000
     0.0000   0.0000   0.0000   0.0000   0.0000   0.0000

          k = 0.4419 0.0884-0.0884 ( 40048 PWs)   bands (ev):

   -71.4363 -59.7453 -42.8109 -42.8109 -42.8109 -33.6210 -33.6210 -33.6210
   -29.1640 -16.2362 -16.1128 -16.0881 -16.0822 -16.0660 -16.0387 -12.6098
   -12.6097 -12.6083  -6.5911  -5.7508  -4.9383  -4.9381  -4.9064  -4.8723
    -3.7993  -3.3683  -3.1547  -3.1418  -3.0459  -2.8764  -2.8744  -2.6664
    -2.6358  -2.3175  -2.3004  -2.0593  -2.0355  -1.9949  -1.5958  -1.4866
    -1.3995  -1.3847  -1.0214  -0.7487  -0.7456   4.5145   4.5309   4.6808
     5.0774   5.1006   5.6775   5.8906   5.9248   6.0005

     occupation numbers 
     1.0000   1.0000   1.0000   1.0000   1.0000   1.0000   1.0000   1.0000
     1.0000   1.0000   1.0000   1.0000   1.0000   1.0000   1.0000   1.0000
     1.0000   1.0000   1.0000   1.0000   1.0000   1.0000   1.0000   1.0000
     1.0000   1.0000   1.0000   1.0000   1.0000   1.0000   1.0000   1.0000
     1.0000   1.0000   1.0000   1.0000   1.0000   1.0000   1.0000   1.0000
     1.0000   1.0000   1.0000   1.0000   1.0000   0.0000   0.0000   0.0000
     0.0000   0.0000   0.0000   0.0000   0.0000   0.0000

          k =-0.1768-0.5303 0.5303 ( 40037 PWs)   bands (ev):

   -71.4363 -59.7453 -42.8109 -42.8109 -42.8109 -33.6210 -33.6210 -33.6210
   -29.1640 -16.2208 -16.1309 -16.0831 -16.0808 -16.0657 -16.0438 -12.6096
   -12.6092 -12.6077  -6.4699  -5.9381  -4.9187  -4.9186  -4.9072  -4.8735
    -3.6309  -3.3375  -3.1549  -3.0840  -3.0693  -2.9414  -2.8665  -2.7889
    -2.7005  -2.3965  -2.3621  -2.1548  -1.9741  -1.9369  -1.6808  -1.5166
    -1.3560  -1.3060  -0.9268  -0.7280  -0.7165   4.5179   4.5496   4.7562
     5.1273   5.2481   5.6996   5.8537   5.9328   6.1468

     occupation numbers 
     1.0000   1.0000   1.0000   1.0000   1.0000   1.0000   1.0000   1.0000
     1.0000   1.0000   1.0000   1.0000   1.0000   1.0000   1.0000   1.0000
     1.0000   1.0000   1.0000   1.0000   1.0000   1.0000   1.0000   1.0000
     1.0000   1.0000   1.0000   1.0000   1.0000   1.0000   1.0000   1.0000
     1.0000   1.0000   1.0000   1.0000   1.0000   1.0000   1.0000   1.0000
     1.0000   1.0000   1.0000   1.0000   1.0000   0.0000   0.0000   0.0000
     0.0000   0.0000   0.0000   0.0000   0.0000   0.0000

          k =-0.0884-0.4419 0.4419 ( 40068 PWs)   bands (ev):

   -71.4363 -59.7453 -42.8109 -42.8109 -42.8109 -33.6210 -33.6210 -33.6210
   -29.1640 -16.2170 -16.1378 -16.0875 -16.0758 -16.0562 -16.0511 -12.6098
   -12.6088 -12.6078  -6.4176  -6.0122  -4.9196  -4.9069  -4.8984  -4.8905
    -3.5899  -3.2931  -3.1650  -3.1128  -3.0910  -2.9343  -2.8617  -2.7536
    -2.7198  -2.4099  -2.3894  -2.1977  -1.9271  -1.8621  -1.7381  -1.5846
    -1.3567  -1.2843  -0.8457  -0.7595  -0.7369   4.5193   4.5632   4.8424
     5.0301   5.1948   5.7273   5.8894   5.9162   6.1898

     occupation numbers 
     1.0000   1.0000   1.0000   1.0000   1.0000   1.0000   1.0000   1.0000
     1.0000   1.0000   1.0000   1.0000   1.0000   1.0000   1.0000   1.0000
     1.0000   1.0000   1.0000   1.0000   1.0000   1.0000   1.0000   1.0000
     1.0000   1.0000   1.0000   1.0000   1.0000   1.0000   1.0000   1.0000
     1.0000   1.0000   1.0000   1.0000   1.0000   1.0000   1.0000   1.0000
     1.0000   1.0000   1.0000   1.0000   1.0000   0.0000   0.0000   0.0000
     0.0000   0.0000   0.0000   0.0000   0.0000   0.0000

          k = 0.0000-0.3536 0.3536 ( 40038 PWs)   bands (ev):

   -71.4363 -59.7453 -42.8109 -42.8109 -42.8109 -33.6210 -33.6210 -33.6210
   -29.1640 -16.2295 -16.1294 -16.0903 -16.0701 -16.0567 -16.0483 -12.6101
   -12.6092 -12.6082  -6.5147  -5.8846  -4.9333  -4.9203  -4.9018  -4.8927
    -3.7117  -3.3082  -3.1671  -3.1625  -2.9825  -2.9630  -2.8587  -2.6693
    -2.6319  -2.3621  -2.3460  -2.1539  -1.9422  -1.8205  -1.7002  -1.6733
    -1.3931  -1.3207  -0.8314  -0.8128  -0.7992   4.5208   4.5607   4.8300
     4.9525   5.0151   5.6311   5.9023   6.0088   6.0093

     occupation numbers 
     1.0000   1.0000   1.0000   1.0000   1.0000   1.0000   1.0000   1.0000
     1.0000   1.0000   1.0000   1.0000   1.0000   1.0000   1.0000   1.0000
     1.0000   1.0000   1.0000   1.0000   1.0000   1.0000   1.0000   1.0000
     1.0000   1.0000   1.0000   1.0000   1.0000   1.0000   1.0000   1.0000
     1.0000   1.0000   1.0000   1.0000   1.0000   1.0000   1.0000   1.0000
     1.0000   1.0000   1.0000   1.0000   1.0000   0.0000   0.0000   0.0000
     0.0000   0.0000   0.0000   0.0000   0.0000   0.0000

          k = 0.5303 0.0000 0.0000 ( 40022 PWs)   bands (ev):

   -71.4363 -59.7453 -42.8109 -42.8109 -42.8109 -33.6210 -33.6210 -33.6210
   -29.1640 -16.2282 -16.1028 -16.0903 -16.0903 -16.0769 -16.0366 -12.6094
   -12.6094 -12.6078  -6.5598  -5.7886  -4.9294  -4.9294  -4.9070  -4.8544
    -3.7328  -3.3923  -3.1145  -3.0708  -3.0708  -2.9908  -2.8724  -2.7195
    -2.7195  -2.3515  -2.3515  -2.0819  -2.0433  -2.0433  -1.5488  -1.4129
    -1.4129  -1.3050  -1.0659  -0.6885  -0.6885   4.4952   4.5320   4.6545
     5.3079   5.3079   5.7282   5.9920   5.9920   6.0782

     occupation numbers 
     1.0000   1.0000   1.0000   1.0000   1.0000   1.0000   1.0000   1.0000
     1.0000   1.0000   1.0000   1.0000   1.0000   1.0000   1.0000   1.0000
     1.0000   1.0000   1.0000   1.0000   1.0000   1.0000   1.0000   1.0000
     1.0000   1.0000   1.0000   1.0000   1.0000   1.0000   1.0000   1.0000
     1.0000   1.0000   1.0000   1.0000   1.0000   1.0000   1.0000   1.0000
     1.0000   1.0000   1.0000   1.0000   1.0000   0.0000   0.0000   0.0000
     0.0000   0.0000   0.0000   0.0000   0.0000   0.0000

          k =-0.0884-0.6187 0.6187 ( 40061 PWs)   bands (ev):

   -71.4363 -59.7453 -42.8109 -42.8109 -42.8109 -33.6210 -33.6210 -33.6210
   -29.1640 -16.2186 -16.1143 -16.0886 -16.0881 -16.0779 -16.0384 -12.6093
   -12.6090 -12.6075  -6.4994  -5.8790  -4.9178  -4.9176  -4.9073  -4.8489
    -3.6259  -3.3913  -3.1591  -3.1076  -3.0089  -2.9690  -2.8779  -2.7930
    -2.7767  -2.4133  -2.3862  -2.1056  -2.0516  -2.0230  -1.6011  -1.4265
    -1.3735  -1.2337  -1.0203  -0.6680  -0.6645   4.4893   4.5411   4.6831
     5.3896   5.4977   5.7952   5.9586   6.0470   6.2154

     occupation numbers 
     1.0000   1.0000   1.0000   1.0000   1.0000   1.0000   1.0000   1.0000
     1.0000   1.0000   1.0000   1.0000   1.0000   1.0000   1.0000   1.0000
     1.0000   1.0000   1.0000   1.0000   1.0000   1.0000   1.0000   1.0000
     1.0000   1.0000   1.0000   1.0000   1.0000   1.0000   1.0000   1.0000
     1.0000   1.0000   1.0000   1.0000   1.0000   1.0000   1.0000   1.0000
     1.0000   1.0000   1.0000   1.0000   1.0000   0.0000   0.0000   0.0000
     0.0000   0.0000   0.0000   0.0000   0.0000   0.0000

          k = 0.0000-0.5303 0.5303 ( 40054 PWs)   bands (ev):

   -71.4363 -59.7453 -42.8109 -42.8109 -42.8109 -33.6210 -33.6210 -33.6210
   -29.1640 -16.2134 -16.1290 -16.0910 -16.0834 -16.0657 -16.0436 -12.6094
   -12.6084 -12.6078  -6.4342  -5.9777  -4.9139  -4.9090  -4.9036  -4.8629
    -3.5463  -3.3550  -3.1818  -3.1679  -3.0149  -2.9260  -2.8794  -2.7814
    -2.7792  -2.4447  -2.3805  -2.2067  -1.9879  -1.9425  -1.6898  -1.4859
    -1.3452  -1.2304  -0.9263  -0.6959  -0.6830   4.4986   4.5543   4.7601
     5.2084   5.4243   5.8682   5.9777   6.0548   6.1925

     occupation numbers 
     1.0000   1.0000   1.0000   1.0000   1.0000   1.0000   1.0000   1.0000
     1.0000   1.0000   1.0000   1.0000   1.0000   1.0000   1.0000   1.0000
     1.0000   1.0000   1.0000   1.0000   1.0000   1.0000   1.0000   1.0000
     1.0000   1.0000   1.0000   1.0000   1.0000   1.0000   1.0000   1.0000
     1.0000   1.0000   1.0000   1.0000   1.0000   1.0000   1.0000   1.0000
     1.0000   1.0000   1.0000   1.0000   1.0000   0.0000   0.0000   0.0000
     0.0000   0.0000   0.0000   0.0000   0.0000   0.0000

          k =-0.7071 0.0000 0.0000 ( 40170 PWs)   bands (ev):

   -71.4363 -59.7453 -42.8109 -42.8109 -42.8109 -33.6210 -33.6210 -33.6210
   -29.1640 -16.2175 -16.0999 -16.0912 -16.0906 -16.0906 -16.0365 -12.6091
   -12.6091 -12.6072  -6.5104  -5.8552  -4.9174  -4.9174  -4.9074  -4.8382
    -3.6297  -3.4098  -3.1500  -3.1328  -2.9607  -2.9607  -2.8717  -2.8264
    -2.8264  -2.4105  -2.4105  -2.0892  -2.0587  -2.0587  -1.5492  -1.3986
    -1.3986  -1.2021  -1.0638  -0.6444  -0.6444   4.4777   4.5377   4.6549
     5.6770   5.6770   5.7335   5.9561   5.9561   6.2261

     occupation numbers 
     1.0000   1.0000   1.0000   1.0000   1.0000   1.0000   1.0000   1.0000
     1.0000   1.0000   1.0000   1.0000   1.0000   1.0000   1.0000   1.0000
     1.0000   1.0000   1.0000   1.0000   1.0000   1.0000   1.0000   1.0000
     1.0000   1.0000   1.0000   1.0000   1.0000   1.0000   1.0000   1.0000
     1.0000   1.0000   1.0000   1.0000   1.0000   1.0000   1.0000   1.0000
     1.0000   1.0000   1.0000   1.0000   1.0000   0.0000   0.0000   0.0000
     0.0000   0.0000   0.0000   0.0000   0.0000   0.0000

          k = 0.3536 0.1768 0.0000 ( 40042 PWs)   bands (ev):

   -71.4363 -59.7453 -42.8109 -42.8109 -42.8109 -33.6210 -33.6210 -33.6210
   -29.1639 -16.2444 -16.1138 -16.0898 -16.0772 -16.0569 -16.0406 -12.6103
   -12.6099 -12.6088  -6.6347  -5.6840  -4.9490  -4.9465  -4.9048  -4.8860
    -3.8798  -3.3483  -3.2088  -3.1989  -2.9952  -2.8930  -2.7633  -2.5955
    -2.5713  -2.2855  -2.2593  -2.0603  -1.9992  -1.9264  -1.6210  -1.6142
    -1.4290  -1.3908  -0.9801  -0.8137  -0.8124   4.5184   4.5354   4.7063
     4.9261   4.9418   5.6195   5.7642   5.9269   5.9729

     occupation numbers 
     1.0000   1.0000   1.0000   1.0000   1.0000   1.0000   1.0000   1.0000
     1.0000   1.0000   1.0000   1.0000   1.0000   1.0000   1.0000   1.0000
     1.0000   1.0000   1.0000   1.0000   1.0000   1.0000   1.0000   1.0000
     1.0000   1.0000   1.0000   1.0000   1.0000   1.0000   1.0000   1.0000
     1.0000   1.0000   1.0000   1.0000   1.0000   1.0000   1.0000   1.0000
     1.0000   1.0000   1.0000   1.0000   1.0000   0.0000   0.0000   0.0000
     0.0000   0.0000   0.0000   0.0000   0.0000   0.0000

          k =-0.2652-0.4419 0.6187 ( 40028 PWs)   bands (ev):

   -71.4363 -59.7453 -42.8109 -42.8109 -42.8109 -33.6210 -33.6210 -33.6210
   -29.1640 -16.2270 -16.1302 -16.0872 -16.0735 -16.0609 -16.0457 -12.6099
   -12.6093 -12.6079  -6.5025  -5.8993  -4.9298  -4.9200  -4.9055  -4.8846
    -3.6897  -3.3223  -3.1604  -3.1310  -3.0165  -2.9403  -2.8672  -2.7164
    -2.6598  -2.3672  -2.3465  -2.1386  -1.9513  -1.8972  -1.6891  -1.5923
    -1.3696  -1.3359  -0.8926  -0.7852  -0.7464   4.5233   4.5539   4.7853
     4.9994   5.1163   5.6471   5.8823   5.9482   6.0303

     occupation numbers 
     1.0000   1.0000   1.0000   1.0000   1.0000   1.0000   1.0000   1.0000
     1.0000   1.0000   1.0000   1.0000   1.0000   1.0000   1.0000   1.0000
     1.0000   1.0000   1.0000   1.0000   1.0000   1.0000   1.0000   1.0000
     1.0000   1.0000   1.0000   1.0000   1.0000   1.0000   1.0000   1.0000
     1.0000   1.0000   1.0000   1.0000   1.0000   1.0000   1.0000   1.0000
     1.0000   1.0000   1.0000   1.0000   1.0000   0.0000   0.0000   0.0000
     0.0000   0.0000   0.0000   0.0000   0.0000   0.0000

          k =-0.1768-0.3536 0.5303 ( 40076 PWs)   bands (ev):

   -71.4363 -59.7453 -42.8109 -42.8109 -42.8109 -33.6210 -33.6210 -33.6210
   -29.1640 -16.2175 -16.1398 -16.0814 -16.0792 -16.0556 -16.0517 -12.6097
   -12.6092 -12.6076  -6.4147  -6.0180  -4.9182  -4.9113  -4.8977  -4.8929
    -3.5964  -3.2921  -3.1606  -3.1017  -3.0868  -2.8936  -2.8808  -2.7877
    -2.7190  -2.3998  -2.3904  -2.1688  -1.9205  -1.8704  -1.7379  -1.5913
    -1.3376  -1.3192  -0.8234  -0.8080  -0.7210   4.5263   4.5614   4.8484
     4.9885   5.2210   5.7088   5.8283   5.8376   6.1735

     occupation numbers 
     1.0000   1.0000   1.0000   1.0000   1.0000   1.0000   1.0000   1.0000
     1.0000   1.0000   1.0000   1.0000   1.0000   1.0000   1.0000   1.0000
     1.0000   1.0000   1.0000   1.0000   1.0000   1.0000   1.0000   1.0000
     1.0000   1.0000   1.0000   1.0000   1.0000   1.0000   1.0000   1.0000
     1.0000   1.0000   1.0000   1.0000   1.0000   1.0000   1.0000   1.0000
     1.0000   1.0000   1.0000   1.0000   1.0000   0.0000   0.0000   0.0000
     0.0000   0.0000   0.0000   0.0000   0.0000   0.0000

          k =-0.1768-0.5303 0.7071 ( 40038 PWs)   bands (ev):

   -71.4363 -59.7453 -42.8109 -42.8109 -42.8109 -33.6210 -33.6210 -33.6210
   -29.1640 -16.2238 -16.1197 -16.0904 -16.0811 -16.0698 -16.0404 -12.6095
   -12.6091 -12.6078  -6.5125  -5.8700  -4.9261  -4.9188  -4.9070  -4.8639
    -3.6702  -3.3668  -3.1514  -3.0718  -3.0490  -2.9912  -2.8719  -2.7334
    -2.7223  -2.3772  -2.3590  -2.1249  -2.0101  -1.9946  -1.6346  -1.4802
    -1.3496  -1.3038  -0.9796  -0.7224  -0.6885   4.5045   4.5432   4.7127
     5.1717   5.3157   5.7142   5.9866   6.0101   6.1386

     occupation numbers 
     1.0000   1.0000   1.0000   1.0000   1.0000   1.0000   1.0000   1.0000
     1.0000   1.0000   1.0000   1.0000   1.0000   1.0000   1.0000   1.0000
     1.0000   1.0000   1.0000   1.0000   1.0000   1.0000   1.0000   1.0000
     1.0000   1.0000   1.0000   1.0000   1.0000   1.0000   1.0000   1.0000
     1.0000   1.0000   1.0000   1.0000   1.0000   1.0000   1.0000   1.0000
     1.0000   1.0000   1.0000   1.0000   1.0000   0.0000   0.0000   0.0000
     0.0000   0.0000   0.0000   0.0000   0.0000   0.0000

          k =-0.0884-0.4419 0.6187 ( 40051 PWs)   bands (ev):

   -71.4363 -59.7453 -42.8109 -42.8109 -42.8109 -33.6210 -33.6210 -33.6210
   -29.1640 -16.2141 -16.1301 -16.0882 -16.0870 -16.0610 -16.0456 -12.6093
   -12.6086 -12.6078  -6.4314  -5.9838  -4.9169  -4.9085  -4.8985  -4.8698
    -3.5526  -3.3470  -3.1834  -3.1600  -3.0180  -2.9236  -2.8894  -2.7867
    -2.7574  -2.4194  -2.3866  -2.2114  -1.9814  -1.9236  -1.7116  -1.5156
    -1.3116  -1.2582  -0.8917  -0.7489  -0.6659   4.5013   4.5564   4.7950
     5.0848   5.4757   5.8384   5.9313   6.0012   6.2574

     occupation numbers 
     1.0000   1.0000   1.0000   1.0000   1.0000   1.0000   1.0000   1.0000
     1.0000   1.0000   1.0000   1.0000   1.0000   1.0000   1.0000   1.0000
     1.0000   1.0000   1.0000   1.0000   1.0000   1.0000   1.0000   1.0000
     1.0000   1.0000   1.0000   1.0000   1.0000   1.0000   1.0000   1.0000
     1.0000   1.0000   1.0000   1.0000   1.0000   1.0000   1.0000   1.0000
     1.0000   1.0000   1.0000   1.0000   1.0000   0.0000   0.0000   0.0000
     0.0000   0.0000   0.0000   0.0000   0.0000   0.0000

          k =-0.0000-0.3536 0.5303 ( 40063 PWs)   bands (ev):

   -71.4363 -59.7453 -42.8109 -42.8109 -42.8109 -33.6210 -33.6210 -33.6210
   -29.1640 -16.2156 -16.1334 -16.0907 -16.0803 -16.0553 -16.0502 -12.6096
   -12.6085 -12.6080  -6.4245  -5.9982  -4.9196  -4.9072  -4.8929  -4.8847
    -3.5717  -3.3169  -3.1767  -3.1436  -3.0519  -2.9522  -2.8615  -2.7547
    -2.7358  -2.4049  -2.3884  -2.2251  -1.9507  -1.8810  -1.7410  -1.5556
    -1.3213  -1.2761  -0.8207  -0.8107  -0.6884   4.5085   4.5614   4.8576
     4.9835   5.3382   5.7681   5.9992   6.0135   6.1981

     occupation numbers 
     1.0000   1.0000   1.0000   1.0000   1.0000   1.0000   1.0000   1.0000
     1.0000   1.0000   1.0000   1.0000   1.0000   1.0000   1.0000   1.0000
     1.0000   1.0000   1.0000   1.0000   1.0000   1.0000   1.0000   1.0000
     1.0000   1.0000   1.0000   1.0000   1.0000   1.0000   1.0000   1.0000
     1.0000   1.0000   1.0000   1.0000   1.0000   1.0000   1.0000   1.0000
     1.0000   1.0000   1.0000   1.0000   1.0000   0.0000   0.0000   0.0000
     0.0000   0.0000   0.0000   0.0000   0.0000   0.0000

          k =-0.7071 0.1768 0.0000 ( 40038 PWs)   bands (ev):

   -71.4363 -59.7453 -42.8109 -42.8109 -42.8109 -33.6210 -33.6210 -33.6210
   -29.1640 -16.2145 -16.1186 -16.0912 -16.0906 -16.0711 -16.0403 -12.6091
   -12.6088 -12.6075  -6.4678  -5.9248  -4.9168  -4.9075  -4.9068  -4.8506
    -3.5687  -3.3902  -3.1737  -3.1658  -2.9562  -2.9367  -2.9015  -2.8180
    -2.7910  -2.4222  -2.4097  -2.1448  -2.0300  -2.0038  -1.6399  -1.4577
    -1.3353  -1.2153  -0.9790  -0.6895  -0.6445   4.4870   4.5473   4.7144
     5.2840   5.6772   5.9448   5.9513   6.0096   6.2128

     occupation numbers 
     1.0000   1.0000   1.0000   1.0000   1.0000   1.0000   1.0000   1.0000
     1.0000   1.0000   1.0000   1.0000   1.0000   1.0000   1.0000   1.0000
     1.0000   1.0000   1.0000   1.0000   1.0000   1.0000   1.0000   1.0000
     1.0000   1.0000   1.0000   1.0000   1.0000   1.0000   1.0000   1.0000
     1.0000   1.0000   1.0000   1.0000   1.0000   1.0000   1.0000   1.0000
     1.0000   1.0000   1.0000   1.0000   1.0000   0.0000   0.0000   0.0000
     0.0000   0.0000   0.0000   0.0000   0.0000   0.0000

          k =-0.7071 0.3536 0.0000 ( 39932 PWs)   bands (ev):

   -71.4363 -59.7453 -42.8109 -42.8109 -42.8109 -33.6210 -33.6210 -33.6210
   -29.1640 -16.2110 -16.1291 -16.0912 -16.0905 -16.0550 -16.0492 -12.6091
   -12.6082 -12.6082  -6.4128  -6.0055  -4.9161  -4.9076  -4.8836  -4.8756
    -3.5009  -3.3648  -3.2053  -3.2011  -2.9489  -2.9217  -2.9191  -2.8073
    -2.7677  -2.4088  -2.4028  -2.2459  -1.9919  -1.8927  -1.7475  -1.5263
    -1.2617  -1.2603  -0.8217  -0.8100  -0.6445   4.4936   4.5597   4.8573
     4.9924   5.6775   5.9464   5.9516   6.1261   6.1600

     occupation numbers 
     1.0000   1.0000   1.0000   1.0000   1.0000   1.0000   1.0000   1.0000
     1.0000   1.0000   1.0000   1.0000   1.0000   1.0000   1.0000   1.0000
     1.0000   1.0000   1.0000   1.0000   1.0000   1.0000   1.0000   1.0000
     1.0000   1.0000   1.0000   1.0000   1.0000   1.0000   1.0000   1.0000
     1.0000   1.0000   1.0000   1.0000   1.0000   1.0000   1.0000   1.0000
     1.0000   1.0000   1.0000   1.0000   1.0000   0.0000   0.0000   0.0000
     0.0000   0.0000   0.0000   0.0000   0.0000   0.0000

 ------ SPIN DOWN ----------


          k = 0.0000 0.0000 0.0000 ( 39957 PWs)   bands (ev):

   -68.5371 -62.2550 -39.8736 -39.8736 -39.8736 -36.1380 -36.1380 -36.1380
   -29.1644 -16.2417 -16.0501 -16.0501 -16.0501 -15.9943 -15.9943 -12.6114
   -12.6114 -12.6114  -6.8756  -5.0377  -5.0377  -5.0377  -4.8735  -4.8735
    -4.5251  -3.1661  -3.1661  -3.1661  -2.5120  -2.5120  -2.3627  -2.3627
    -2.3627  -2.0145  -2.0145  -2.0145  -1.8570  -1.8570  -1.8570  -1.5116
    -1.5116  -1.5116   0.8604   0.8604   0.8604   3.7402   3.7402   3.7402
     5.2096   5.6392   5.6392   5.6957   5.6957   5.6957

     occupation numbers 
     1.0000   1.0000   1.0000   1.0000   1.0000   1.0000   1.0000   1.0000
     1.0000   1.0000   1.0000   1.0000   1.0000   1.0000   1.0000   1.0000
     1.0000   1.0000   1.0000   1.0000   1.0000   1.0000   1.0000   1.0000
     1.0000   1.0000   1.0000   1.0000   1.0000   1.0000   1.0000   1.0000
     1.0000   1.0000   1.0000   1.0000   1.0000   1.0000   1.0000   1.0000
     1.0000   1.0000   1.0000   1.0000   1.0000   0.0000   0.0000   0.0000
     0.0000   0.0000   0.0000   0.0000   0.0000   0.0000

          k = 0.0884 0.0884-0.0884 ( 40023 PWs)   bands (ev):

   -68.5371 -62.2550 -39.8736 -39.8736 -39.8736 -36.1380 -36.1380 -36.1380
   -29.1644 -16.2359 -16.0566 -16.0481 -16.0481 -15.9964 -15.9964 -12.6113
   -12.6113 -12.6108  -6.8345  -5.2474  -5.0307  -5.0307  -4.8699  -4.8699
    -4.3245  -3.1719  -3.1440  -3.1440  -2.5667  -2.5667  -2.3788  -2.3507
    -2.3507  -2.0593  -2.0593  -1.9990  -1.8943  -1.8608  -1.8608  -1.5307
    -1.4826  -1.4826   0.9140   0.9169   0.9169   3.6824   3.7006   3.7006
     5.2872   5.6113   5.6113   5.7456   5.8114   5.8114

     occupation numbers 
     1.0000   1.0000   1.0000   1.0000   1.0000   1.0000   1.0000   1.0000
     1.0000   1.0000   1.0000   1.0000   1.0000   1.0000   1.0000   1.0000
     1.0000   1.0000   1.0000   1.0000   1.0000   1.0000   1.0000   1.0000
     1.0000   1.0000   1.0000   1.0000   1.0000   1.0000   1.0000   1.0000
     1.0000   1.0000   1.0000   1.0000   1.0000   1.0000   1.0000   1.0000
     1.0000   1.0000   1.0000   1.0000   1.0000   0.0000   0.0000   0.0000
     0.0000   0.0000   0.0000   0.0000   0.0000   0.0000

          k = 0.1768 0.1768-0.1768 ( 40014 PWs)   bands (ev):

   -68.5371 -62.2550 -39.8736 -39.8736 -39.8736 -36.1380 -36.1380 -36.1380
   -29.1644 -16.2197 -16.0745 -16.0424 -16.0424 -16.0023 -16.0023 -12.6109
   -12.6109 -12.6095  -6.7136  -5.5920  -5.0139  -5.0139  -4.8608  -4.8608
    -4.0085  -3.1984  -3.0836  -3.0836  -2.6509  -2.6509  -2.4154  -2.3831
    -2.3831  -2.1818  -2.1818  -1.9869  -1.9553  -1.8229  -1.8229  -1.5832
    -1.4353  -1.4353   1.0472   1.0540   1.0540   3.5415   3.6008   3.6008
     5.4942   5.6625   5.6625   5.8761   5.9952   5.9952

     occupation numbers 
     1.0000   1.0000   1.0000   1.0000   1.0000   1.0000   1.0000   1.0000
     1.0000   1.0000   1.0000   1.0000   1.0000   1.0000   1.0000   1.0000
     1.0000   1.0000   1.0000   1.0000   1.0000   1.0000   1.0000   1.0000
     1.0000   1.0000   1.0000   1.0000   1.0000   1.0000   1.0000   1.0000
     1.0000   1.0000   1.0000   1.0000   1.0000   1.0000   1.0000   1.0000
     1.0000   1.0000   1.0000   1.0000   1.0000   0.0000   0.0000   0.0000
     0.0000   0.0000   0.0000   0.0000   0.0000   0.0000

          k = 0.2652 0.2652-0.2652 ( 40026 PWs)   bands (ev):

   -68.5371 -62.2550 -39.8736 -39.8736 -39.8736 -36.1380 -36.1380 -36.1380
   -29.1643 -16.1980 -16.0979 -16.0342 -16.0342 -16.0107 -16.0107 -12.6105
   -12.6105 -12.6081  -6.5212  -5.9324  -4.9969  -4.9969  -4.8512  -4.8512
    -3.7232  -3.2672  -3.0093  -3.0093  -2.7015  -2.7015  -2.4522  -2.4522
    -2.4448  -2.3191  -2.3191  -2.0863  -1.8941  -1.7556  -1.7556  -1.6531
    -1.4102  -1.4102   1.1885   1.1945   1.1945   3.3950   3.4938   3.4938
     5.7288   5.7956   5.7956   6.0560   6.1088   6.1088

     occupation numbers 
     1.0000   1.0000   1.0000   1.0000   1.0000   1.0000   1.0000   1.0000
     1.0000   1.0000   1.0000   1.0000   1.0000   1.0000   1.0000   1.0000
     1.0000   1.0000   1.0000   1.0000   1.0000   1.0000   1.0000   1.0000
     1.0000   1.0000   1.0000   1.0000   1.0000   1.0000   1.0000   1.0000
     1.0000   1.0000   1.0000   1.0000   1.0000   1.0000   1.0000   1.0000
     1.0000   1.0000   1.0000   1.0000   1.0000   0.0000   0.0000   0.0000
     0.0000   0.0000   0.0000   0.0000   0.0000   0.0000

          k =-0.3536-0.3536 0.3536 ( 40094 PWs)   bands (ev):

   -68.5371 -62.2550 -39.8736 -39.8736 -39.8736 -36.1380 -36.1380 -36.1380
   -29.1643 -16.1853 -16.1113 -16.0277 -16.0277 -16.0172 -16.0172 -12.6104
   -12.6104 -12.6075  -6.3219  -6.1824  -4.9899  -4.9899  -4.8469  -4.8469
    -3.5656  -3.3453  -2.9737  -2.9737  -2.7062  -2.7062  -2.4984  -2.4984
    -2.4530  -2.3774  -2.3774  -2.1311  -1.8543  -1.7229  -1.7229  -1.6964
    -1.4056  -1.4056   1.2504   1.2544   1.2544   3.3315   3.4468   3.4468
     5.8265   5.9180   5.9180   6.0534   6.0534   6.1797

     occupation numbers 
     1.0000   1.0000   1.0000   1.0000   1.0000   1.0000   1.0000   1.0000
     1.0000   1.0000   1.0000   1.0000   1.0000   1.0000   1.0000   1.0000
     1.0000   1.0000   1.0000   1.0000   1.0000   1.0000   1.0000   1.0000
     1.0000   1.0000   1.0000   1.0000   1.0000   1.0000   1.0000   1.0000
     1.0000   1.0000   1.0000   1.0000   1.0000   1.0000   1.0000   1.0000
     1.0000   1.0000   1.0000   1.0000   1.0000   0.0000   0.0000   0.0000
     0.0000   0.0000   0.0000   0.0000   0.0000   0.0000

          k = 0.1768 0.0000 0.0000 ( 40009 PWs)   bands (ev):

   -68.5371 -62.2550 -39.8736 -39.8736 -39.8736 -36.1380 -36.1380 -36.1380
   -29.1644 -16.2340 -16.0528 -16.0504 -16.0504 -16.0000 -15.9942 -12.6111
   -12.6111 -12.6108  -6.8225  -5.2872  -5.0273  -5.0273  -4.8738  -4.8726
    -4.2798  -3.1714  -3.1373  -3.1373  -2.6404  -2.5114  -2.3691  -2.3652
    -2.3652  -2.0687  -2.0687  -2.0220  -1.9178  -1.9178  -1.7704  -1.5121
    -1.4849  -1.4849   0.8610   0.9663   0.9663   3.6615   3.6615   3.7417
     5.3112   5.5653   5.6435   5.7907   5.7907   5.8434

     occupation numbers 
     1.0000   1.0000   1.0000   1.0000   1.0000   1.0000   1.0000   1.0000
     1.0000   1.0000   1.0000   1.0000   1.0000   1.0000   1.0000   1.0000
     1.0000   1.0000   1.0000   1.0000   1.0000   1.0000   1.0000   1.0000
     1.0000   1.0000   1.0000   1.0000   1.0000   1.0000   1.0000   1.0000
     1.0000   1.0000   1.0000   1.0000   1.0000   1.0000   1.0000   1.0000
     1.0000   1.0000   1.0000   1.0000   1.0000   0.0000   0.0000   0.0000
     0.0000   0.0000   0.0000   0.0000   0.0000   0.0000

          k = 0.2652 0.0884-0.0884 ( 40035 PWs)   bands (ev):

   -68.5371 -62.2550 -39.8736 -39.8736 -39.8736 -36.1380 -36.1380 -36.1380
   -29.1644 -16.2215 -16.0662 -16.0486 -16.0437 -16.0073 -15.9962 -12.6108
   -12.6108 -12.6098  -6.7333  -5.5373  -5.0130  -5.0125  -4.8705  -4.8668
    -4.0446  -3.1835  -3.0938  -3.0907  -2.7352  -2.5583  -2.4305  -2.3821
    -2.3627  -2.1921  -2.1578  -1.9917  -1.9850  -1.9265  -1.6872  -1.5509
    -1.4526  -1.4332   0.9169   1.0893   1.0901   3.5685   3.5842   3.7004
     5.4631   5.6149   5.6524   5.8764   5.9329   5.9680

     occupation numbers 
     1.0000   1.0000   1.0000   1.0000   1.0000   1.0000   1.0000   1.0000
     1.0000   1.0000   1.0000   1.0000   1.0000   1.0000   1.0000   1.0000
     1.0000   1.0000   1.0000   1.0000   1.0000   1.0000   1.0000   1.0000
     1.0000   1.0000   1.0000   1.0000   1.0000   1.0000   1.0000   1.0000
     1.0000   1.0000   1.0000   1.0000   1.0000   1.0000   1.0000   1.0000
     1.0000   1.0000   1.0000   1.0000   1.0000   0.0000   0.0000   0.0000
     0.0000   0.0000   0.0000   0.0000   0.0000   0.0000

          k = 0.3536 0.1768-0.1768 ( 40059 PWs)   bands (ev):

   -68.5371 -62.2550 -39.8736 -39.8736 -39.8736 -36.1380 -36.1380 -36.1380
   -29.1643 -16.2017 -16.0881 -16.0430 -16.0344 -16.0165 -16.0019 -12.6104
   -12.6104 -12.6085  -6.5734  -5.8430  -4.9953  -4.9943  -4.8613  -4.8575
    -3.7794  -3.2278  -3.0372  -3.0213  -2.7897  -2.6240  -2.5014  -2.4206
    -2.4124  -2.3295  -2.2698  -2.0907  -1.9298  -1.8659  -1.6310  -1.6220
    -1.4161  -1.3879   1.0526   1.2163   1.2176   3.4541   3.5076   3.5957
     5.6587   5.7206   5.7967   5.9966   6.0598   6.1026

     occupation numbers 
     1.0000   1.0000   1.0000   1.0000   1.0000   1.0000   1.0000   1.0000
     1.0000   1.0000   1.0000   1.0000   1.0000   1.0000   1.0000   1.0000
     1.0000   1.0000   1.0000   1.0000   1.0000   1.0000   1.0000   1.0000
     1.0000   1.0000   1.0000   1.0000   1.0000   1.0000   1.0000   1.0000
     1.0000   1.0000   1.0000   1.0000   1.0000   1.0000   1.0000   1.0000
     1.0000   1.0000   1.0000   1.0000   1.0000   0.0000   0.0000   0.0000
     0.0000   0.0000   0.0000   0.0000   0.0000   0.0000

          k =-0.2652-0.4419 0.4419 ( 40040 PWs)   bands (ev):

   -68.5371 -62.2550 -39.8736 -39.8736 -39.8736 -36.1380 -36.1380 -36.1380
   -29.1643 -16.1844 -16.1067 -16.0347 -16.0318 -16.0189 -16.0103 -12.6102
   -12.6101 -12.6077  -6.3652  -6.1253  -4.9865  -4.9806  -4.8560  -4.8504
    -3.5759  -3.3134  -3.0112  -2.9651  -2.7620  -2.6801  -2.5395  -2.5181
    -2.4261  -2.3665  -2.3518  -2.1812  -1.8690  -1.7849  -1.6869  -1.6401
    -1.3810  -1.3780   1.1929   1.2702   1.2728   3.3843   3.4813   3.4907
     5.8129   5.8435   5.9170   6.0202   6.0884   6.1793

     occupation numbers 
     1.0000   1.0000   1.0000   1.0000   1.0000   1.0000   1.0000   1.0000
     1.0000   1.0000   1.0000   1.0000   1.0000   1.0000   1.0000   1.0000
     1.0000   1.0000   1.0000   1.0000   1.0000   1.0000   1.0000   1.0000
     1.0000   1.0000   1.0000   1.0000   1.0000   1.0000   1.0000   1.0000
     1.0000   1.0000   1.0000   1.0000   1.0000   1.0000   1.0000   1.0000
     1.0000   1.0000   1.0000   1.0000   1.0000   0.0000   0.0000   0.0000
     0.0000   0.0000   0.0000   0.0000   0.0000   0.0000

          k =-0.1768-0.3536 0.3536 ( 40010 PWs)   bands (ev):

   -68.5371 -62.2550 -39.8736 -39.8736 -39.8736 -36.1380 -36.1380 -36.1380
   -29.1643 -16.1886 -16.1026 -16.0403 -16.0278 -16.0172 -16.0100 -12.6104
   -12.6100 -12.6079  -6.4288  -6.0496  -4.9910  -4.9801  -4.8637  -4.8453
    -3.6265  -3.2829  -3.0324  -2.9647  -2.7487  -2.7007  -2.5106  -2.4984
    -2.4287  -2.3657  -2.3101  -2.1835  -1.8807  -1.7347  -1.7066  -1.6741
    -1.4065  -1.3589   1.2137   1.2207   1.2533   3.3837   3.4738   3.5272
     5.7585   5.8578   5.8617   6.0273   6.0887   6.1667

     occupation numbers 
     1.0000   1.0000   1.0000   1.0000   1.0000   1.0000   1.0000   1.0000
     1.0000   1.0000   1.0000   1.0000   1.0000   1.0000   1.0000   1.0000
     1.0000   1.0000   1.0000   1.0000   1.0000   1.0000   1.0000   1.0000
     1.0000   1.0000   1.0000   1.0000   1.0000   1.0000   1.0000   1.0000
     1.0000   1.0000   1.0000   1.0000   1.0000   1.0000   1.0000   1.0000
     1.0000   1.0000   1.0000   1.0000   1.0000   0.0000   0.0000   0.0000
     0.0000   0.0000   0.0000   0.0000   0.0000   0.0000

          k =-0.0884-0.2652 0.2652 ( 40013 PWs)   bands (ev):

   -68.5371 -62.2550 -39.8736 -39.8736 -39.8736 -36.1380 -36.1380 -36.1380
   -29.1644 -16.2086 -16.0818 -16.0477 -16.0338 -16.0110 -16.0019 -12.6107
   -12.6103 -12.6089  -6.6288  -5.7533  -5.0054  -4.9952  -4.8727  -4.8497
    -3.8605  -3.2040  -3.0762  -3.0341  -2.7356  -2.6535  -2.4496  -2.4129
    -2.3932  -2.3038  -2.1916  -2.1033  -1.9428  -1.7870  -1.7437  -1.6079
    -1.4408  -1.3806   1.0855   1.0950   1.1921   3.4541   3.5522   3.6131
     5.6046   5.7005   5.7178   5.9458   6.0560   6.0767

     occupation numbers 
     1.0000   1.0000   1.0000   1.0000   1.0000   1.0000   1.0000   1.0000
     1.0000   1.0000   1.0000   1.0000   1.0000   1.0000   1.0000   1.0000
     1.0000   1.0000   1.0000   1.0000   1.0000   1.0000   1.0000   1.0000
     1.0000   1.0000   1.0000   1.0000   1.0000   1.0000   1.0000   1.0000
     1.0000   1.0000   1.0000   1.0000   1.0000   1.0000   1.0000   1.0000
     1.0000   1.0000   1.0000   1.0000   1.0000   0.0000   0.0000   0.0000
     0.0000   0.0000   0.0000   0.0000   0.0000   0.0000

          k = 0.0000-0.1768 0.1768 ( 40006 PWs)   bands (ev):

   -68.5371 -62.2550 -39.8736 -39.8736 -39.8736 -36.1380 -36.1380 -36.1380
   -29.1644 -16.2267 -16.0638 -16.0506 -16.0421 -16.0024 -15.9971 -12.6111
   -12.6108 -12.6102  -6.7685  -5.4556  -5.0216  -5.0168  -4.8748  -4.8602
    -4.1271  -3.1772  -3.1184  -3.1069  -2.6609  -2.5893  -2.3791  -2.3788
    -2.3658  -2.1617  -2.0899  -1.9943  -1.9880  -1.8420  -1.8005  -1.5509
    -1.4712  -1.4346   0.9633   0.9701   1.0514   3.5793   3.6434   3.6829
     5.4062   5.6089   5.6339   5.8372   5.8915   5.9390

     occupation numbers 
     1.0000   1.0000   1.0000   1.0000   1.0000   1.0000   1.0000   1.0000
     1.0000   1.0000   1.0000   1.0000   1.0000   1.0000   1.0000   1.0000
     1.0000   1.0000   1.0000   1.0000   1.0000   1.0000   1.0000   1.0000
     1.0000   1.0000   1.0000   1.0000   1.0000   1.0000   1.0000   1.0000
     1.0000   1.0000   1.0000   1.0000   1.0000   1.0000   1.0000   1.0000
     1.0000   1.0000   1.0000   1.0000   1.0000   0.0000   0.0000   0.0000
     0.0000   0.0000   0.0000   0.0000   0.0000   0.0000

          k = 0.3536 0.0000 0.0000 ( 40046 PWs)   bands (ev):

   -68.5371 -62.2550 -39.8736 -39.8736 -39.8736 -36.1380 -36.1380 -36.1380
   -29.1644 -16.2137 -16.0590 -16.0510 -16.0510 -16.0160 -15.9939 -12.6104
   -12.6104 -12.6095  -6.6870  -5.6200  -5.0011  -5.0011  -4.8765  -4.8746
    -3.9455  -3.1876  -3.0575  -3.0575  -2.8494  -2.5147  -2.5097  -2.3796
    -2.3796  -2.2458  -2.2458  -2.0402  -1.9815  -1.9815  -1.5324  -1.5132
    -1.4406  -1.4406   0.8624   1.1822   1.1822   3.5682   3.5682   3.7452
     5.4972   5.6528   5.6749   5.9440   5.9440   5.9592

     occupation numbers 
     1.0000   1.0000   1.0000   1.0000   1.0000   1.0000   1.0000   1.0000
     1.0000   1.0000   1.0000   1.0000   1.0000   1.0000   1.0000   1.0000
     1.0000   1.0000   1.0000   1.0000   1.0000   1.0000   1.0000   1.0000
     1.0000   1.0000   1.0000   1.0000   1.0000   1.0000   1.0000   1.0000
     1.0000   1.0000   1.0000   1.0000   1.0000   1.0000   1.0000   1.0000
     1.0000   1.0000   1.0000   1.0000   1.0000   0.0000   0.0000   0.0000
     0.0000   0.0000   0.0000   0.0000   0.0000   0.0000

          k = 0.4419 0.0884-0.0884 ( 40048 PWs)   bands (ev):

   -68.5371 -62.2550 -39.8736 -39.8736 -39.8736 -36.1380 -36.1380 -36.1380
   -29.1643 -16.1985 -16.0746 -16.0493 -16.0421 -16.0262 -15.9958 -12.6100
   -12.6099 -12.6086  -6.5797  -5.8069  -4.9860  -4.9828  -4.8742  -4.8709
    -3.7694  -3.2064  -3.0342  -2.9972  -2.9079  -2.5971  -2.5430  -2.4359
    -2.4155  -2.3388  -2.3257  -2.0395  -2.0040  -1.9705  -1.5636  -1.4696
    -1.3910  -1.3804   0.9183   1.2760   1.2763   3.5427   3.5593   3.7036
     5.5918   5.6735   5.8785   5.9392   6.0236   6.0447

     occupation numbers 
     1.0000   1.0000   1.0000   1.0000   1.0000   1.0000   1.0000   1.0000
     1.0000   1.0000   1.0000   1.0000   1.0000   1.0000   1.0000   1.0000
     1.0000   1.0000   1.0000   1.0000   1.0000   1.0000   1.0000   1.0000
     1.0000   1.0000   1.0000   1.0000   1.0000   1.0000   1.0000   1.0000
     1.0000   1.0000   1.0000   1.0000   1.0000   1.0000   1.0000   1.0000
     1.0000   1.0000   1.0000   1.0000   1.0000   0.0000   0.0000   0.0000
     0.0000   0.0000   0.0000   0.0000   0.0000   0.0000

          k =-0.1768-0.5303 0.5303 ( 40037 PWs)   bands (ev):

   -68.5371 -62.2550 -39.8736 -39.8736 -39.8736 -36.1380 -36.1380 -36.1380
   -29.1643 -16.1820 -16.0941 -16.0436 -16.0406 -16.0258 -16.0016 -12.6099
   -12.6094 -12.6080  -6.4248  -6.0302  -4.9774  -4.9606  -4.8768  -4.8597
    -3.5898  -3.2602  -3.0708  -2.9368  -2.8574  -2.6276  -2.6211  -2.5407
    -2.4461  -2.3677  -2.3626  -2.1478  -1.9241  -1.8974  -1.6492  -1.5121
    -1.3546  -1.3026   1.0537   1.3147   1.3169   3.5107   3.5672   3.5973
     5.7434   5.7534   5.8863   5.9931   6.0866   6.1926

     occupation numbers 
     1.0000   1.0000   1.0000   1.0000   1.0000   1.0000   1.0000   1.0000
     1.0000   1.0000   1.0000   1.0000   1.0000   1.0000   1.0000   1.0000
     1.0000   1.0000   1.0000   1.0000   1.0000   1.0000   1.0000   1.0000
     1.0000   1.0000   1.0000   1.0000   1.0000   1.0000   1.0000   1.0000
     1.0000   1.0000   1.0000   1.0000   1.0000   1.0000   1.0000   1.0000
     1.0000   1.0000   1.0000   1.0000   1.0000   0.0000   0.0000   0.0000
     0.0000   0.0000   0.0000   0.0000   0.0000   0.0000

          k =-0.0884-0.4419 0.4419 ( 40068 PWs)   bands (ev):

   -68.5371 -62.2550 -39.8736 -39.8736 -39.8736 -36.1380 -36.1380 -36.1380
   -29.1643 -16.1779 -16.1013 -16.0484 -16.0351 -16.0150 -16.0100 -12.6100
   -12.6091 -12.6081  -6.3299  -6.1494  -4.9806  -4.9470  -4.8895  -4.8476
    -3.5369  -3.2721  -3.1051  -2.9066  -2.7803  -2.7510  -2.5890  -2.5491
    -2.4131  -2.3748  -2.3333  -2.2485  -1.8761  -1.8047  -1.6999  -1.5955
    -1.3638  -1.2803   1.1932   1.2735   1.2800   3.4557   3.5254   3.5907
     5.7564   5.8458   5.9147   5.9576   6.0399   6.2595

     occupation numbers 
     1.0000   1.0000   1.0000   1.0000   1.0000   1.0000   1.0000   1.0000
     1.0000   1.0000   1.0000   1.0000   1.0000   1.0000   1.0000   1.0000
     1.0000   1.0000   1.0000   1.0000   1.0000   1.0000   1.0000   1.0000
     1.0000   1.0000   1.0000   1.0000   1.0000   1.0000   1.0000   1.0000
     1.0000   1.0000   1.0000   1.0000   1.0000   1.0000   1.0000   1.0000
     1.0000   1.0000   1.0000   1.0000   1.0000   0.0000   0.0000   0.0000
     0.0000   0.0000   0.0000   0.0000   0.0000   0.0000

          k = 0.0000-0.3536 0.3536 ( 40038 PWs)   bands (ev):

   -68.5371 -62.2550 -39.8736 -39.8736 -39.8736 -36.1380 -36.1380 -36.1380
   -29.1643 -16.1916 -16.0920 -16.0516 -16.0278 -16.0172 -16.0064 -12.6104
   -12.6094 -12.6085  -6.4870  -5.9640  -4.9921  -4.9639  -4.8878  -4.8437
    -3.6765  -3.2043  -3.1132  -2.9530  -2.7882  -2.7020  -2.5156  -2.4924
    -2.4038  -2.3540  -2.2512  -2.2342  -1.9106  -1.7395  -1.6944  -1.6596
    -1.4074  -1.3148   1.1774   1.1883   1.2532   3.4063   3.5324   3.6110
     5.6807   5.7816   5.8556   6.0125   6.0228   6.1887

     occupation numbers 
     1.0000   1.0000   1.0000   1.0000   1.0000   1.0000   1.0000   1.0000
     1.0000   1.0000   1.0000   1.0000   1.0000   1.0000   1.0000   1.0000
     1.0000   1.0000   1.0000   1.0000   1.0000   1.0000   1.0000   1.0000
     1.0000   1.0000   1.0000   1.0000   1.0000   1.0000   1.0000   1.0000
     1.0000   1.0000   1.0000   1.0000   1.0000   1.0000   1.0000   1.0000
     1.0000   1.0000   1.0000   1.0000   1.0000   0.0000   0.0000   0.0000
     0.0000   0.0000   0.0000   0.0000   0.0000   0.0000

          k = 0.5303 0.0000 0.0000 ( 40022 PWs)   bands (ev):

   -68.5371 -62.2550 -39.8736 -39.8736 -39.8736 -36.1380 -36.1380 -36.1380
   -29.1643 -16.1896 -16.0634 -16.0517 -16.0517 -16.0377 -15.9935 -12.6097
   -12.6097 -12.6081  -6.5413  -5.8442  -4.9736  -4.9736  -4.8806  -4.8755
    -3.6983  -3.2264  -3.0309  -2.9459  -2.9459  -2.6895  -2.5078  -2.5025
    -2.5025  -2.3423  -2.3423  -2.0582  -2.0189  -2.0189  -1.5143  -1.4071
    -1.4071  -1.2880   0.8639   1.3355   1.3355   3.6206   3.6206   3.7489
     5.5816   5.6608   5.8637   6.0239   6.0239   6.0518

     occupation numbers 
     1.0000   1.0000   1.0000   1.0000   1.0000   1.0000   1.0000   1.0000
     1.0000   1.0000   1.0000   1.0000   1.0000   1.0000   1.0000   1.0000
     1.0000   1.0000   1.0000   1.0000   1.0000   1.0000   1.0000   1.0000
     1.0000   1.0000   1.0000   1.0000   1.0000   1.0000   1.0000   1.0000
     1.0000   1.0000   1.0000   1.0000   1.0000   1.0000   1.0000   1.0000
     1.0000   1.0000   1.0000   1.0000   1.0000   0.0000   0.0000   0.0000
     0.0000   0.0000   0.0000   0.0000   0.0000   0.0000

          k =-0.0884-0.6187 0.6187 ( 40061 PWs)   bands (ev):

   -68.5371 -62.2550 -39.8736 -39.8736 -39.8736 -36.1380 -36.1380 -36.1380
   -29.1643 -16.1791 -16.0766 -16.0497 -16.0490 -16.0385 -15.9955 -12.6095
   -12.6093 -12.6078  -6.4649  -5.9506  -4.9668  -4.9553  -4.8860  -4.8705
    -3.5954  -3.2599  -3.0832  -2.8936  -2.8933  -2.7184  -2.6018  -2.5575
    -2.5221  -2.3686  -2.3502  -2.0677  -2.0137  -1.9934  -1.5705  -1.4253
    -1.3670  -1.2200   0.9194   1.3598   1.3606   3.6407   3.6574   3.7047
     5.6748   5.6819   5.8047   6.0121   6.0418   6.2078

     occupation numbers 
     1.0000   1.0000   1.0000   1.0000   1.0000   1.0000   1.0000   1.0000
     1.0000   1.0000   1.0000   1.0000   1.0000   1.0000   1.0000   1.0000
     1.0000   1.0000   1.0000   1.0000   1.0000   1.0000   1.0000   1.0000
     1.0000   1.0000   1.0000   1.0000   1.0000   1.0000   1.0000   1.0000
     1.0000   1.0000   1.0000   1.0000   1.0000   1.0000   1.0000   1.0000
     1.0000   1.0000   1.0000   1.0000   1.0000   0.0000   0.0000   0.0000
     0.0000   0.0000   0.0000   0.0000   0.0000   0.0000

          k = 0.0000-0.5303 0.5303 ( 40054 PWs)   bands (ev):

   -68.5371 -62.2550 -39.8736 -39.8736 -39.8736 -36.1380 -36.1380 -36.1380
   -29.1643 -16.1735 -16.0923 -16.0523 -16.0438 -16.0252 -16.0014 -12.6097
   -12.6087 -12.6081  -6.3667  -6.0880  -4.9705  -4.9266  -4.9066  -4.8582
    -3.5173  -3.2776  -3.1154  -2.8750  -2.8626  -2.6964  -2.6671  -2.5457
    -2.5151  -2.3734  -2.3552  -2.1666  -1.9264  -1.9065  -1.6597  -1.4942
    -1.3424  -1.2210   1.0541   1.3339   1.3376   3.5868   3.5978   3.6457
     5.7478   5.7653   5.8468   5.9849   5.9873   6.2293

     occupation numbers 
     1.0000   1.0000   1.0000   1.0000   1.0000   1.0000   1.0000   1.0000
     1.0000   1.0000   1.0000   1.0000   1.0000   1.0000   1.0000   1.0000
     1.0000   1.0000   1.0000   1.0000   1.0000   1.0000   1.0000   1.0000
     1.0000   1.0000   1.0000   1.0000   1.0000   1.0000   1.0000   1.0000
     1.0000   1.0000   1.0000   1.0000   1.0000   1.0000   1.0000   1.0000
     1.0000   1.0000   1.0000   1.0000   1.0000   0.0000   0.0000   0.0000
     0.0000   0.0000   0.0000   0.0000   0.0000   0.0000

          k =-0.7071 0.0000 0.0000 ( 40170 PWs)   bands (ev):

   -68.5371 -62.2550 -39.8736 -39.8736 -39.8736 -36.1380 -36.1380 -36.1380
   -29.1643 -16.1778 -16.0613 -16.0526 -16.0519 -16.0519 -15.9934 -12.6094
   -12.6094 -12.6075  -6.4788  -5.9190  -4.9617  -4.9617  -4.8822  -4.8758
    -3.5965  -3.2741  -3.0864  -2.8674  -2.8674  -2.7666  -2.6146  -2.6146
    -2.5070  -2.3486  -2.3486  -2.0658  -2.0332  -2.0332  -1.5148  -1.3947
    -1.3947  -1.1853   0.8645   1.3786   1.3786   3.6963   3.6963   3.7504
     5.6319   5.6638   5.7745   6.0155   6.0155   6.1525

     occupation numbers 
     1.0000   1.0000   1.0000   1.0000   1.0000   1.0000   1.0000   1.0000
     1.0000   1.0000   1.0000   1.0000   1.0000   1.0000   1.0000   1.0000
     1.0000   1.0000   1.0000   1.0000   1.0000   1.0000   1.0000   1.0000
     1.0000   1.0000   1.0000   1.0000   1.0000   1.0000   1.0000   1.0000
     1.0000   1.0000   1.0000   1.0000   1.0000   1.0000   1.0000   1.0000
     1.0000   1.0000   1.0000   1.0000   1.0000   0.0000   0.0000   0.0000
     0.0000   0.0000   0.0000   0.0000   0.0000   0.0000

          k = 0.3536 0.1768 0.0000 ( 40042 PWs)   bands (ev):

   -68.5371 -62.2550 -39.8736 -39.8736 -39.8736 -36.1380 -36.1380 -36.1380
   -29.1644 -16.2074 -16.0757 -16.0512 -16.0367 -16.0163 -15.9979 -12.6105
   -12.6101 -12.6090  -6.6306  -5.7381  -5.0006  -4.9905  -4.8787  -4.8572
    -3.8564  -3.1911  -3.0763  -3.0275  -2.8180  -2.5883  -2.5063  -2.3944
    -2.3866  -2.3121  -2.2458  -2.0604  -1.9727  -1.9064  -1.5977  -1.5807
    -1.4327  -1.3806   0.9678   1.1825   1.2167   3.4852   3.5622   3.6738
     5.5788   5.6738   5.7457   5.9415   6.0261   6.0495

     occupation numbers 
     1.0000   1.0000   1.0000   1.0000   1.0000   1.0000   1.0000   1.0000
     1.0000   1.0000   1.0000   1.0000   1.0000   1.0000   1.0000   1.0000
     1.0000   1.0000   1.0000   1.0000   1.0000   1.0000   1.0000   1.0000
     1.0000   1.0000   1.0000   1.0000   1.0000   1.0000   1.0000   1.0000
     1.0000   1.0000   1.0000   1.0000   1.0000   1.0000   1.0000   1.0000
     1.0000   1.0000   1.0000   1.0000   1.0000   0.0000   0.0000   0.0000
     0.0000   0.0000   0.0000   0.0000   0.0000   0.0000

          k =-0.2652-0.4419 0.6187 ( 40028 PWs)   bands (ev):

   -68.5371 -62.2550 -39.8736 -39.8736 -39.8736 -36.1380 -36.1380 -36.1380
   -29.1643 -16.1889 -16.0930 -16.0482 -16.0319 -16.0213 -16.0036 -12.6102
   -12.6096 -12.6082  -6.4707  -5.9812  -4.9859  -4.9682  -4.8799  -4.8503
    -3.6517  -3.2326  -3.0773  -2.9539  -2.8358  -2.6443  -2.5614  -2.5042
    -2.4063  -2.3697  -2.3247  -2.1592  -1.9153  -1.8482  -1.6555  -1.5803
    -1.3766  -1.3326   1.0910   1.2711   1.2768   3.4408   3.5362   3.6054
     5.7009   5.7623   5.9047   5.9811   6.0601   6.1714

     occupation numbers 
     1.0000   1.0000   1.0000   1.0000   1.0000   1.0000   1.0000   1.0000
     1.0000   1.0000   1.0000   1.0000   1.0000   1.0000   1.0000   1.0000
     1.0000   1.0000   1.0000   1.0000   1.0000   1.0000   1.0000   1.0000
     1.0000   1.0000   1.0000   1.0000   1.0000   1.0000   1.0000   1.0000
     1.0000   1.0000   1.0000   1.0000   1.0000   1.0000   1.0000   1.0000
     1.0000   1.0000   1.0000   1.0000   1.0000   0.0000   0.0000   0.0000
     0.0000   0.0000   0.0000   0.0000   0.0000   0.0000

          k =-0.1768-0.3536 0.5303 ( 40076 PWs)   bands (ev):

   -68.5371 -62.2550 -39.8736 -39.8736 -39.8736 -36.1380 -36.1380 -36.1380
   -29.1643 -16.1786 -16.1034 -16.0413 -16.0393 -16.0140 -16.0110 -12.6100
   -12.6094 -12.6079  -6.3216  -6.1615  -4.9789  -4.9599  -4.8770  -4.8498
    -3.5344  -3.2952  -3.0706  -2.9326  -2.7892  -2.7013  -2.5788  -2.5656
    -2.4144  -2.3867  -2.3376  -2.2237  -1.8712  -1.8117  -1.7031  -1.5945
    -1.3396  -1.3223   1.2137   1.2216   1.3159   3.4509   3.5093   3.5633
     5.7869   5.8382   5.9026   6.0151   6.0288   6.2420

     occupation numbers 
     1.0000   1.0000   1.0000   1.0000   1.0000   1.0000   1.0000   1.0000
     1.0000   1.0000   1.0000   1.0000   1.0000   1.0000   1.0000   1.0000
     1.0000   1.0000   1.0000   1.0000   1.0000   1.0000   1.0000   1.0000
     1.0000   1.0000   1.0000   1.0000   1.0000   1.0000   1.0000   1.0000
     1.0000   1.0000   1.0000   1.0000   1.0000   1.0000   1.0000   1.0000
     1.0000   1.0000   1.0000   1.0000   1.0000   0.0000   0.0000   0.0000
     0.0000   0.0000   0.0000   0.0000   0.0000   0.0000

          k =-0.1768-0.5303 0.7071 ( 40038 PWs)   bands (ev):

   -68.5371 -62.2550 -39.8736 -39.8736 -39.8736 -36.1380 -36.1380 -36.1380
   -29.1643 -16.1851 -16.0820 -16.0518 -16.0408 -16.0303 -15.9977 -12.6097
   -12.6094 -12.6081  -6.4828  -5.9423  -4.9726  -4.9628  -4.8865  -4.8630
    -3.6383  -3.2290  -3.0750  -2.9365  -2.9005  -2.6579  -2.5651  -2.5287
    -2.4834  -2.3760  -2.3397  -2.0839  -1.9725  -1.9600  -1.6041  -1.4755
    -1.3439  -1.2943   0.9691   1.3158   1.3355   3.5436   3.6133   3.6771
     5.6686   5.6968   5.8730   6.0054   6.0471   6.1654

     occupation numbers 
     1.0000   1.0000   1.0000   1.0000   1.0000   1.0000   1.0000   1.0000
     1.0000   1.0000   1.0000   1.0000   1.0000   1.0000   1.0000   1.0000
     1.0000   1.0000   1.0000   1.0000   1.0000   1.0000   1.0000   1.0000
     1.0000   1.0000   1.0000   1.0000   1.0000   1.0000   1.0000   1.0000
     1.0000   1.0000   1.0000   1.0000   1.0000   1.0000   1.0000   1.0000
     1.0000   1.0000   1.0000   1.0000   1.0000   0.0000   0.0000   0.0000
     0.0000   0.0000   0.0000   0.0000   0.0000   0.0000

          k =-0.0884-0.4419 0.6187 ( 40051 PWs)   bands (ev):

   -68.5371 -62.2550 -39.8736 -39.8736 -39.8736 -36.1380 -36.1380 -36.1380
   -29.1643 -16.1744 -16.0934 -16.0491 -16.0480 -16.0199 -16.0036 -12.6096
   -12.6089 -12.6081  -6.3612  -6.0980  -4.9654  -4.9395  -4.9002  -4.8570
    -3.5236  -3.2693  -3.1045  -2.9344  -2.8249  -2.6703  -2.6458  -2.5788
    -2.5103  -2.3702  -2.3435  -2.1685  -1.9115  -1.8918  -1.6812  -1.5248
    -1.3079  -1.2506   1.0918   1.2769   1.3602   3.5494   3.5836   3.6556
     5.7329   5.7831   5.8527   5.9847   6.0120   6.2140

     occupation numbers 
     1.0000   1.0000   1.0000   1.0000   1.0000   1.0000   1.0000   1.0000
     1.0000   1.0000   1.0000   1.0000   1.0000   1.0000   1.0000   1.0000
     1.0000   1.0000   1.0000   1.0000   1.0000   1.0000   1.0000   1.0000
     1.0000   1.0000   1.0000   1.0000   1.0000   1.0000   1.0000   1.0000
     1.0000   1.0000   1.0000   1.0000   1.0000   1.0000   1.0000   1.0000
     1.0000   1.0000   1.0000   1.0000   1.0000   0.0000   0.0000   0.0000
     0.0000   0.0000   0.0000   0.0000   0.0000   0.0000

          k =-0.0000-0.3536 0.5303 ( 40063 PWs)   bands (ev):

   -68.5371 -62.2550 -39.8736 -39.8736 -39.8736 -36.1380 -36.1380 -36.1380
   -29.1643 -16.1763 -16.0967 -16.0521 -16.0404 -16.0136 -16.0091 -12.6098
   -12.6088 -12.6083  -6.3468  -6.1228  -4.9730  -4.9360  -4.9036  -4.8505
    -3.5346  -3.2503  -3.1233  -2.9161  -2.8211  -2.7059  -2.5949  -2.5830
    -2.4639  -2.3687  -2.3305  -2.2135  -1.8864  -1.8381  -1.7066  -1.5691
    -1.3210  -1.2700   1.1828   1.2185   1.3357   3.4889   3.5583   3.6363
     5.7299   5.8152   5.8838   5.9720   6.0244   6.2575

     occupation numbers 
     1.0000   1.0000   1.0000   1.0000   1.0000   1.0000   1.0000   1.0000
     1.0000   1.0000   1.0000   1.0000   1.0000   1.0000   1.0000   1.0000
     1.0000   1.0000   1.0000   1.0000   1.0000   1.0000   1.0000   1.0000
     1.0000   1.0000   1.0000   1.0000   1.0000   1.0000   1.0000   1.0000
     1.0000   1.0000   1.0000   1.0000   1.0000   1.0000   1.0000   1.0000
     1.0000   1.0000   1.0000   1.0000   1.0000   0.0000   0.0000   0.0000
     0.0000   0.0000   0.0000   0.0000   0.0000   0.0000

          k =-0.7071 0.1768 0.0000 ( 40038 PWs)   bands (ev):

   -68.5371 -62.2550 -39.8736 -39.8736 -39.8736 -36.1380 -36.1380 -36.1380
   -29.1643 -16.1746 -16.0813 -16.0526 -16.0519 -16.0308 -15.9976 -12.6094
   -12.6091 -12.6078  -6.4210  -6.0097  -4.9558  -4.9510  -4.8946  -4.8664
    -3.5472  -3.2751  -3.0932  -2.9277  -2.8326  -2.7121  -2.6191  -2.6091
    -2.5296  -2.3828  -2.3448  -2.0922  -1.9783  -1.9748  -1.6114  -1.4590
    -1.3302  -1.2034   0.9696   1.3358   1.3786   3.6213   3.6704   3.6963
     5.6935   5.7407   5.7739   6.0007   6.0049   6.1566

     occupation numbers 
     1.0000   1.0000   1.0000   1.0000   1.0000   1.0000   1.0000   1.0000
     1.0000   1.0000   1.0000   1.0000   1.0000   1.0000   1.0000   1.0000
     1.0000   1.0000   1.0000   1.0000   1.0000   1.0000   1.0000   1.0000
     1.0000   1.0000   1.0000   1.0000   1.0000   1.0000   1.0000   1.0000
     1.0000   1.0000   1.0000   1.0000   1.0000   1.0000   1.0000   1.0000
     1.0000   1.0000   1.0000   1.0000   1.0000   0.0000   0.0000   0.0000
     0.0000   0.0000   0.0000   0.0000   0.0000   0.0000

          k =-0.7071 0.3536 0.0000 ( 39932 PWs)   bands (ev):

   -68.5371 -62.2550 -39.8736 -39.8736 -39.8736 -36.1380 -36.1380 -36.1380
   -29.1643 -16.1710 -16.0924 -16.0526 -16.0519 -16.0126 -16.0083 -12.6094
   -12.6085 -12.6084  -6.3214  -6.1399  -4.9517  -4.9275  -4.9197  -4.8573
    -3.4936  -3.2762  -3.0993  -2.9763  -2.7785  -2.6503  -2.6495  -2.6440
    -2.5538  -2.3454  -2.3420  -2.1814  -1.9058  -1.8680  -1.7163  -1.5413
    -1.2607  -1.2487   1.1784   1.1891   1.3785   3.5715   3.5742   3.6963
     5.7271   5.7711   5.8764   5.9382   5.9912   6.1601

     occupation numbers 
     1.0000   1.0000   1.0000   1.0000   1.0000   1.0000   1.0000   1.0000
     1.0000   1.0000   1.0000   1.0000   1.0000   1.0000   1.0000   1.0000
     1.0000   1.0000   1.0000   1.0000   1.0000   1.0000   1.0000   1.0000
     1.0000   1.0000   1.0000   1.0000   1.0000   1.0000   1.0000   1.0000
     1.0000   1.0000   1.0000   1.0000   1.0000   1.0000   1.0000   1.0000
     1.0000   1.0000   1.0000   1.0000   1.0000   0.0000   0.0000   0.0000
     0.0000   0.0000   0.0000   0.0000   0.0000   0.0000

     the Fermi energy is     1.9987 ev
     (compare with:     1.9738 eV, computed in scf)

     Writing all to output data dir /tmp/scratch/KVCr_LCM/KVCr_LCM.save/ :
     XML data file, pseudopotentials, collected wavefunctions

     init_run     :      3.46s CPU      3.76s WALL (       1 calls)
     electrons    :    286.89s CPU    313.18s WALL (       1 calls)

     Called by init_run:
     wfcinit      :      0.81s CPU      0.85s WALL (       1 calls)
     wfcinit:atom :      0.08s CPU      0.07s WALL (       4 calls)
     wfcinit:wfcr :      8.33s CPU      9.30s WALL (       4 calls)
     potinit      :      1.16s CPU      1.33s WALL (       1 calls)
     hinit0       :      1.10s CPU      1.15s WALL (       1 calls)

     Called by electrons:
     c_bands      :    286.81s CPU    313.08s WALL (       1 calls)
     v_of_rho     :      0.99s CPU      1.13s WALL (       1 calls)
     v_h          :      0.09s CPU      0.09s WALL (       1 calls)
     v_xc         :      0.90s CPU      1.04s WALL (       1 calls)

     Called by c_bands:
     init_us_2    :      0.23s CPU      0.25s WALL (       8 calls)
     cegterg      :    211.96s CPU    235.16s WALL (      14 calls)

     Called by sum_band:

     Called by *egterg:
     cdiaghg      :      0.91s CPU      0.95s WALL (     246 calls)
     cegterg:over :     10.76s CPU     11.06s WALL (     242 calls)
     cegterg:upda :      6.27s CPU      6.44s WALL (     242 calls)
     cegterg:last :     10.75s CPU     11.06s WALL (     147 calls)
     h_psi        :    186.82s CPU    209.96s WALL (     260 calls)
     g_psi        :      0.92s CPU      0.96s WALL (     242 calls)

     Called by h_psi:
     h_psi:calbec :      9.32s CPU      9.57s WALL (     260 calls)
     vloc_psi     :    165.70s CPU    188.22s WALL (     260 calls)
                                        0.00s GPU  (     260 calls)
     add_vuspsi   :      7.76s CPU      8.02s WALL (     260 calls)
     vhpsi        :      3.07s CPU      3.19s WALL (     260 calls)

     General routines
     calbec       :     11.60s CPU     11.98s WALL (     524 calls)
     fft          :      0.85s CPU      0.93s WALL (      19 calls)
     fftw         :    136.33s CPU    157.29s WALL (   15332 calls)

     Parallel routines

     Hubbard U routines
     vhpsi        :      3.07s CPU      3.19s WALL (     260 calls)

     PWSCF        :   4m51.09s CPU   5m18.25s WALL


   This run was terminated on:  11:17:40   3Oct2026            

=------------------------------------------------------------------------------=
   JOB DONE.
=------------------------------------------------------------------------------=
