
     Program PWSCF v.7.5 starts on  3Oct2026 at 11:30:15 

     This program is part of the open-source Quantum ESPRESSO suite
     for quantum simulation of materials; please cite
         "P. Giannozzi et al., J. Phys.:Condens. Matter 21 395502 (2009);
         "P. Giannozzi et al., J. Phys.:Condens. Matter 29 465901 (2017);
         "P. Giannozzi et al., J. Chem. Phys. 152 154105 (2020);
          URL http://www.quantum-espresso.org", 
     in publications or presentations arising from this work. More details at
     http://www.quantum-espresso.org/quote

     Parallel version (MPI & OpenMP), running on      32 processor cores
     Number of MPI processes:                32
     Threads/MPI process:                     1

     MPI processes distributed on     1 nodes
     409214 MiB available memory on the printing compute node when the environment starts

     Reading input from KVCr_U2_4_FM.in

     Current dimensions of program PWSCF are:
     Max number of different atomic species (ntypx) = 10
     Max number of k-points (npk) =  40000
     Max angular momentum in pseudopotentials (lmaxx) =  4
     Message from routine setup:
     using ibrav=0 with symmetry is DISCOURAGED, use correct ibrav instead

     K-points division:     npool     =       8
     R & G space division:  proc/nbgrp/npool/nimage =       4
     Subspace diagonalization in iterative solution of the eigenvalue problem:
     a serial algorithm will be used


     Parallelization info
     --------------------
     sticks:   dense  smooth     PW     G-vecs:    dense   smooth      PW
     Min        1545    1545    412                80210    80210   11098
     Max        1546    1546    413                80212    80212   11101
     Sum        6181    6181   1651               320843   320843   44399

     Using Slab Decomposition



     bravais-lattice index     =            0
     lattice parameter (alat)  =      14.2709  a.u.
     unit-cell volume          =    2055.1352 (a.u.)^3
     number of atoms/cell      =           15
     number of atomic types    =            5
     number of electrons       =        90.00
     number of Kohn-Sham states=           54
     kinetic-energy cutoff     =     110.0000  Ry
     charge density cutoff     =     440.0000  Ry
     scf convergence threshold =      1.5E-06
     mixing beta               =       0.3000
     number of iterations used =            8  local-TF  mixing
     Exchange-correlation= PBE
                           (   1   4   3   4   0   0   0)
     Hubbard projectors: ortho-atomic
     Hubbard parameters of DFT+U (Dudarev formulation) in eV:
     U(V-3d) =  2.0000
     U(Cr-3d) =  4.0000

     Internal variables: lda_plus_u =T, lda_plus_u_kind = 0

     Internal variables: orbital_resolved =F, hub_pot_fix =F, apply_U = F

     celldm(1)=  14.270914  celldm(2)=   0.000000  celldm(3)=   0.000000
     celldm(4)=   0.000000  celldm(5)=   0.000000  celldm(6)=   0.000000

     crystal axes: (cart. coord. in units of alat)
               a(1) = (   0.000000   0.707107   0.707107 )  
               a(2) = (   0.707107   0.000000   0.707107 )  
               a(3) = (   0.707107   0.707107   0.000000 )  

     reciprocal axes: (cart. coord. in units 2 pi/alat)
               b(1) = ( -0.707107  0.707107  0.707107 )  
               b(2) = (  0.707107 -0.707107  0.707107 )  
               b(3) = (  0.707107  0.707107 -0.707107 )  


     PseudoPot. # 1 for K  read from file:
     /data/pseudo/dojo_sr/K.upf
     MD5 check sum: 0aa97b2c023445f040759afc9fdb6c80
     Pseudo is Norm-conserving + core correction, Zval =  9.0
     Generated using ONCVPSP code by D. R. Hamann
     Using radial grid of 2222 points,  6 beta functions with: 
                l(1) =   0
                l(2) =   0
                l(3) =   1
                l(4) =   1
                l(5) =   2
                l(6) =   2

     PseudoPot. # 2 for V  read from file:
     /data/pseudo/dojo_sr/V.upf
     MD5 check sum: 40fb93c06b4f9d8c28c5ccd071294a04
     Pseudo is Norm-conserving + core correction, Zval = 13.0
     Generated using ONCVPSP code by D. R. Hamann
     Using radial grid of 1536 points,  6 beta functions with: 
                l(1) =   0
                l(2) =   0
                l(3) =   1
                l(4) =   1
                l(5) =   2
                l(6) =   2

     PseudoPot. # 3 for Cr read from file:
     /data/pseudo/dojo_sr/Cr.upf
     MD5 check sum: 41892f80c335c8b1e803fd21ab4016b0
     Pseudo is Norm-conserving + core correction, Zval = 14.0
     Generated using ONCVPSP code by D. R. Hamann
     Using radial grid of 1638 points,  6 beta functions with: 
                l(1) =   0
                l(2) =   0
                l(3) =   1
                l(4) =   1
                l(5) =   2
                l(6) =   2

     PseudoPot. # 4 for C  read from file:
     /data/pseudo/dojo_sr/C.upf
     MD5 check sum: 34a24e64c0a39f27c6c36b90a16ac686
     Pseudo is Norm-conserving + core correction, Zval =  4.0
     Generated using ONCVPSP code by D. R. Hamann
     Using radial grid of 1248 points,  4 beta functions with: 
                l(1) =   0
                l(2) =   0
                l(3) =   1
                l(4) =   1

     PseudoPot. # 5 for N  read from file:
     /data/pseudo/dojo_sr/N.upf
     MD5 check sum: d34365f73bb0e2ee98afc20ec3e87676
     Pseudo is Norm-conserving + core correction, Zval =  5.0
     Generated using ONCVPSP code by D. R. Hamann
     Using radial grid of 1058 points,  4 beta functions with: 
                l(1) =   0
                l(2) =   0
                l(3) =   1
                l(4) =   1

     atomic species   valence    mass     pseudopotential
     K                 9.00    39.09830     K ( 1.00)
     V                13.00    50.94150     V ( 1.00)
     Cr               14.00    51.99610     Cr( 1.00)
     C                 4.00    12.01100     C ( 1.00)
     N                 5.00    14.00700     N ( 1.00)

     Starting magnetic structure 
     atomic species   magnetization
     K               0.000
     V               0.231
     Cr              0.214
     C               0.000
     N               0.000

     24 Sym. Ops. (no inversion) found


                                    s                        frac. trans.

      isym =  1     identity                                     

 cryst.   s( 1) = (     1          0          0      )
                  (     0          1          0      )
                  (     0          0          1      )

 cart.    s( 1) = (  1.0000000  0.0000000  0.0000000 )
                  (  0.0000000  1.0000000  0.0000000 )
                  (  0.0000000  0.0000000  1.0000000 )


      isym =  2     180 deg rotation - cart. axis [0,0,1]        

 cryst.   s( 2) = (     0          1         -1      )
                  (     1          0         -1      )
                  (     0          0         -1      )

 cart.    s( 2) = ( -1.0000000  0.0000000  0.0000000 )
                  (  0.0000000 -1.0000000  0.0000000 )
                  (  0.0000000  0.0000000  1.0000000 )


      isym =  3     180 deg rotation - cart. axis [0,1,0]        

 cryst.   s( 3) = (     0         -1          1      )
                  (     0         -1          0      )
                  (     1         -1          0      )

 cart.    s( 3) = ( -1.0000000  0.0000000  0.0000000 )
                  (  0.0000000  1.0000000  0.0000000 )
                  (  0.0000000  0.0000000 -1.0000000 )


      isym =  4     180 deg rotation - cart. axis [1,0,0]        

 cryst.   s( 4) = (    -1          0          0      )
                  (    -1          0          1      )
                  (    -1          1          0      )

 cart.    s( 4) = (  1.0000000  0.0000000  0.0000000 )
                  (  0.0000000 -1.0000000  0.0000000 )
                  (  0.0000000  0.0000000 -1.0000000 )


      isym =  5     120 deg rotation - cart. axis [-1,-1,-1]     

 cryst.   s( 5) = (     0          0          1      )
                  (     1          0          0      )
                  (     0          1          0      )

 cart.    s( 5) = (  0.0000000  1.0000000  0.0000000 )
                  (  0.0000000  0.0000000  1.0000000 )
                  (  1.0000000  0.0000000  0.0000000 )


      isym =  6     120 deg rotation - cart. axis [-1,1,1]       

 cryst.   s( 6) = (     1         -1          0      )
                  (     0         -1          1      )
                  (     0         -1          0      )

 cart.    s( 6) = (  0.0000000 -1.0000000  0.0000000 )
                  (  0.0000000  0.0000000  1.0000000 )
                  ( -1.0000000  0.0000000  0.0000000 )


      isym =  7     120 deg rotation - cart. axis [1,1,-1]       

 cryst.   s( 7) = (    -1          1          0      )
                  (    -1          0          0      )
                  (    -1          0          1      )

 cart.    s( 7) = (  0.0000000  1.0000000  0.0000000 )
                  (  0.0000000  0.0000000 -1.0000000 )
                  ( -1.0000000  0.0000000  0.0000000 )


      isym =  8     120 deg rotation - cart. axis [1,-1,1]       

 cryst.   s( 8) = (     0          0         -1      )
                  (     0          1         -1      )
                  (     1          0         -1      )

 cart.    s( 8) = (  0.0000000 -1.0000000  0.0000000 )
                  (  0.0000000  0.0000000 -1.0000000 )
                  (  1.0000000  0.0000000  0.0000000 )


      isym =  9     120 deg rotation - cart. axis [1,1,1]        

 cryst.   s( 9) = (     0          1          0      )
                  (     0          0          1      )
                  (     1          0          0      )

 cart.    s( 9) = (  0.0000000  0.0000000  1.0000000 )
                  (  1.0000000  0.0000000  0.0000000 )
                  (  0.0000000  1.0000000  0.0000000 )


      isym = 10     120 deg rotation - cart. axis [-1,1,-1]      

 cryst.   s(10) = (    -1          0          1      )
                  (    -1          1          0      )
                  (    -1          0          0      )

 cart.    s(10) = (  0.0000000  0.0000000  1.0000000 )
                  ( -1.0000000  0.0000000  0.0000000 )
                  (  0.0000000 -1.0000000  0.0000000 )


      isym = 11     120 deg rotation - cart. axis [1,-1,-1]      

 cryst.   s(11) = (     1          0         -1      )
                  (     0          0         -1      )
                  (     0          1         -1      )

 cart.    s(11) = (  0.0000000  0.0000000 -1.0000000 )
                  ( -1.0000000  0.0000000  0.0000000 )
                  (  0.0000000  1.0000000  0.0000000 )


      isym = 12     120 deg rotation - cart. axis [-1,-1,1]      

 cryst.   s(12) = (     0         -1          0      )
                  (     1         -1          0      )
                  (     0         -1          1      )

 cart.    s(12) = (  0.0000000  0.0000000 -1.0000000 )
                  (  1.0000000  0.0000000  0.0000000 )
                  (  0.0000000 -1.0000000  0.0000000 )


      isym = 13     inv. 180 deg rotation - cart. axis [1,1,0]   

 cryst.   s(13) = (     1          0         -1      )
                  (     0          1         -1      )
                  (     0          0         -1      )

 cart.    s(13) = (  0.0000000 -1.0000000  0.0000000 )
                  ( -1.0000000  0.0000000  0.0000000 )
                  (  0.0000000  0.0000000  1.0000000 )


      isym = 14     inv. 180 deg rotation - cart. axis [1,-1,0]  

 cryst.   s(14) = (     0          1          0      )
                  (     1          0          0      )
                  (     0          0          1      )

 cart.    s(14) = (  0.0000000  1.0000000  0.0000000 )
                  (  1.0000000  0.0000000  0.0000000 )
                  (  0.0000000  0.0000000  1.0000000 )


      isym = 15     inv.  90 deg rotation - cart. axis [0,0,-1]  

 cryst.   s(15) = (     0         -1          0      )
                  (     0         -1          1      )
                  (     1         -1          0      )

 cart.    s(15) = (  0.0000000 -1.0000000  0.0000000 )
                  (  1.0000000  0.0000000  0.0000000 )
                  (  0.0000000  0.0000000 -1.0000000 )


      isym = 16     inv.  90 deg rotation - cart. axis [0,0,1]   

 cryst.   s(16) = (    -1          0          1      )
                  (    -1          0          0      )
                  (    -1          1          0      )

 cart.    s(16) = (  0.0000000  1.0000000  0.0000000 )
                  ( -1.0000000  0.0000000  0.0000000 )
                  (  0.0000000  0.0000000 -1.0000000 )


      isym = 17     inv. 180 deg rotation - cart. axis [1,0,1]   

 cryst.   s(17) = (     1         -1          0      )
                  (     0         -1          0      )
                  (     0         -1          1      )

 cart.    s(17) = (  0.0000000  0.0000000 -1.0000000 )
                  (  0.0000000  1.0000000  0.0000000 )
                  ( -1.0000000  0.0000000  0.0000000 )


      isym = 18     inv. 180 deg rotation - cart. axis [-1,0,1]  

 cryst.   s(18) = (     0          0          1      )
                  (     0          1          0      )
                  (     1          0          0      )

 cart.    s(18) = (  0.0000000  0.0000000  1.0000000 )
                  (  0.0000000  1.0000000  0.0000000 )
                  (  1.0000000  0.0000000  0.0000000 )


      isym = 19     inv.  90 deg rotation - cart. axis [0,1,0]   

 cryst.   s(19) = (     0          0         -1      )
                  (     1          0         -1      )
                  (     0          1         -1      )

 cart.    s(19) = (  0.0000000  0.0000000 -1.0000000 )
                  (  0.0000000 -1.0000000  0.0000000 )
                  (  1.0000000  0.0000000  0.0000000 )


      isym = 20     inv.  90 deg rotation - cart. axis [0,-1,0]  

 cryst.   s(20) = (    -1          1          0      )
                  (    -1          0          1      )
                  (    -1          0          0      )

 cart.    s(20) = (  0.0000000  0.0000000  1.0000000 )
                  (  0.0000000 -1.0000000  0.0000000 )
                  ( -1.0000000  0.0000000  0.0000000 )


      isym = 21     inv. 180 deg rotation - cart. axis [0,1,1]   

 cryst.   s(21) = (    -1          0          0      )
                  (    -1          1          0      )
                  (    -1          0          1      )

 cart.    s(21) = (  1.0000000  0.0000000  0.0000000 )
                  (  0.0000000  0.0000000 -1.0000000 )
                  (  0.0000000 -1.0000000  0.0000000 )


      isym = 22     inv. 180 deg rotation - cart. axis [0,1,-1]  

 cryst.   s(22) = (     1          0          0      )
                  (     0          0          1      )
                  (     0          1          0      )

 cart.    s(22) = (  1.0000000  0.0000000  0.0000000 )
                  (  0.0000000  0.0000000  1.0000000 )
                  (  0.0000000  1.0000000  0.0000000 )


      isym = 23     inv.  90 deg rotation - cart. axis [-1,0,0]  

 cryst.   s(23) = (     0          1         -1      )
                  (     0          0         -1      )
                  (     1          0         -1      )

 cart.    s(23) = ( -1.0000000  0.0000000  0.0000000 )
                  (  0.0000000  0.0000000 -1.0000000 )
                  (  0.0000000  1.0000000  0.0000000 )


      isym = 24     inv.  90 deg rotation - cart. axis [1,0,0]   

 cryst.   s(24) = (     0         -1          1      )
                  (     1         -1          0      )
                  (     0         -1          0      )

 cart.    s(24) = ( -1.0000000  0.0000000  0.0000000 )
                  (  0.0000000  0.0000000  1.0000000 )
                  (  0.0000000 -1.0000000  0.0000000 )


   Cartesian axes

     site n.     atom                  positions (alat units)
         1        K      tau(   1) = (   0.3535534   0.3535534   0.3535534  )
         2        V      tau(   2) = (   0.0000000   0.0000000   0.0000000  )
         3        Cr     tau(   3) = (   0.7071068   0.7071068   0.7071068  )
         4        C      tau(   4) = (   0.4343911   0.7071068   0.7071068  )
         5        C      tau(   5) = (   0.9798225   0.7071068   0.7071068  )
         6        C      tau(   6) = (   0.7071068   0.4343911   0.7071068  )
         7        C      tau(   7) = (   0.7071068   0.9798225   0.7071068  )
         8        C      tau(   8) = (   0.7071068   0.7071068   0.4343911  )
         9        C      tau(   9) = (   0.7071068   0.7071068   0.9798225  )
        10        N      tau(  10) = (   0.2796732   0.7071068   0.7071068  )
        11        N      tau(  11) = (   1.1345404   0.7071068   0.7071068  )
        12        N      tau(  12) = (   0.7071068   0.2796732   0.7071068  )
        13        N      tau(  13) = (   0.7071068   1.1345404   0.7071068  )
        14        N      tau(  14) = (   0.7071068   0.7071068   0.2796732  )
        15        N      tau(  15) = (   0.7071068   0.7071068   1.1345404  )

   Crystallographic axes

     site n.     atom                  positions (cryst. coord.)
         1        K      tau(   1) = (  0.2500000  0.2500000  0.2500000  )
         2        V      tau(   2) = (  0.0000000  0.0000000  0.0000000  )
         3        Cr     tau(   3) = (  0.5000000  0.5000000  0.5000000  )
         4        C      tau(   4) = (  0.6928391  0.3071609  0.3071609  )
         5        C      tau(   5) = (  0.3071609  0.6928391  0.6928391  )
         6        C      tau(   6) = (  0.3071609  0.6928391  0.3071609  )
         7        C      tau(   7) = (  0.6928391  0.3071609  0.6928391  )
         8        C      tau(   8) = (  0.3071609  0.3071609  0.6928391  )
         9        C      tau(   9) = (  0.6928391  0.6928391  0.3071609  )
        10        N      tau(  10) = (  0.8022412  0.1977588  0.1977588  )
        11        N      tau(  11) = (  0.1977588  0.8022412  0.8022412  )
        12        N      tau(  12) = (  0.1977588  0.8022412  0.1977588  )
        13        N      tau(  13) = (  0.8022412  0.1977588  0.8022412  )
        14        N      tau(  14) = (  0.1977588  0.1977588  0.8022412  )
        15        N      tau(  15) = (  0.8022412  0.8022412  0.1977588  )

     number of k points=    10  Gaussian smearing, width (Ry)=  0.0050
                       cart. coord. in units 2pi/alat
        k(    1) = (   0.0000000   0.0000000   0.0000000), wk =   0.0080000
        k(    2) = (   0.1414214   0.1414214  -0.1414214), wk =   0.0640000
        k(    3) = (   0.2828427   0.2828427  -0.2828427), wk =   0.0640000
        k(    4) = (   0.2828427   0.0000000   0.0000000), wk =   0.0480000
        k(    5) = (   0.4242641   0.1414214  -0.1414214), wk =   0.1920000
        k(    6) = (  -0.1414214  -0.4242641   0.4242641), wk =   0.1920000
        k(    7) = (   0.0000000  -0.2828427   0.2828427), wk =   0.0960000
        k(    8) = (   0.5656854   0.0000000   0.0000000), wk =   0.0480000
        k(    9) = (   0.0000000  -0.5656854   0.5656854), wk =   0.0960000
        k(   10) = (  -0.1414214  -0.4242641   0.7071068), wk =   0.1920000

                       cryst. coord.
        k(    1) = (   0.0000000   0.0000000   0.0000000), wk =   0.0080000
        k(    2) = (   0.0000000   0.0000000   0.2000000), wk =   0.0640000
        k(    3) = (   0.0000000   0.0000000   0.4000000), wk =   0.0640000
        k(    4) = (   0.0000000   0.2000000   0.2000000), wk =   0.0480000
        k(    5) = (   0.0000000   0.2000000   0.4000000), wk =   0.1920000
        k(    6) = (   0.0000000   0.2000000  -0.4000000), wk =   0.1920000
        k(    7) = (   0.0000000   0.2000000  -0.2000000), wk =   0.0960000
        k(    8) = (   0.0000000   0.4000000   0.4000000), wk =   0.0480000
        k(    9) = (   0.0000000   0.4000000  -0.4000000), wk =   0.0960000
        k(   10) = (   0.2000000   0.4000000  -0.4000000), wk =   0.1920000

     Dense  grid:   320843 G-vectors     FFT dimensions: (  96,  96,  96)

     Dynamical RAM for                 wfc:       8.25 MB

     Dynamical RAM for     wfc (w. buffer):      32.99 MB

     Dynamical RAM for             U proj.:       1.53 MB

     Dynamical RAM for  U proj. (w. buff.):       6.11 MB

     Dynamical RAM for           str. fact:       6.12 MB

     Dynamical RAM for           local pot:       0.00 MB

     Dynamical RAM for          nlocal pot:      22.91 MB

     Dynamical RAM for                qrad:       8.42 MB

     Dynamical RAM for          rho,v,vnew:      17.47 MB

     Dynamical RAM for               rhoin:       5.82 MB

     Dynamical RAM for            rho*nmix:      39.17 MB

     Dynamical RAM for           G-vectors:       5.20 MB

     Dynamical RAM for          h,s,v(r/c):       0.53 MB

     Dynamical RAM for          <psi|beta>:       0.12 MB

     Dynamical RAM for                 psi:      16.49 MB

     Dynamical RAM for                hpsi:      16.49 MB

     Dynamical RAM for      wfcinit/wfcrot:      16.56 MB

     Estimated static dynamical RAM per process >     122.50 MB

     Estimated max dynamical RAM per process >     196.40 MB

     Estimated total dynamical RAM >       5.07 GB
     Generating pointlists ...
     new r_m :   0.2085 (alat units)  2.9753 (a.u.) for type    1
     new r_m :   0.1154 (alat units)  1.6464 (a.u.) for type    2
     new r_m :   0.1125 (alat units)  1.6054 (a.u.) for type    3
     new r_m :   0.0638 (alat units)  0.9108 (a.u.) for type    4
     new r_m :   0.0638 (alat units)  0.9108 (a.u.) for type    5

     Initial potential from superposition of free atoms

     starting charge      89.9780, renormalised to      90.0000

     HUBBARD ENERGY =    0.0882  (Ry)

     STARTING HUBBARD OCCUPATIONS:

     =================== HUBBARD OCCUPATIONS ===================
     ------------------------ ATOM    2 ------------------------
     Tr[ns(  2)] (up, down, total) =   3.00000  0.00000  3.00000
     Atomic magnetic moment for atom   2 =   3.00000
     SPIN  1
     eigenvalues:
       0.600  0.600  0.600  0.600  0.600
     eigenvectors (columns):
       1.000  0.000  0.000  0.000  0.000
       0.000  1.000  0.000  0.000  0.000
       0.000  0.000  1.000  0.000  0.000
       0.000  0.000  0.000  1.000  0.000
       0.000  0.000  0.000  0.000  1.000
     occupation matrix ns (before diag.):
       0.600  0.000  0.000  0.000  0.000
       0.000  0.600  0.000  0.000  0.000
       0.000  0.000  0.600  0.000  0.000
       0.000  0.000  0.000  0.600  0.000
       0.000  0.000  0.000  0.000  0.600
     SPIN  2
     eigenvalues:
       0.000  0.000  0.000  0.000  0.000
     eigenvectors (columns):
       1.000  0.000  0.000  0.000  0.000
       0.000  1.000  0.000  0.000  0.000
       0.000  0.000  1.000  0.000  0.000
       0.000  0.000  0.000  1.000  0.000
       0.000  0.000  0.000  0.000  1.000
     occupation matrix ns (before diag.):
       0.000  0.000  0.000  0.000  0.000
       0.000  0.000  0.000  0.000  0.000
       0.000  0.000  0.000  0.000  0.000
       0.000  0.000  0.000  0.000  0.000
       0.000  0.000  0.000  0.000  0.000
     ------------------------ ATOM    3 ------------------------
     Tr[ns(  3)] (up, down, total) =   5.00000  0.00000  5.00000
     Atomic magnetic moment for atom   3 =   5.00000
     SPIN  1
     eigenvalues:
       1.000  1.000  1.000  1.000  1.000
     eigenvectors (columns):
       1.000  0.000  0.000  0.000  0.000
       0.000  1.000  0.000  0.000  0.000
       0.000  0.000  1.000  0.000  0.000
       0.000  0.000  0.000  1.000  0.000
       0.000  0.000  0.000  0.000  1.000
     occupation matrix ns (before diag.):
       1.000  0.000  0.000  0.000  0.000
       0.000  1.000  0.000  0.000  0.000
       0.000  0.000  1.000  0.000  0.000
       0.000  0.000  0.000  1.000  0.000
       0.000  0.000  0.000  0.000  1.000
     SPIN  2
     eigenvalues:
       0.000  0.000  0.000  0.000  0.000
     eigenvectors (columns):
       1.000  0.000  0.000  0.000  0.000
       0.000  1.000  0.000  0.000  0.000
       0.000  0.000  1.000  0.000  0.000
       0.000  0.000  0.000  1.000  0.000
       0.000  0.000  0.000  0.000  1.000
     occupation matrix ns (before diag.):
       0.000  0.000  0.000  0.000  0.000
       0.000  0.000  0.000  0.000  0.000
       0.000  0.000  0.000  0.000  0.000
       0.000  0.000  0.000  0.000  0.000
       0.000  0.000  0.000  0.000  0.000

     Number of occupied Hubbard levels =    8.0000

     Atomic wfc used for Hubbard projectors are orthogonalized

     Starting wfcs are   73 randomized atomic wfcs

     total cpu time spent up to now is        5.6 secs

     per-process dynamical memory:   121.3 Mb

     Self-consistent Calculation

     iteration #  1     ecut=   110.00 Ry     beta= 0.30
     Davidson diagonalization with overlap

---- Real-time Memory Report at c_bands before calling an iterative solver
           279 MiB given to the printing process from OS
           126 MiB allocation reported by mallinfo(arena+hblkhd)
        405226 MiB available memory on the node where the printing process lives
------------------
     ethr =  1.00E-02,  avg # of iterations =  2.0

     =================== HUBBARD OCCUPATIONS ===================
     ------------------------ ATOM    2 ------------------------
     Tr[ns(  2)] (up, down, total) =   3.05393  0.33318  3.38711
     Atomic magnetic moment for atom   2 =   2.72075
     SPIN  1
     eigenvalues:
       0.194  0.194  0.889  0.889  0.889
     eigenvectors (columns):
       0.352 -0.936 -0.000 -0.000  0.000
      -0.000 -0.000  0.312 -0.185 -0.932
      -0.000 -0.000  0.592 -0.729  0.343
       0.936  0.352  0.000  0.000 -0.000
       0.000  0.000 -0.743 -0.659 -0.118
     occupation matrix ns (before diag.):
       0.194 -0.000 -0.000 -0.000  0.000
      -0.000  0.889 -0.000  0.000  0.000
      -0.000 -0.000  0.889  0.000  0.000
      -0.000  0.000  0.000  0.194 -0.000
       0.000  0.000  0.000 -0.000  0.889
     SPIN  2
     eigenvalues:
       0.018  0.018  0.018  0.139  0.139
     eigenvectors (columns):
       0.000  0.000  0.000 -0.353  0.936
       0.332 -0.366  0.869 -0.000 -0.000
       0.579 -0.649 -0.494 -0.000 -0.000
      -0.000 -0.000 -0.000 -0.936 -0.353
      -0.745 -0.667  0.003  0.000  0.000
     occupation matrix ns (before diag.):
       0.139 -0.000  0.000 -0.000  0.000
      -0.000  0.018 -0.000  0.000  0.000
       0.000 -0.000  0.018  0.000  0.000
      -0.000  0.000  0.000  0.139 -0.000
       0.000  0.000  0.000 -0.000  0.018
     ------------------------ ATOM    3 ------------------------
     Tr[ns(  3)] (up, down, total) =   3.11544  0.41474  3.53018
     Atomic magnetic moment for atom   3 =   2.70070
     SPIN  1
     eigenvalues:
       0.392  0.392  0.777  0.777  0.777
     eigenvectors (columns):
       0.496  0.868 -0.000 -0.000 -0.000
      -0.000  0.000  0.341 -0.306  0.889
      -0.000  0.000  0.599 -0.658 -0.456
       0.868 -0.496  0.000  0.000  0.000
       0.000 -0.000 -0.724 -0.688  0.042
     occupation matrix ns (before diag.):
       0.392 -0.000 -0.000 -0.000  0.000
      -0.000  0.777 -0.000  0.000  0.000
      -0.000 -0.000  0.777  0.000  0.000
      -0.000  0.000  0.000  0.392 -0.000
       0.000  0.000  0.000 -0.000  0.777
     SPIN  2
     eigenvalues:
       0.009  0.009  0.009  0.193  0.193
     eigenvectors (columns):
       0.000 -0.000 -0.000  0.367 -0.930
      -0.194  0.485 -0.853  0.000  0.000
      -0.338  0.783  0.522  0.000 -0.000
       0.000  0.000  0.000  0.930  0.367
       0.921  0.389  0.012 -0.000 -0.000
     occupation matrix ns (before diag.):
       0.193 -0.000  0.000 -0.000 -0.000
      -0.000  0.009 -0.000  0.000  0.000
       0.000 -0.000  0.009  0.000  0.000
      -0.000  0.000  0.000  0.193 -0.000
      -0.000  0.000  0.000 -0.000  0.009

     Number of occupied Hubbard levels =    6.9173

     HUBBARD ENERGY =    0.2627  (Ry)

     total cpu time spent up to now is       15.0 secs

     total energy              =    -582.68791343 Ry
     estimated scf accuracy    <       3.82570598 Ry

     total magnetization       =     6.00 Bohr mag/cell
     absolute magnetization    =     6.18 Bohr mag/cell

     iteration #  2     ecut=   110.00 Ry     beta= 0.30
     Davidson diagonalization with overlap

---- Real-time Memory Report at c_bands before calling an iterative solver
           328 MiB given to the printing process from OS
           185 MiB allocation reported by mallinfo(arena+hblkhd)
        403801 MiB available memory on the node where the printing process lives
------------------
     ethr =  4.25E-03,  avg # of iterations =  1.0

     =================== HUBBARD OCCUPATIONS ===================
     ------------------------ ATOM    2 ------------------------
     Tr[ns(  2)] (up, down, total) =   3.10320  0.33912  3.44232
     Atomic magnetic moment for atom   2 =   2.76409
     SPIN  1
     eigenvalues:
       0.189  0.189  0.908  0.908  0.908
     eigenvectors (columns):
       0.595  0.804 -0.000 -0.000  0.000
      -0.000  0.000  0.324 -0.080 -0.943
      -0.000  0.000  0.608 -0.745  0.272
       0.804 -0.595  0.000  0.000 -0.000
       0.000 -0.000 -0.724 -0.662 -0.193
     occupation matrix ns (before diag.):
       0.189 -0.000 -0.000 -0.000  0.000
      -0.000  0.908 -0.000  0.000  0.000
      -0.000 -0.000  0.908  0.000  0.000
      -0.000  0.000  0.000  0.189 -0.000
       0.000  0.000  0.000 -0.000  0.908
     SPIN  2
     eigenvalues:
       0.018  0.018  0.018  0.143  0.143
     eigenvectors (columns):
       0.000  0.000 -0.000  0.259 -0.966
       0.326  0.150 -0.934  0.000  0.000
       0.616 -0.782  0.089  0.000  0.000
      -0.000 -0.000  0.000  0.966  0.259
      -0.717 -0.604 -0.347 -0.000 -0.000
     occupation matrix ns (before diag.):
       0.143 -0.000  0.000 -0.000  0.000
      -0.000  0.018 -0.000  0.000  0.000
       0.000 -0.000  0.018  0.000  0.000
      -0.000  0.000  0.000  0.143 -0.000
       0.000  0.000  0.000 -0.000  0.018
     ------------------------ ATOM    3 ------------------------
     Tr[ns(  3)] (up, down, total) =   3.13414  0.46190  3.59604
     Atomic magnetic moment for atom   3 =   2.67223
     SPIN  1
     eigenvalues:
       0.369  0.369  0.799  0.799  0.799
     eigenvectors (columns):
       0.330  0.944 -0.000 -0.000 -0.000
      -0.000  0.000  0.324 -0.254  0.911
      -0.000  0.000  0.593 -0.696 -0.405
       0.944 -0.330  0.000  0.000  0.000
       0.000 -0.000 -0.737 -0.672  0.074
     occupation matrix ns (before diag.):
       0.369 -0.000 -0.000 -0.000  0.000
      -0.000  0.799 -0.000  0.000  0.000
      -0.000 -0.000  0.799  0.000  0.000
      -0.000  0.000  0.000  0.369 -0.000
       0.000  0.000  0.000 -0.000  0.799
     SPIN  2
     eigenvalues:
       0.013  0.013  0.013  0.211  0.211
     eigenvectors (columns):
      -0.000  0.000 -0.000  0.358  0.934
       0.306 -0.437 -0.846  0.000 -0.000
       0.511 -0.674  0.533  0.000  0.000
      -0.000 -0.000  0.000  0.934 -0.358
      -0.803 -0.596  0.017 -0.000  0.000
     occupation matrix ns (before diag.):
       0.211 -0.000  0.000 -0.000 -0.000
      -0.000  0.013 -0.000  0.000  0.000
       0.000 -0.000  0.013  0.000  0.000
      -0.000  0.000  0.000  0.211 -0.000
      -0.000  0.000  0.000 -0.000  0.013

     Number of occupied Hubbard levels =    7.0384

     HUBBARD ENERGY =    0.2555  (Ry)

     total cpu time spent up to now is       23.8 secs

     total energy              =    -581.58304129 Ry
     estimated scf accuracy    <       2.36378774 Ry

     total magnetization       =     6.00 Bohr mag/cell
     absolute magnetization    =     6.17 Bohr mag/cell

     iteration #  3     ecut=   110.00 Ry     beta= 0.30
     Davidson diagonalization with overlap

---- Real-time Memory Report at c_bands before calling an iterative solver
           333 MiB given to the printing process from OS
           190 MiB allocation reported by mallinfo(arena+hblkhd)
        403729 MiB available memory on the node where the printing process lives
------------------
     ethr =  2.63E-03,  avg # of iterations =  7.0

     =================== HUBBARD OCCUPATIONS ===================
     ------------------------ ATOM    2 ------------------------
     Tr[ns(  2)] (up, down, total) =   3.26065  0.43901  3.69966
     Atomic magnetic moment for atom   2 =   2.82165
     SPIN  1
     eigenvalues:
       0.234  0.234  0.931  0.931  0.931
     eigenvectors (columns):
       0.184 -0.983 -0.000 -0.000 -0.000
      -0.000 -0.000  0.325 -0.202  0.924
      -0.000 -0.000  0.600 -0.711 -0.367
       0.983  0.184  0.000  0.000  0.000
       0.000  0.000 -0.730 -0.674  0.110
     occupation matrix ns (before diag.):
       0.234 -0.000 -0.000 -0.000  0.000
      -0.000  0.931 -0.000  0.000  0.000
      -0.000 -0.000  0.931  0.000  0.000
      -0.000  0.000  0.000  0.234 -0.000
       0.000  0.000  0.000 -0.000  0.931
     SPIN  2
     eigenvalues:
       0.023  0.023  0.023  0.186  0.186
     eigenvectors (columns):
       0.000 -0.000 -0.000  0.361 -0.932
       0.332  0.118 -0.936  0.000  0.000
       0.673  0.665  0.323 -0.000  0.000
      -0.000  0.000  0.000  0.932  0.361
      -0.660  0.737 -0.142 -0.000 -0.000
     occupation matrix ns (before diag.):
       0.186 -0.000  0.000 -0.000  0.000
      -0.000  0.023 -0.000  0.000  0.000
       0.000 -0.000  0.023  0.000  0.000
      -0.000  0.000  0.000  0.186 -0.000
       0.000  0.000  0.000 -0.000  0.023
     ------------------------ ATOM    3 ------------------------
     Tr[ns(  3)] (up, down, total) =   4.10530  1.18846  5.29376
     Atomic magnetic moment for atom   3 =   2.91683
     SPIN  1
     eigenvalues:
       0.608  0.608  0.963  0.963  0.963
     eigenvectors (columns):
       0.630  0.776 -0.000 -0.000 -0.000
      -0.000  0.000  0.325 -0.259  0.910
      -0.000  0.000  0.595 -0.692 -0.409
       0.776 -0.630  0.000  0.000  0.000
       0.000 -0.000 -0.735 -0.674  0.071
     occupation matrix ns (before diag.):
       0.608 -0.000 -0.000 -0.000  0.000
      -0.000  0.963 -0.000  0.000  0.000
      -0.000 -0.000  0.963  0.000  0.000
      -0.000  0.000  0.000  0.608 -0.000
       0.000  0.000  0.000 -0.000  0.963
     SPIN  2
     eigenvalues:
       0.068  0.068  0.068  0.493  0.493
     eigenvectors (columns):
      -0.000 -0.000  0.000  0.440 -0.898
      -0.349  0.331  0.877  0.000  0.000
      -0.625  0.615 -0.481  0.000  0.000
       0.000  0.000 -0.000  0.898  0.440
       0.698  0.716  0.007 -0.000 -0.000
     occupation matrix ns (before diag.):
       0.493 -0.000  0.000 -0.000  0.000
      -0.000  0.068 -0.000  0.000  0.000
       0.000 -0.000  0.068  0.000  0.000
      -0.000  0.000  0.000  0.493 -0.000
       0.000  0.000  0.000 -0.000  0.068

     Number of occupied Hubbard levels =    8.9934

     HUBBARD ENERGY =    0.2642  (Ry)

     total cpu time spent up to now is       35.4 secs

     total energy              =    -582.25285322 Ry
     estimated scf accuracy    <       1.07817089 Ry

     total magnetization       =     6.00 Bohr mag/cell
     absolute magnetization    =     6.44 Bohr mag/cell

     iteration #  4     ecut=   110.00 Ry     beta= 0.30
     Davidson diagonalization with overlap

---- Real-time Memory Report at c_bands before calling an iterative solver
           338 MiB given to the printing process from OS
           195 MiB allocation reported by mallinfo(arena+hblkhd)
        403726 MiB available memory on the node where the printing process lives
------------------
     ethr =  1.20E-03,  avg # of iterations =  1.8

     =================== HUBBARD OCCUPATIONS ===================
     ------------------------ ATOM    2 ------------------------
     Tr[ns(  2)] (up, down, total) =   3.23279  0.43735  3.67014
     Atomic magnetic moment for atom   2 =   2.79544
     SPIN  1
     eigenvalues:
       0.221  0.221  0.930  0.930  0.930
     eigenvectors (columns):
       0.316 -0.949 -0.000 -0.000 -0.000
      -0.000 -0.000  0.325 -0.245  0.913
      -0.000 -0.000  0.600 -0.693 -0.400
       0.949  0.316  0.000  0.000  0.000
       0.000  0.000 -0.731 -0.678  0.078
     occupation matrix ns (before diag.):
       0.221 -0.000 -0.000 -0.000  0.000
      -0.000  0.930 -0.000  0.000  0.000
      -0.000 -0.000  0.930  0.000  0.000
      -0.000  0.000  0.000  0.221 -0.000
       0.000  0.000  0.000 -0.000  0.930
     SPIN  2
     eigenvalues:
       0.024  0.024  0.024  0.182  0.182
     eigenvectors (columns):
      -0.000  0.000 -0.000  0.300 -0.954
      -0.333  0.408 -0.850  0.000  0.000
      -0.651 -0.752 -0.105  0.000  0.000
       0.000 -0.000 -0.000  0.954  0.300
       0.682 -0.518 -0.516 -0.000 -0.000
     occupation matrix ns (before diag.):
       0.182 -0.000  0.000 -0.000  0.000
      -0.000  0.024 -0.000  0.000  0.000
       0.000 -0.000  0.024  0.000  0.000
      -0.000  0.000  0.000  0.182 -0.000
       0.000  0.000  0.000 -0.000  0.024
     ------------------------ ATOM    3 ------------------------
     Tr[ns(  3)] (up, down, total) =   3.97951  0.91984  4.89935
     Atomic magnetic moment for atom   3 =   3.05967
     SPIN  1
     eigenvalues:
       0.547  0.547  0.962  0.962  0.962
     eigenvectors (columns):
       0.359  0.933 -0.000 -0.000 -0.000
      -0.000  0.000  0.341 -0.334  0.879
      -0.000  0.000  0.594 -0.648 -0.476
       0.933 -0.359  0.000  0.000  0.000
       0.000 -0.000 -0.729 -0.685  0.022
     occupation matrix ns (before diag.):
       0.547 -0.000 -0.000 -0.000  0.000
      -0.000  0.962 -0.000  0.000  0.000
      -0.000 -0.000  0.962  0.000  0.000
      -0.000  0.000  0.000  0.547 -0.000
       0.000  0.000  0.000 -0.000  0.962
     SPIN  2
     eigenvalues:
       0.037  0.037  0.037  0.405  0.405
     eigenvectors (columns):
       0.000  0.000 -0.000  0.406 -0.914
      -0.291 -0.229 -0.929  0.000  0.000
      -0.536 -0.765  0.357  0.000  0.000
       0.000 -0.000  0.000  0.914  0.406
       0.793 -0.601 -0.099 -0.000 -0.000
     occupation matrix ns (before diag.):
       0.405 -0.000  0.000 -0.000 -0.000
      -0.000  0.037 -0.000  0.000  0.000
       0.000 -0.000  0.037  0.000  0.000
      -0.000  0.000  0.000  0.405 -0.000
      -0.000  0.000  0.000 -0.000  0.037

     Number of occupied Hubbard levels =    8.5695

     HUBBARD ENERGY =    0.2519  (Ry)

     total cpu time spent up to now is       42.0 secs

     total energy              =    -582.24514225 Ry
     estimated scf accuracy    <       0.34757612 Ry

     total magnetization       =     6.00 Bohr mag/cell
     absolute magnetization    =     6.40 Bohr mag/cell

     iteration #  5     ecut=   110.00 Ry     beta= 0.30
     Davidson diagonalization with overlap

---- Real-time Memory Report at c_bands before calling an iterative solver
           343 MiB given to the printing process from OS
           200 MiB allocation reported by mallinfo(arena+hblkhd)
        403718 MiB available memory on the node where the printing process lives
------------------
     ethr =  3.86E-04,  avg # of iterations =  5.6

     =================== HUBBARD OCCUPATIONS ===================
     ------------------------ ATOM    2 ------------------------
     Tr[ns(  2)] (up, down, total) =   3.18365  0.42632  3.60997
     Atomic magnetic moment for atom   2 =   2.75733
     SPIN  1
     eigenvalues:
       0.203  0.203  0.926  0.926  0.926
     eigenvectors (columns):
       0.706 -0.708 -0.000 -0.000  0.000
      -0.000 -0.000  0.338 -0.280 -0.899
      -0.000 -0.000  0.604 -0.668  0.435
       0.708  0.706  0.000  0.000 -0.000
       0.000  0.000 -0.722 -0.690 -0.057
     occupation matrix ns (before diag.):
       0.203 -0.000 -0.000 -0.000  0.000
      -0.000  0.926 -0.000  0.000  0.000
      -0.000 -0.000  0.926  0.000  0.000
      -0.000  0.000  0.000  0.203 -0.000
       0.000  0.000  0.000 -0.000  0.926
     SPIN  2
     eigenvalues:
       0.026  0.026  0.026  0.174  0.174
     eigenvectors (columns):
      -0.000 -0.000 -0.000  0.386 -0.923
      -0.343  0.291 -0.893  0.000  0.000
      -0.632  0.632  0.449  0.000  0.000
       0.000  0.000  0.000  0.923  0.386
       0.695  0.718 -0.033 -0.000 -0.000
     occupation matrix ns (before diag.):
       0.174 -0.000  0.000 -0.000  0.000
      -0.000  0.026 -0.000  0.000  0.000
       0.000 -0.000  0.026  0.000  0.000
      -0.000  0.000  0.000  0.174 -0.000
       0.000  0.000  0.000 -0.000  0.026
     ------------------------ ATOM    3 ------------------------
     Tr[ns(  3)] (up, down, total) =   3.81657  0.76704  4.58361
     Atomic magnetic moment for atom   3 =   3.04953
     SPIN  1
     eigenvalues:
       0.481  0.481  0.951  0.951  0.951
     eigenvectors (columns):
       0.454  0.891 -0.000 -0.000 -0.000
      -0.000  0.000  0.331 -0.221  0.917
      -0.000  0.000  0.604 -0.697 -0.386
       0.891 -0.454  0.000  0.000  0.000
       0.000 -0.000 -0.725 -0.682  0.097
     occupation matrix ns (before diag.):
       0.481 -0.000 -0.000 -0.000  0.000
      -0.000  0.951 -0.000  0.000  0.000
      -0.000 -0.000  0.951  0.000  0.000
      -0.000  0.000  0.000  0.481 -0.000
       0.000  0.000  0.000 -0.000  0.951
     SPIN  2
     eigenvalues:
       0.024  0.024  0.024  0.347  0.347
     eigenvectors (columns):
      -0.000 -0.000  0.000  0.438 -0.899
       0.327  0.181  0.928  0.000  0.000
       0.614  0.706 -0.354  0.000 -0.000
      -0.000  0.000 -0.000  0.899  0.438
      -0.719  0.685  0.120 -0.000 -0.000
     occupation matrix ns (before diag.):
       0.347 -0.000  0.000 -0.000 -0.000
      -0.000  0.024 -0.000  0.000  0.000
       0.000 -0.000  0.024  0.000  0.000
      -0.000  0.000  0.000  0.347 -0.000
      -0.000  0.000  0.000 -0.000  0.024

     Number of occupied Hubbard levels =    8.1936

     HUBBARD ENERGY =    0.2317  (Ry)

     total cpu time spent up to now is       50.3 secs

     total energy              =    -582.24224147 Ry
     estimated scf accuracy    <       0.11894683 Ry

     total magnetization       =     6.00 Bohr mag/cell
     absolute magnetization    =     6.29 Bohr mag/cell

     iteration #  6     ecut=   110.00 Ry     beta= 0.30
     Davidson diagonalization with overlap

---- Real-time Memory Report at c_bands before calling an iterative solver
           348 MiB given to the printing process from OS
           205 MiB allocation reported by mallinfo(arena+hblkhd)
        403658 MiB available memory on the node where the printing process lives
------------------
     ethr =  1.32E-04,  avg # of iterations =  7.6

     =================== HUBBARD OCCUPATIONS ===================
     ------------------------ ATOM    2 ------------------------
     Tr[ns(  2)] (up, down, total) =   3.18232  0.42984  3.61216
     Atomic magnetic moment for atom   2 =   2.75248
     SPIN  1
     eigenvalues:
       0.205  0.205  0.924  0.924  0.924
     eigenvectors (columns):
       0.374 -0.928 -0.000 -0.000  0.000
      -0.000 -0.000  0.329 -0.235 -0.914
      -0.000 -0.000  0.609 -0.687  0.396
       0.928  0.374  0.000  0.000 -0.000
       0.000  0.000 -0.721 -0.688 -0.083
     occupation matrix ns (before diag.):
       0.205 -0.000 -0.000 -0.000  0.000
      -0.000  0.924 -0.000  0.000  0.000
      -0.000 -0.000  0.924  0.000  0.000
      -0.000  0.000  0.000  0.205 -0.000
       0.000  0.000  0.000 -0.000  0.924
     SPIN  2
     eigenvalues:
       0.026  0.026  0.026  0.176  0.176
     eigenvectors (columns):
       0.000  0.000 -0.000  0.366 -0.931
       0.310 -0.155 -0.938  0.000  0.000
       0.551 -0.775  0.310  0.000  0.000
      -0.000 -0.000  0.000  0.931  0.366
      -0.775 -0.613 -0.154 -0.000 -0.000
     occupation matrix ns (before diag.):
       0.176 -0.000  0.000 -0.000  0.000
      -0.000  0.026 -0.000  0.000  0.000
       0.000 -0.000  0.026  0.000  0.000
      -0.000  0.000  0.000  0.176 -0.000
       0.000  0.000  0.000 -0.000  0.026
     ------------------------ ATOM    3 ------------------------
     Tr[ns(  3)] (up, down, total) =   3.93804  0.87691  4.81495
     Atomic magnetic moment for atom   3 =   3.06113
     SPIN  1
     eigenvalues:
       0.531  0.531  0.959  0.959  0.959
     eigenvectors (columns):
       0.209  0.978 -0.000 -0.000 -0.000
      -0.000  0.000  0.330 -0.190  0.925
      -0.000  0.000  0.609 -0.706 -0.362
       0.978 -0.209  0.000  0.000  0.000
       0.000 -0.000 -0.722 -0.682  0.117
     occupation matrix ns (before diag.):
       0.531 -0.000 -0.000 -0.000  0.000
      -0.000  0.959 -0.000  0.000  0.000
      -0.000 -0.000  0.959  0.000  0.000
      -0.000  0.000  0.000  0.531 -0.000
       0.000  0.000  0.000 -0.000  0.959
     SPIN  2
     eigenvalues:
       0.030  0.030  0.030  0.393  0.393
     eigenvectors (columns):
      -0.000 -0.000  0.000  0.337 -0.942
       0.302  0.300  0.905  0.000  0.000
       0.551  0.720 -0.423  0.000 -0.000
      -0.000  0.000 -0.000  0.942  0.337
      -0.778  0.626  0.052 -0.000 -0.000
     occupation matrix ns (before diag.):
       0.393 -0.000  0.000 -0.000 -0.000
      -0.000  0.030 -0.000  0.000  0.000
       0.000 -0.000  0.030  0.000  0.000
      -0.000  0.000  0.000  0.393 -0.000
      -0.000  0.000  0.000 -0.000  0.030

     Number of occupied Hubbard levels =    8.4271

     HUBBARD ENERGY =    0.2325  (Ry)

     total cpu time spent up to now is       61.7 secs

     total energy              =    -582.24695104 Ry
     estimated scf accuracy    <       0.06929580 Ry

     total magnetization       =     6.00 Bohr mag/cell
     absolute magnetization    =     6.35 Bohr mag/cell

     iteration #  7     ecut=   110.00 Ry     beta= 0.30
     Davidson diagonalization with overlap

---- Real-time Memory Report at c_bands before calling an iterative solver
           353 MiB given to the printing process from OS
           210 MiB allocation reported by mallinfo(arena+hblkhd)
        403651 MiB available memory on the node where the printing process lives
------------------
     ethr =  7.70E-05,  avg # of iterations =  6.3

     =================== HUBBARD OCCUPATIONS ===================
     ------------------------ ATOM    2 ------------------------
     Tr[ns(  2)] (up, down, total) =   3.15668  0.41844  3.57512
     Atomic magnetic moment for atom   2 =   2.73824
     SPIN  1
     eigenvalues:
       0.200  0.200  0.919  0.919  0.919
     eigenvectors (columns):
       0.477  0.879 -0.000 -0.000  0.000
      -0.000  0.000  0.330 -0.222 -0.918
      -0.000  0.000  0.600 -0.701  0.385
       0.879 -0.477  0.000  0.000 -0.000
       0.000 -0.000 -0.729 -0.678 -0.098
     occupation matrix ns (before diag.):
       0.200 -0.000 -0.000 -0.000  0.000
      -0.000  0.919 -0.000  0.000  0.000
      -0.000 -0.000  0.919  0.000  0.000
      -0.000  0.000  0.000  0.200 -0.000
       0.000  0.000  0.000 -0.000  0.919
     SPIN  2
     eigenvalues:
       0.025  0.025  0.025  0.172  0.172
     eigenvectors (columns):
      -0.000  0.000 -0.000 -0.622  0.783
      -0.313 -0.148 -0.938 -0.000 -0.000
      -0.606 -0.729  0.317 -0.000  0.000
       0.000 -0.000  0.000 -0.783 -0.622
       0.731 -0.668 -0.138  0.000  0.000
     occupation matrix ns (before diag.):
       0.172 -0.000  0.000 -0.000  0.000
      -0.000  0.025 -0.000  0.000  0.000
       0.000 -0.000  0.025  0.000  0.000
      -0.000  0.000  0.000  0.172 -0.000
       0.000  0.000  0.000 -0.000  0.025
     ------------------------ ATOM    3 ------------------------
     Tr[ns(  3)] (up, down, total) =   3.81644  0.77770  4.59414
     Atomic magnetic moment for atom   3 =   3.03875
     SPIN  1
     eigenvalues:
       0.481  0.481  0.952  0.952  0.952
     eigenvectors (columns):
       0.325  0.946 -0.000 -0.000 -0.000
      -0.000  0.000  0.325 -0.246  0.913
      -0.000  0.000  0.598 -0.695 -0.400
       0.946 -0.325  0.000  0.000  0.000
       0.000 -0.000 -0.733 -0.676  0.078
     occupation matrix ns (before diag.):
       0.481 -0.000 -0.000 -0.000  0.000
      -0.000  0.952 -0.000  0.000  0.000
      -0.000 -0.000  0.952  0.000  0.000
      -0.000  0.000  0.000  0.481 -0.000
       0.000  0.000  0.000 -0.000  0.952
     SPIN  2
     eigenvalues:
       0.026  0.026  0.026  0.350  0.350
     eigenvectors (columns):
       0.000  0.000  0.000 -0.386 -0.922
      -0.335  0.464  0.820 -0.000  0.000
      -0.541  0.618 -0.571 -0.000 -0.000
       0.000  0.000 -0.000 -0.922  0.386
       0.772  0.634 -0.044  0.000 -0.000
     occupation matrix ns (before diag.):
       0.350 -0.000  0.000 -0.000 -0.000
      -0.000  0.026 -0.000  0.000  0.000
       0.000 -0.000  0.026  0.000  0.000
      -0.000  0.000  0.000  0.350 -0.000
      -0.000  0.000  0.000 -0.000  0.026

     Number of occupied Hubbard levels =    8.1693

     HUBBARD ENERGY =    0.2383  (Ry)

     total cpu time spent up to now is       69.6 secs

     total energy              =    -582.25638961 Ry
     estimated scf accuracy    <       0.01874614 Ry

     total magnetization       =     6.00 Bohr mag/cell
     absolute magnetization    =     6.30 Bohr mag/cell

     iteration #  8     ecut=   110.00 Ry     beta= 0.30
     Davidson diagonalization with overlap

---- Real-time Memory Report at c_bands before calling an iterative solver
           358 MiB given to the printing process from OS
           215 MiB allocation reported by mallinfo(arena+hblkhd)
        403771 MiB available memory on the node where the printing process lives
------------------
     ethr =  2.08E-05,  avg # of iterations = 12.0

     =================== HUBBARD OCCUPATIONS ===================
     ------------------------ ATOM    2 ------------------------
     Tr[ns(  2)] (up, down, total) =   3.11638  0.40607  3.52245
     Atomic magnetic moment for atom   2 =   2.71032
     SPIN  1
     eigenvalues:
       0.196  0.196  0.908  0.908  0.908
     eigenvectors (columns):
      -0.422 -0.906 -0.000 -0.000  0.000
       0.000 -0.000  0.333 -0.282 -0.900
       0.000 -0.000  0.601 -0.671  0.433
      -0.906  0.422  0.000  0.000 -0.000
      -0.000  0.000 -0.726 -0.685 -0.054
     occupation matrix ns (before diag.):
       0.196 -0.000 -0.000 -0.000  0.000
      -0.000  0.908 -0.000  0.000  0.000
      -0.000 -0.000  0.908  0.000  0.000
      -0.000  0.000  0.000  0.196 -0.000
       0.000  0.000  0.000 -0.000  0.908
     SPIN  2
     eigenvalues:
       0.024  0.024  0.024  0.168  0.168
     eigenvectors (columns):
      -0.000  0.000  0.000  0.448 -0.894
      -0.307 -0.064  0.950  0.000  0.000
      -0.585 -0.774 -0.241  0.000  0.000
       0.000 -0.000 -0.000  0.894  0.448
       0.750 -0.630  0.200 -0.000 -0.000
     occupation matrix ns (before diag.):
       0.168 -0.000  0.000 -0.000  0.000
      -0.000  0.024 -0.000  0.000  0.000
       0.000 -0.000  0.024  0.000  0.000
      -0.000  0.000  0.000  0.168 -0.000
       0.000  0.000  0.000 -0.000  0.024
     ------------------------ ATOM    3 ------------------------
     Tr[ns(  3)] (up, down, total) =   3.76508  0.75447  4.51956
     Atomic magnetic moment for atom   3 =   3.01061
     SPIN  1
     eigenvalues:
       0.463  0.463  0.947  0.947  0.947
     eigenvectors (columns):
       0.402 -0.916 -0.000 -0.000 -0.000
      -0.000 -0.000  0.328 -0.252  0.911
      -0.000 -0.000  0.600 -0.689 -0.407
       0.916  0.402  0.000  0.000  0.000
       0.000  0.000 -0.730 -0.679  0.075
     occupation matrix ns (before diag.):
       0.463 -0.000 -0.000 -0.000  0.000
      -0.000  0.947 -0.000  0.000  0.000
      -0.000 -0.000  0.947  0.000  0.000
      -0.000  0.000  0.000  0.463 -0.000
       0.000  0.000  0.000 -0.000  0.947
     SPIN  2
     eigenvalues:
       0.026  0.026  0.026  0.339  0.339
     eigenvectors (columns):
       0.000  0.000 -0.000  0.504 -0.864
      -0.295 -0.309 -0.904  0.000  0.000
      -0.547 -0.722  0.425  0.000 -0.000
       0.000 -0.000  0.000  0.864  0.504
       0.784 -0.619 -0.044 -0.000 -0.000
     occupation matrix ns (before diag.):
       0.339 -0.000  0.000 -0.000 -0.000
      -0.000  0.026 -0.000  0.000  0.000
       0.000 -0.000  0.026  0.000  0.000
      -0.000  0.000  0.000  0.339 -0.000
      -0.000  0.000  0.000 -0.000  0.026

     Number of occupied Hubbard levels =    8.0420

     HUBBARD ENERGY =    0.2384  (Ry)

     total cpu time spent up to now is       79.7 secs

     total energy              =    -582.25472135 Ry
     estimated scf accuracy    <       0.02696455 Ry

     total magnetization       =     6.00 Bohr mag/cell
     absolute magnetization    =     6.26 Bohr mag/cell

     iteration #  9     ecut=   110.00 Ry     beta= 0.30
     Davidson diagonalization with overlap

---- Real-time Memory Report at c_bands before calling an iterative solver
           362 MiB given to the printing process from OS
           220 MiB allocation reported by mallinfo(arena+hblkhd)
        403592 MiB available memory on the node where the printing process lives
------------------
     ethr =  2.08E-05,  avg # of iterations =  1.4

     =================== HUBBARD OCCUPATIONS ===================
     ------------------------ ATOM    2 ------------------------
     Tr[ns(  2)] (up, down, total) =   3.12080  0.40777  3.52857
     Atomic magnetic moment for atom   2 =   2.71303
     SPIN  1
     eigenvalues:
       0.196  0.196  0.909  0.909  0.909
     eigenvectors (columns):
       0.049 -0.999 -0.000  0.000 -0.000
       0.000 -0.000  0.337  0.316  0.887
       0.000 -0.000  0.592  0.661 -0.461
      -0.999 -0.049  0.000 -0.000  0.000
      -0.000  0.000 -0.732  0.681  0.035
     occupation matrix ns (before diag.):
       0.196 -0.000 -0.000 -0.000  0.000
      -0.000  0.909 -0.000  0.000  0.000
      -0.000 -0.000  0.909  0.000  0.000
      -0.000  0.000  0.000  0.196 -0.000
       0.000  0.000  0.000 -0.000  0.909
     SPIN  2
     eigenvalues:
       0.024  0.024  0.024  0.168  0.168
     eigenvectors (columns):
      -0.000 -0.000 -0.000  0.317 -0.949
      -0.312  0.011 -0.950  0.000  0.000
      -0.623  0.752  0.213  0.000  0.000
       0.000  0.000  0.000  0.949  0.317
       0.717  0.659 -0.228 -0.000 -0.000
     occupation matrix ns (before diag.):
       0.168 -0.000  0.000 -0.000  0.000
      -0.000  0.024 -0.000  0.000  0.000
       0.000 -0.000  0.024  0.000  0.000
      -0.000  0.000  0.000  0.168 -0.000
       0.000  0.000  0.000 -0.000  0.024
     ------------------------ ATOM    3 ------------------------
     Tr[ns(  3)] (up, down, total) =   3.79447  0.77597  4.57044
     Atomic magnetic moment for atom   3 =   3.01850
     SPIN  1
     eigenvalues:
       0.473  0.473  0.949  0.949  0.949
     eigenvectors (columns):
       0.451  0.893 -0.000 -0.000 -0.000
      -0.000  0.000  0.325 -0.174  0.929
      -0.000  0.000  0.608 -0.714 -0.347
       0.893 -0.451  0.000  0.000  0.000
       0.000 -0.000 -0.724 -0.678  0.126
     occupation matrix ns (before diag.):
       0.473 -0.000 -0.000 -0.000  0.000
      -0.000  0.949 -0.000  0.000  0.000
      -0.000 -0.000  0.949  0.000  0.000
      -0.000  0.000  0.000  0.473 -0.000
       0.000  0.000  0.000 -0.000  0.949
     SPIN  2
     eigenvalues:
       0.026  0.026  0.026  0.349  0.349
     eigenvectors (columns):
       0.000  0.000 -0.000  0.382 -0.924
      -0.342 -0.187 -0.921  0.000  0.000
      -0.681 -0.626  0.380  0.000 -0.000
       0.000 -0.000  0.000  0.924  0.382
       0.647 -0.757 -0.087 -0.000 -0.000
     occupation matrix ns (before diag.):
       0.349 -0.000  0.000 -0.000 -0.000
      -0.000  0.026 -0.000  0.000  0.000
       0.000 -0.000  0.026  0.000  0.000
      -0.000  0.000  0.000  0.349 -0.000
      -0.000  0.000  0.000 -0.000  0.026

     Number of occupied Hubbard levels =    8.0990

     negative rho (up, down):  1.515E-04 1.652E-04

     HUBBARD ENERGY =    0.2426  (Ry)

     total cpu time spent up to now is       90.0 secs

     total energy              =    -582.25004952 Ry
     estimated scf accuracy    <       0.01076962 Ry

     total magnetization       =     6.00 Bohr mag/cell
     absolute magnetization    =     6.27 Bohr mag/cell

     iteration # 10     ecut=   110.00 Ry     beta= 0.30
     Davidson diagonalization with overlap

---- Real-time Memory Report at c_bands before calling an iterative solver
           367 MiB given to the printing process from OS
           225 MiB allocation reported by mallinfo(arena+hblkhd)
        403601 MiB available memory on the node where the printing process lives
------------------
     ethr =  1.20E-05,  avg # of iterations =  6.3

     =================== HUBBARD OCCUPATIONS ===================
     ------------------------ ATOM    2 ------------------------
     Tr[ns(  2)] (up, down, total) =   3.13443  0.41168  3.54611
     Atomic magnetic moment for atom   2 =   2.72275
     SPIN  1
     eigenvalues:
       0.197  0.197  0.913  0.913  0.913
     eigenvectors (columns):
       0.222  0.975 -0.000 -0.000 -0.000
      -0.000  0.000  0.334 -0.315  0.888
      -0.000  0.000  0.588 -0.667 -0.458
       0.975 -0.222  0.000  0.000  0.000
       0.000 -0.000 -0.737 -0.675  0.037
     occupation matrix ns (before diag.):
       0.197 -0.000 -0.000 -0.000  0.000
      -0.000  0.913 -0.000  0.000  0.000
      -0.000 -0.000  0.913  0.000  0.000
      -0.000  0.000  0.000  0.197 -0.000
       0.000  0.000  0.000 -0.000  0.913
     SPIN  2
     eigenvalues:
       0.025  0.025  0.025  0.169  0.169
     eigenvectors (columns):
      -0.000  0.000 -0.000  0.447 -0.895
      -0.305 -0.269 -0.914  0.000  0.000
      -0.569 -0.718  0.401  0.000  0.000
       0.000 -0.000  0.000  0.895  0.447
       0.764 -0.642 -0.066 -0.000 -0.000
     occupation matrix ns (before diag.):
       0.169 -0.000  0.000 -0.000  0.000
      -0.000  0.025 -0.000  0.000  0.000
       0.000 -0.000  0.025  0.000  0.000
      -0.000  0.000  0.000  0.169 -0.000
       0.000  0.000  0.000 -0.000  0.025
     ------------------------ ATOM    3 ------------------------
     Tr[ns(  3)] (up, down, total) =   3.82855  0.81423  4.64278
     Atomic magnetic moment for atom   3 =   3.01432
     SPIN  1
     eigenvalues:
       0.485  0.485  0.953  0.953  0.953
     eigenvectors (columns):
       0.436 -0.900 -0.000 -0.000 -0.000
      -0.000 -0.000  0.323 -0.220  0.920
      -0.000 -0.000  0.605 -0.700 -0.380
       0.900  0.436  0.000  0.000  0.000
       0.000  0.000 -0.727 -0.680  0.093
     occupation matrix ns (before diag.):
       0.485 -0.000 -0.000 -0.000  0.000
      -0.000  0.953 -0.000  0.000  0.000
      -0.000 -0.000  0.953  0.000  0.000
      -0.000  0.000  0.000  0.485 -0.000
       0.000  0.000  0.000 -0.000  0.953
     SPIN  2
     eigenvalues:
       0.028  0.028  0.028  0.366  0.366
     eigenvectors (columns):
      -0.000  0.000  0.000  0.434 -0.901
       0.332 -0.313  0.890  0.000  0.000
       0.617 -0.642 -0.455  0.000 -0.000
      -0.000 -0.000 -0.000  0.901  0.434
      -0.714 -0.700  0.020 -0.000 -0.000
     occupation matrix ns (before diag.):
       0.366 -0.000  0.000 -0.000 -0.000
      -0.000  0.028 -0.000  0.000  0.000
       0.000 -0.000  0.028  0.000  0.000
      -0.000  0.000  0.000  0.366 -0.000
      -0.000  0.000  0.000 -0.000  0.028

     Number of occupied Hubbard levels =    8.1889

     negative rho (up, down):  4.473E-05 5.514E-05

     HUBBARD ENERGY =    0.2408  (Ry)

     total cpu time spent up to now is      103.1 secs

     total energy              =    -582.25181531 Ry
     estimated scf accuracy    <       0.00195669 Ry

     total magnetization       =     6.00 Bohr mag/cell
     absolute magnetization    =     6.26 Bohr mag/cell

     iteration # 11     ecut=   110.00 Ry     beta= 0.30
     Davidson diagonalization with overlap

---- Real-time Memory Report at c_bands before calling an iterative solver
           367 MiB given to the printing process from OS
           225 MiB allocation reported by mallinfo(arena+hblkhd)
        403647 MiB available memory on the node where the printing process lives
------------------
     ethr =  2.17E-06,  avg # of iterations =  9.2

     =================== HUBBARD OCCUPATIONS ===================
     ------------------------ ATOM    2 ------------------------
     Tr[ns(  2)] (up, down, total) =   3.13172  0.40984  3.54157
     Atomic magnetic moment for atom   2 =   2.72188
     SPIN  1
     eigenvalues:
       0.198  0.198  0.912  0.912  0.912
     eigenvectors (columns):
       0.452 -0.892 -0.000 -0.000  0.000
      -0.000 -0.000  0.325 -0.267 -0.907
      -0.000 -0.000  0.589 -0.694  0.415
       0.892  0.452  0.000  0.000 -0.000
       0.000  0.000 -0.740 -0.669 -0.068
     occupation matrix ns (before diag.):
       0.198 -0.000 -0.000 -0.000  0.000
      -0.000  0.912 -0.000  0.000  0.000
      -0.000 -0.000  0.912  0.000  0.000
      -0.000  0.000  0.000  0.198 -0.000
       0.000  0.000  0.000 -0.000  0.912
     SPIN  2
     eigenvalues:
       0.024  0.024  0.024  0.169  0.169
     eigenvectors (columns):
      -0.000 -0.000  0.000  0.408 -0.913
      -0.321  0.262  0.910  0.000  0.000
      -0.630  0.658 -0.412  0.000  0.000
       0.000  0.000 -0.000  0.913  0.408
       0.707  0.706  0.046 -0.000 -0.000
     occupation matrix ns (before diag.):
       0.169 -0.000  0.000 -0.000  0.000
      -0.000  0.024 -0.000  0.000  0.000
       0.000 -0.000  0.024  0.000  0.000
      -0.000  0.000  0.000  0.169 -0.000
       0.000  0.000  0.000 -0.000  0.024
     ------------------------ ATOM    3 ------------------------
     Tr[ns(  3)] (up, down, total) =   3.81549  0.80185  4.61734
     Atomic magnetic moment for atom   3 =   3.01364
     SPIN  1
     eigenvalues:
       0.480  0.480  0.952  0.952  0.952
     eigenvectors (columns):
       0.295  0.955 -0.000 -0.000 -0.000
      -0.000  0.000  0.328 -0.235  0.915
      -0.000  0.000  0.601 -0.695 -0.394
       0.955 -0.295  0.000  0.000  0.000
       0.000 -0.000 -0.729 -0.679  0.087
     occupation matrix ns (before diag.):
       0.480 -0.000 -0.000 -0.000  0.000
      -0.000  0.952 -0.000  0.000  0.000
      -0.000 -0.000  0.952  0.000  0.000
      -0.000  0.000  0.000  0.480 -0.000
       0.000  0.000  0.000 -0.000  0.952
     SPIN  2
     eigenvalues:
       0.028  0.028  0.028  0.360  0.360
     eigenvectors (columns):
       0.000 -0.000  0.000  0.379 -0.925
      -0.312  0.281  0.907  0.000  0.000
      -0.603  0.680 -0.418  0.000  0.000
       0.000  0.000 -0.000  0.925  0.379
       0.734  0.678  0.042 -0.000 -0.000
     occupation matrix ns (before diag.):
       0.360 -0.000  0.000 -0.000 -0.000
      -0.000  0.028 -0.000  0.000  0.000
       0.000 -0.000  0.028  0.000  0.000
      -0.000  0.000  0.000  0.360 -0.000
      -0.000  0.000  0.000 -0.000  0.028

     Number of occupied Hubbard levels =    8.1589

     negative rho (up, down):  2.343E-05 2.812E-05

     HUBBARD ENERGY =    0.2391  (Ry)

     total cpu time spent up to now is      113.5 secs

     total energy              =    -582.25184851 Ry
     estimated scf accuracy    <       0.00094231 Ry

     total magnetization       =     6.00 Bohr mag/cell
     absolute magnetization    =     6.27 Bohr mag/cell

     iteration # 12     ecut=   110.00 Ry     beta= 0.30
     Davidson diagonalization with overlap

---- Real-time Memory Report at c_bands before calling an iterative solver
           367 MiB given to the printing process from OS
           225 MiB allocation reported by mallinfo(arena+hblkhd)
        403597 MiB available memory on the node where the printing process lives
------------------
     ethr =  1.05E-06,  avg # of iterations =  3.4

     =================== HUBBARD OCCUPATIONS ===================
     ------------------------ ATOM    2 ------------------------
     Tr[ns(  2)] (up, down, total) =   3.13356  0.41061  3.54416
     Atomic magnetic moment for atom   2 =   2.72295
     SPIN  1
     eigenvalues:
       0.198  0.198  0.912  0.912  0.912
     eigenvectors (columns):
       0.318 -0.948 -0.000 -0.000  0.000
      -0.000 -0.000  0.326 -0.240 -0.915
      -0.000 -0.000  0.601 -0.694  0.396
       0.948  0.318  0.000  0.000 -0.000
       0.000  0.000 -0.730 -0.679 -0.082
     occupation matrix ns (before diag.):
       0.198 -0.000 -0.000 -0.000  0.000
      -0.000  0.912 -0.000  0.000  0.000
      -0.000 -0.000  0.912  0.000  0.000
      -0.000  0.000  0.000  0.198 -0.000
       0.000  0.000  0.000 -0.000  0.912
     SPIN  2
     eigenvalues:
       0.025  0.025  0.025  0.169  0.169
     eigenvectors (columns):
      -0.000  0.000 -0.000  0.430 -0.903
      -0.328 -0.271 -0.905  0.000  0.000
      -0.592 -0.688  0.421  0.000  0.000
       0.000 -0.000  0.000  0.903  0.430
       0.736 -0.673 -0.066 -0.000 -0.000
     occupation matrix ns (before diag.):
       0.169 -0.000  0.000 -0.000  0.000
      -0.000  0.025 -0.000  0.000  0.000
       0.000 -0.000  0.025  0.000  0.000
      -0.000  0.000  0.000  0.169 -0.000
       0.000  0.000  0.000 -0.000  0.025
     ------------------------ ATOM    3 ------------------------
     Tr[ns(  3)] (up, down, total) =   3.82295  0.80602  4.62898
     Atomic magnetic moment for atom   3 =   3.01693
     SPIN  1
     eigenvalues:
       0.482  0.482  0.953  0.953  0.953
     eigenvectors (columns):
       0.368 -0.930 -0.000 -0.000 -0.000
      -0.000 -0.000  0.321 -0.205  0.925
      -0.000 -0.000  0.602 -0.710 -0.366
       0.930  0.368  0.000  0.000  0.000
       0.000  0.000 -0.731 -0.674  0.105
     occupation matrix ns (before diag.):
       0.482 -0.000 -0.000 -0.000  0.000
      -0.000  0.953 -0.000  0.000  0.000
      -0.000 -0.000  0.953  0.000  0.000
      -0.000  0.000  0.000  0.482 -0.000
       0.000  0.000  0.000 -0.000  0.953
     SPIN  2
     eigenvalues:
       0.027  0.027  0.027  0.362  0.362
     eigenvectors (columns):
       0.000 -0.000  0.000  0.388 -0.922
      -0.288  0.212  0.934  0.000 -0.000
      -0.596  0.724 -0.347  0.000  0.000
       0.000  0.000 -0.000  0.922  0.388
       0.749  0.657  0.082 -0.000 -0.000
     occupation matrix ns (before diag.):
       0.362 -0.000  0.000 -0.000 -0.000
      -0.000  0.027 -0.000  0.000  0.000
       0.000 -0.000  0.027  0.000  0.000
      -0.000  0.000  0.000  0.362 -0.000
      -0.000  0.000  0.000 -0.000  0.027

     Number of occupied Hubbard levels =    8.1731

     negative rho (up, down):  4.240E-06 6.085E-06

     HUBBARD ENERGY =    0.2392  (Ry)

     total cpu time spent up to now is      122.1 secs

     total energy              =    -582.25196354 Ry
     estimated scf accuracy    <       0.00006932 Ry

     total magnetization       =     6.00 Bohr mag/cell
     absolute magnetization    =     6.27 Bohr mag/cell

     iteration # 13     ecut=   110.00 Ry     beta= 0.30
     Davidson diagonalization with overlap

---- Real-time Memory Report at c_bands before calling an iterative solver
           367 MiB given to the printing process from OS
           225 MiB allocation reported by mallinfo(arena+hblkhd)
        403569 MiB available memory on the node where the printing process lives
------------------
     ethr =  7.70E-08,  avg # of iterations =  5.0

     =================== HUBBARD OCCUPATIONS ===================
     ------------------------ ATOM    2 ------------------------
     Tr[ns(  2)] (up, down, total) =   3.13543  0.41041  3.54584
     Atomic magnetic moment for atom   2 =   2.72501
     SPIN  1
     eigenvalues:
       0.198  0.198  0.913  0.913  0.913
     eigenvectors (columns):
       0.243 -0.970 -0.000 -0.000 -0.000
      -0.000 -0.000  0.330 -0.298  0.896
      -0.000 -0.000  0.594 -0.672 -0.442
       0.970  0.243  0.000  0.000  0.000
       0.000  0.000 -0.734 -0.678  0.045
     occupation matrix ns (before diag.):
       0.198 -0.000 -0.000 -0.000  0.000
      -0.000  0.913 -0.000  0.000  0.000
      -0.000 -0.000  0.913  0.000  0.000
      -0.000  0.000  0.000  0.198 -0.000
       0.000  0.000  0.000 -0.000  0.913
     SPIN  2
     eigenvalues:
       0.025  0.025  0.025  0.168  0.168
     eigenvectors (columns):
      -0.000 -0.000  0.000 -0.660  0.751
      -0.319 -0.024  0.947 -0.000 -0.000
      -0.628  0.754 -0.193  0.000 -0.000
       0.000  0.000 -0.000 -0.751 -0.660
       0.710  0.656  0.256  0.000  0.000
     occupation matrix ns (before diag.):
       0.168 -0.000  0.000 -0.000  0.000
      -0.000  0.025 -0.000  0.000  0.000
       0.000 -0.000  0.025  0.000  0.000
      -0.000  0.000  0.000  0.168 -0.000
       0.000  0.000  0.000 -0.000  0.025
     ------------------------ ATOM    3 ------------------------
     Tr[ns(  3)] (up, down, total) =   3.82081  0.80377  4.62458
     Atomic magnetic moment for atom   3 =   3.01704
     SPIN  1
     eigenvalues:
       0.482  0.482  0.953  0.953  0.953
     eigenvectors (columns):
       0.438  0.899 -0.000 -0.000 -0.000
      -0.000  0.000  0.329 -0.275  0.903
      -0.000  0.000  0.592 -0.685 -0.424
       0.899 -0.438  0.000  0.000  0.000
       0.000 -0.000 -0.736 -0.675  0.062
     occupation matrix ns (before diag.):
       0.482 -0.000 -0.000 -0.000  0.000
      -0.000  0.953 -0.000  0.000  0.000
      -0.000 -0.000  0.953  0.000  0.000
      -0.000  0.000  0.000  0.482 -0.000
       0.000  0.000  0.000 -0.000  0.953
     SPIN  2
     eigenvalues:
       0.027  0.027  0.027  0.361  0.361
     eigenvectors (columns):
       0.000  0.000 -0.000  0.438 -0.899
      -0.322 -0.238 -0.916  0.000  0.000
      -0.629 -0.670  0.395  0.000 -0.000
       0.000 -0.000  0.000  0.899  0.438
       0.708 -0.704 -0.066 -0.000 -0.000
     occupation matrix ns (before diag.):
       0.361 -0.000  0.000 -0.000 -0.000
      -0.000  0.027 -0.000  0.000  0.000
       0.000 -0.000  0.027  0.000  0.000
      -0.000  0.000  0.000  0.361 -0.000
      -0.000  0.000  0.000 -0.000  0.027

     Number of occupied Hubbard levels =    8.1704

     HUBBARD ENERGY =    0.2397  (Ry)

     total cpu time spent up to now is      133.0 secs

     total energy              =    -582.25195470 Ry
     estimated scf accuracy    <       0.00015202 Ry

     total magnetization       =     6.00 Bohr mag/cell
     absolute magnetization    =     6.27 Bohr mag/cell

     iteration # 14     ecut=   110.00 Ry     beta= 0.30
     Davidson diagonalization with overlap

---- Real-time Memory Report at c_bands before calling an iterative solver
           367 MiB given to the printing process from OS
           225 MiB allocation reported by mallinfo(arena+hblkhd)
        403700 MiB available memory on the node where the printing process lives
------------------
     ethr =  7.70E-08,  avg # of iterations =  4.0

     =================== HUBBARD OCCUPATIONS ===================
     ------------------------ ATOM    2 ------------------------
     Tr[ns(  2)] (up, down, total) =   3.13466  0.41021  3.54486
     Atomic magnetic moment for atom   2 =   2.72445
     SPIN  1
     eigenvalues:
       0.199  0.199  0.913  0.913  0.913
     eigenvectors (columns):
      -0.049  0.999 -0.000 -0.000 -0.000
       0.000  0.000  0.335 -0.290  0.896
       0.000  0.000  0.600 -0.668 -0.441
      -0.999 -0.049  0.000  0.000  0.000
      -0.000 -0.000 -0.726 -0.686  0.050
     occupation matrix ns (before diag.):
       0.199 -0.000 -0.000 -0.000  0.000
      -0.000  0.913 -0.000  0.000  0.000
      -0.000 -0.000  0.913  0.000  0.000
      -0.000  0.000  0.000  0.199 -0.000
       0.000  0.000  0.000 -0.000  0.913
     SPIN  2
     eigenvalues:
       0.024  0.024  0.024  0.169  0.169
     eigenvectors (columns):
      -0.000  0.000  0.000  0.372 -0.928
      -0.300 -0.139  0.944  0.000  0.000
      -0.576 -0.762 -0.296  0.000  0.000
       0.000 -0.000 -0.000  0.928  0.372
       0.760 -0.632  0.149 -0.000 -0.000
     occupation matrix ns (before diag.):
       0.169 -0.000  0.000 -0.000  0.000
      -0.000  0.024 -0.000  0.000  0.000
       0.000 -0.000  0.024  0.000  0.000
      -0.000  0.000  0.000  0.169 -0.000
       0.000  0.000  0.000 -0.000  0.024
     ------------------------ ATOM    3 ------------------------
     Tr[ns(  3)] (up, down, total) =   3.82292  0.80454  4.62746
     Atomic magnetic moment for atom   3 =   3.01839
     SPIN  1
     eigenvalues:
       0.482  0.482  0.953  0.953  0.953
     eigenvectors (columns):
       0.279  0.960 -0.000 -0.000 -0.000
      -0.000  0.000  0.329 -0.289  0.899
      -0.000  0.000  0.592 -0.679 -0.435
       0.960 -0.279  0.000  0.000  0.000
       0.000 -0.000 -0.736 -0.675  0.052
     occupation matrix ns (before diag.):
       0.482 -0.000 -0.000 -0.000  0.000
      -0.000  0.953 -0.000  0.000  0.000
      -0.000 -0.000  0.953  0.000  0.000
      -0.000  0.000  0.000  0.482 -0.000
       0.000  0.000  0.000 -0.000  0.953
     SPIN  2
     eigenvalues:
       0.027  0.027  0.027  0.361  0.361
     eigenvectors (columns):
      -0.000 -0.000  0.000  0.368  0.930
       0.313 -0.858 -0.408  0.000 -0.000
       0.532  0.514 -0.673  0.000 -0.000
      -0.000  0.000 -0.000  0.930 -0.368
      -0.787  0.007 -0.617 -0.000  0.000
     occupation matrix ns (before diag.):
       0.361 -0.000  0.000 -0.000 -0.000
      -0.000  0.027 -0.000  0.000  0.000
       0.000 -0.000  0.027  0.000  0.000
      -0.000  0.000  0.000  0.361 -0.000
      -0.000  0.000  0.000 -0.000  0.027

     Number of occupied Hubbard levels =    8.1723

     HUBBARD ENERGY =    0.2397  (Ry)

     total cpu time spent up to now is      144.2 secs

     total energy              =    -582.25198393 Ry
     estimated scf accuracy    <       0.00005589 Ry

     total magnetization       =     6.00 Bohr mag/cell
     absolute magnetization    =     6.27 Bohr mag/cell

     iteration # 15     ecut=   110.00 Ry     beta= 0.30
     Davidson diagonalization with overlap

---- Real-time Memory Report at c_bands before calling an iterative solver
           367 MiB given to the printing process from OS
           225 MiB allocation reported by mallinfo(arena+hblkhd)
        403648 MiB available memory on the node where the printing process lives
------------------
     ethr =  6.21E-08,  avg # of iterations =  2.4

     =================== HUBBARD OCCUPATIONS ===================
     ------------------------ ATOM    2 ------------------------
     Tr[ns(  2)] (up, down, total) =   3.13498  0.41052  3.54550
     Atomic magnetic moment for atom   2 =   2.72445
     SPIN  1
     eigenvalues:
       0.199  0.199  0.913  0.913  0.913
     eigenvectors (columns):
       0.346 -0.938 -0.000 -0.000 -0.000
      -0.000 -0.000  0.337 -0.273  0.901
      -0.000 -0.000  0.615 -0.660 -0.430
       0.938  0.346  0.000  0.000  0.000
       0.000  0.000 -0.712 -0.700  0.055
     occupation matrix ns (before diag.):
       0.199 -0.000 -0.000 -0.000  0.000
      -0.000  0.913 -0.000  0.000  0.000
      -0.000 -0.000  0.913  0.000  0.000
      -0.000  0.000  0.000  0.199 -0.000
       0.000  0.000  0.000 -0.000  0.913
     SPIN  2
     eigenvalues:
       0.024  0.024  0.024  0.169  0.169
     eigenvectors (columns):
       0.000  0.000  0.000  0.350 -0.937
       0.322 -0.351  0.879  0.000  0.000
       0.578 -0.662 -0.476  0.000  0.000
      -0.000 -0.000 -0.000  0.937  0.350
      -0.749 -0.662  0.010 -0.000 -0.000
     occupation matrix ns (before diag.):
       0.169 -0.000  0.000 -0.000  0.000
      -0.000  0.024 -0.000  0.000  0.000
       0.000 -0.000  0.024  0.000  0.000
      -0.000  0.000  0.000  0.169 -0.000
       0.000  0.000  0.000 -0.000  0.024
     ------------------------ ATOM    3 ------------------------
     Tr[ns(  3)] (up, down, total) =   3.82308  0.80436  4.62744
     Atomic magnetic moment for atom   3 =   3.01873
     SPIN  1
     eigenvalues:
       0.483  0.483  0.953  0.953  0.953
     eigenvectors (columns):
       0.566  0.825 -0.000 -0.000 -0.000
      -0.000  0.000  0.328 -0.281  0.902
      -0.000  0.000  0.596 -0.680 -0.428
       0.825 -0.566  0.000  0.000  0.000
       0.000 -0.000 -0.733 -0.678  0.056
     occupation matrix ns (before diag.):
       0.483 -0.000 -0.000 -0.000  0.000
      -0.000  0.953 -0.000  0.000  0.000
      -0.000 -0.000  0.953  0.000  0.000
      -0.000  0.000  0.000  0.483 -0.000
       0.000  0.000  0.000 -0.000  0.953
     SPIN  2
     eigenvalues:
       0.027  0.027  0.027  0.361  0.361
     eigenvectors (columns):
       0.000  0.000 -0.000  0.420 -0.908
      -0.331 -0.156 -0.931  0.000 -0.000
      -0.674 -0.651  0.348  0.000 -0.000
       0.000 -0.000  0.000  0.908  0.420
       0.660 -0.743 -0.110 -0.000 -0.000
     occupation matrix ns (before diag.):
       0.361 -0.000  0.000 -0.000 -0.000
      -0.000  0.027 -0.000  0.000  0.000
       0.000 -0.000  0.027  0.000  0.000
      -0.000  0.000  0.000  0.361 -0.000
      -0.000  0.000  0.000 -0.000  0.027

     Number of occupied Hubbard levels =    8.1729

     HUBBARD ENERGY =    0.2397  (Ry)

     total cpu time spent up to now is      151.3 secs

     total energy              =    -582.25198951 Ry
     estimated scf accuracy    <       0.00000160 Ry

     total magnetization       =     6.00 Bohr mag/cell
     absolute magnetization    =     6.27 Bohr mag/cell

     iteration # 16     ecut=   110.00 Ry     beta= 0.30
     Davidson diagonalization with overlap

---- Real-time Memory Report at c_bands before calling an iterative solver
           367 MiB given to the printing process from OS
           225 MiB allocation reported by mallinfo(arena+hblkhd)
        403763 MiB available memory on the node where the printing process lives
------------------
     ethr =  1.78E-09,  avg # of iterations =  5.7

     =================== HUBBARD OCCUPATIONS ===================
     ------------------------ ATOM    2 ------------------------
     Tr[ns(  2)] (up, down, total) =   3.13585  0.41070  3.54655
     Atomic magnetic moment for atom   2 =   2.72515
     SPIN  1
     eigenvalues:
       0.199  0.199  0.913  0.913  0.913
     eigenvectors (columns):
       0.126 -0.992 -0.000 -0.000 -0.000
      -0.000 -0.000  0.327 -0.266  0.907
      -0.000 -0.000  0.598 -0.684 -0.417
       0.992  0.126  0.000  0.000  0.000
       0.000  0.000 -0.732 -0.679  0.065
     occupation matrix ns (before diag.):
       0.199 -0.000 -0.000 -0.000  0.000
      -0.000  0.913 -0.000  0.000  0.000
      -0.000 -0.000  0.913  0.000  0.000
      -0.000  0.000  0.000  0.199 -0.000
       0.000  0.000  0.000 -0.000  0.913
     SPIN  2
     eigenvalues:
       0.024  0.024  0.024  0.169  0.169
     eigenvectors (columns):
      -0.000  0.000 -0.000  0.374 -0.927
      -0.313 -0.263 -0.913  0.000  0.000
      -0.595 -0.695  0.404  0.000  0.000
       0.000 -0.000  0.000  0.927  0.374
       0.741 -0.669 -0.061 -0.000 -0.000
     occupation matrix ns (before diag.):
       0.169 -0.000  0.000 -0.000  0.000
      -0.000  0.024 -0.000  0.000  0.000
       0.000 -0.000  0.024  0.000  0.000
      -0.000  0.000  0.000  0.169 -0.000
       0.000  0.000  0.000 -0.000  0.024
     ------------------------ ATOM    3 ------------------------
     Tr[ns(  3)] (up, down, total) =   3.82320  0.80441  4.62761
     Atomic magnetic moment for atom   3 =   3.01879
     SPIN  1
     eigenvalues:
       0.483  0.483  0.953  0.953  0.953
     eigenvectors (columns):
       0.450  0.893 -0.000 -0.000 -0.000
      -0.000  0.000  0.321 -0.199  0.926
      -0.000  0.000  0.597 -0.716 -0.361
       0.893 -0.450  0.000  0.000  0.000
       0.000 -0.000 -0.735 -0.669  0.112
     occupation matrix ns (before diag.):
       0.483 -0.000 -0.000 -0.000  0.000
      -0.000  0.953 -0.000  0.000  0.000
      -0.000 -0.000  0.953  0.000  0.000
      -0.000  0.000  0.000  0.483 -0.000
       0.000  0.000  0.000 -0.000  0.953
     SPIN  2
     eigenvalues:
       0.027  0.027  0.027  0.361  0.361
     eigenvectors (columns):
       0.000  0.000 -0.000  0.430 -0.903
      -0.333 -0.164 -0.929  0.000  0.000
      -0.675 -0.646  0.356  0.000 -0.000
       0.000 -0.000  0.000  0.903  0.430
       0.658 -0.745 -0.104 -0.000 -0.000
     occupation matrix ns (before diag.):
       0.361 -0.000  0.000 -0.000 -0.000
      -0.000  0.027 -0.000  0.000  0.000
       0.000 -0.000  0.027  0.000  0.000
      -0.000  0.000  0.000  0.361 -0.000
      -0.000  0.000  0.000 -0.000  0.027

     Number of occupied Hubbard levels =    8.1742

     HUBBARD ENERGY =    0.2396  (Ry)

     total cpu time spent up to now is      162.4 secs

     total energy              =    -582.25199176 Ry
     estimated scf accuracy    <       0.00001036 Ry

     total magnetization       =     6.00 Bohr mag/cell
     absolute magnetization    =     6.27 Bohr mag/cell

     iteration # 17     ecut=   110.00 Ry     beta= 0.30
     Davidson diagonalization with overlap

---- Real-time Memory Report at c_bands before calling an iterative solver
           367 MiB given to the printing process from OS
           225 MiB allocation reported by mallinfo(arena+hblkhd)
        403601 MiB available memory on the node where the printing process lives
------------------
     ethr =  1.78E-09,  avg # of iterations =  2.0

     =================== HUBBARD OCCUPATIONS ===================
     ------------------------ ATOM    2 ------------------------
     Tr[ns(  2)] (up, down, total) =   3.13585  0.41066  3.54650
     Atomic magnetic moment for atom   2 =   2.72519
     SPIN  1
     eigenvalues:
       0.199  0.199  0.913  0.913  0.913
     eigenvectors (columns):
       0.471 -0.882 -0.000 -0.000  0.000
      -0.000 -0.000  0.320 -0.165 -0.933
      -0.000 -0.000  0.594 -0.732  0.333
       0.882  0.471  0.000  0.000 -0.000
       0.000  0.000 -0.738 -0.661 -0.136
     occupation matrix ns (before diag.):
       0.199 -0.000 -0.000 -0.000  0.000
      -0.000  0.913 -0.000  0.000  0.000
      -0.000 -0.000  0.913  0.000  0.000
      -0.000  0.000  0.000  0.199 -0.000
       0.000  0.000  0.000 -0.000  0.913
     SPIN  2
     eigenvalues:
       0.024  0.024  0.024  0.169  0.169
     eigenvectors (columns):
      -0.000  0.000 -0.000 -0.440 -0.898
      -0.343  0.852 -0.395 -0.000  0.000
      -0.552  0.158  0.819 -0.000  0.000
       0.000  0.000  0.000 -0.898  0.440
       0.760  0.499  0.416  0.000 -0.000
     occupation matrix ns (before diag.):
       0.169 -0.000  0.000 -0.000  0.000
      -0.000  0.024 -0.000  0.000  0.000
       0.000 -0.000  0.024  0.000  0.000
      -0.000  0.000  0.000  0.169 -0.000
       0.000  0.000  0.000 -0.000  0.024
     ------------------------ ATOM    3 ------------------------
     Tr[ns(  3)] (up, down, total) =   3.82322  0.80441  4.62763
     Atomic magnetic moment for atom   3 =   3.01881
     SPIN  1
     eigenvalues:
       0.483  0.483  0.953  0.953  0.953
     eigenvectors (columns):
       0.439  0.898 -0.000 -0.000 -0.000
      -0.000  0.000  0.321 -0.150  0.935
      -0.000  0.000  0.594 -0.737 -0.322
       0.898 -0.439  0.000  0.000  0.000
       0.000 -0.000 -0.738 -0.659  0.148
     occupation matrix ns (before diag.):
       0.483 -0.000 -0.000 -0.000  0.000
      -0.000  0.953 -0.000  0.000  0.000
      -0.000 -0.000  0.953  0.000  0.000
      -0.000  0.000  0.000  0.483 -0.000
       0.000  0.000  0.000 -0.000  0.953
     SPIN  2
     eigenvalues:
       0.027  0.027  0.027  0.361  0.361
     eigenvectors (columns):
       0.000  0.000 -0.000  0.326 -0.945
      -0.295 -0.291 -0.910  0.000  0.000
      -0.551 -0.727  0.411  0.000 -0.000
       0.000 -0.000  0.000  0.945  0.326
       0.781 -0.622 -0.054 -0.000 -0.000
     occupation matrix ns (before diag.):
       0.361 -0.000  0.000 -0.000 -0.000
      -0.000  0.027 -0.000  0.000  0.000
       0.000 -0.000  0.027  0.000  0.000
      -0.000  0.000  0.000  0.361 -0.000
      -0.000  0.000  0.000 -0.000  0.027

     Number of occupied Hubbard levels =    8.1741

     HUBBARD ENERGY =    0.2397  (Ry)

     total cpu time spent up to now is      169.3 secs

     total energy              =    -582.25199108 Ry
     estimated scf accuracy    <       0.00000524 Ry

     total magnetization       =     6.00 Bohr mag/cell
     absolute magnetization    =     6.27 Bohr mag/cell

     iteration # 18     ecut=   110.00 Ry     beta= 0.30
     Davidson diagonalization with overlap

---- Real-time Memory Report at c_bands before calling an iterative solver
           367 MiB given to the printing process from OS
           225 MiB allocation reported by mallinfo(arena+hblkhd)
        403652 MiB available memory on the node where the printing process lives
------------------
     ethr =  1.78E-09,  avg # of iterations =  3.2

     =================== HUBBARD OCCUPATIONS ===================
     ------------------------ ATOM    2 ------------------------
     Tr[ns(  2)] (up, down, total) =   3.13576  0.41061  3.54637
     Atomic magnetic moment for atom   2 =   2.72514
     SPIN  1
     eigenvalues:
       0.199  0.199  0.913  0.913  0.913
     eigenvectors (columns):
       0.547 -0.837 -0.000 -0.000  0.000
      -0.000 -0.000  0.321 -0.221 -0.921
      -0.000 -0.000  0.602 -0.703  0.379
       0.837  0.547  0.000  0.000 -0.000
       0.000  0.000 -0.731 -0.676 -0.093
     occupation matrix ns (before diag.):
       0.199 -0.000 -0.000 -0.000  0.000
      -0.000  0.913 -0.000  0.000  0.000
      -0.000 -0.000  0.913  0.000  0.000
      -0.000  0.000  0.000  0.199 -0.000
       0.000  0.000  0.000 -0.000  0.913
     SPIN  2
     eigenvalues:
       0.024  0.024  0.024  0.169  0.169
     eigenvectors (columns):
      -0.000 -0.000 -0.000  0.396 -0.918
      -0.323  0.248 -0.913  0.000  0.000
      -0.617  0.677  0.402  0.000  0.000
       0.000  0.000  0.000  0.918  0.396
       0.718  0.693 -0.066 -0.000 -0.000
     occupation matrix ns (before diag.):
       0.169 -0.000  0.000 -0.000  0.000
      -0.000  0.024 -0.000  0.000  0.000
       0.000 -0.000  0.024  0.000  0.000
      -0.000  0.000  0.000  0.169 -0.000
       0.000  0.000  0.000 -0.000  0.024
     ------------------------ ATOM    3 ------------------------
     Tr[ns(  3)] (up, down, total) =   3.82321  0.80438  4.62759
     Atomic magnetic moment for atom   3 =   3.01883
     SPIN  1
     eigenvalues:
       0.483  0.483  0.953  0.953  0.953
     eigenvectors (columns):
       0.448  0.894 -0.000 -0.000 -0.000
      -0.000  0.000  0.322 -0.228  0.919
      -0.000  0.000  0.598 -0.704 -0.384
       0.894 -0.448  0.000  0.000  0.000
       0.000 -0.000 -0.734 -0.673  0.091
     occupation matrix ns (before diag.):
       0.483 -0.000 -0.000 -0.000  0.000
      -0.000  0.953 -0.000  0.000  0.000
      -0.000 -0.000  0.953  0.000  0.000
      -0.000  0.000  0.000  0.483 -0.000
       0.000  0.000  0.000 -0.000  0.953
     SPIN  2
     eigenvalues:
       0.027  0.027  0.027  0.361  0.361
     eigenvectors (columns):
      -0.000  0.000 -0.000  0.386 -0.923
       0.294  0.635 -0.714  0.000  0.000
       0.537 -0.728 -0.426  0.000 -0.000
      -0.000 -0.000 -0.000  0.923  0.386
      -0.791 -0.258 -0.555 -0.000 -0.000
     occupation matrix ns (before diag.):
       0.361 -0.000  0.000 -0.000 -0.000
      -0.000  0.027 -0.000  0.000  0.000
       0.000 -0.000  0.027  0.000  0.000
      -0.000  0.000  0.000  0.361 -0.000
      -0.000  0.000  0.000 -0.000  0.027

     Number of occupied Hubbard levels =    8.1740

     HUBBARD ENERGY =    0.2397  (Ry)

     Magnetic moment per site  (integrated on atomic sphere of radius R)
     atom   1 (R=0.208)  charge=  7.9802  magn=  0.0011
     atom   2 (R=0.115)  charge= 10.1552  magn=  2.0269
     atom   3 (R=0.112)  charge= 11.0713  magn=  2.3832
     atom   4 (R=0.064)  charge=  1.0302  magn= -0.0033
     atom   5 (R=0.064)  charge=  1.0302  magn= -0.0033
     atom   6 (R=0.064)  charge=  1.0302  magn= -0.0033
     atom   7 (R=0.064)  charge=  1.0302  magn= -0.0033
     atom   8 (R=0.064)  charge=  1.0302  magn= -0.0033
     atom   9 (R=0.064)  charge=  1.0302  magn= -0.0033
     atom  10 (R=0.064)  charge=  1.8368  magn=  0.0027
     atom  11 (R=0.064)  charge=  1.8368  magn=  0.0027
     atom  12 (R=0.064)  charge=  1.8368  magn=  0.0027
     atom  13 (R=0.064)  charge=  1.8368  magn=  0.0027
     atom  14 (R=0.064)  charge=  1.8368  magn=  0.0027
     atom  15 (R=0.064)  charge=  1.8368  magn=  0.0027

     total cpu time spent up to now is      177.5 secs

     End of self-consistent calculation

 ------ SPIN UP ------------


          k = 0.0000 0.0000 0.0000 ( 39957 PWs)   bands (ev):

   -71.4896 -61.9340 -42.8699 -42.8699 -42.8699 -35.8287 -35.8287 -35.8287
   -29.1651 -16.2704 -16.0771 -16.0771 -16.0771 -16.0268 -16.0268 -12.6126
   -12.6126 -12.6126  -6.9868  -5.0614  -5.0614  -5.0614  -5.0053  -5.0053
    -4.6609  -3.6017  -3.6017  -3.6017  -2.9713  -2.9713  -2.4178  -2.4178
    -2.4178  -2.0512  -2.0512  -2.0512  -1.8966  -1.8966  -1.8966  -1.5778
    -1.5778  -1.5778  -1.5513  -1.5513  -1.5513   1.7776   1.7776   1.7776
     4.3675   4.3675   5.1740   5.6168   5.6168   5.6168

     occupation numbers 
     1.0000   1.0000   1.0000   1.0000   1.0000   1.0000   1.0000   1.0000
     1.0000   1.0000   1.0000   1.0000   1.0000   1.0000   1.0000   1.0000
     1.0000   1.0000   1.0000   1.0000   1.0000   1.0000   1.0000   1.0000
     1.0000   1.0000   1.0000   1.0000   1.0000   1.0000   1.0000   1.0000
     1.0000   1.0000   1.0000   1.0000   1.0000   1.0000   1.0000   1.0000
     1.0000   1.0000   1.0000   1.0000   1.0000   1.0000   1.0000   1.0000
     0.0000   0.0000   0.0000   0.0000   0.0000   0.0000

          k = 0.1414 0.1414-0.1414 ( 40011 PWs)   bands (ev):

   -71.4896 -61.9340 -42.8699 -42.8699 -42.8699 -35.8287 -35.8287 -35.8287
   -29.1652 -16.2559 -16.0934 -16.0726 -16.0726 -16.0315 -16.0315 -12.6122
   -12.6122 -12.6111  -6.8854  -5.5103  -5.0495  -5.0495  -4.9929  -4.9929
    -4.2326  -3.5713  -3.5399  -3.5399  -2.9955  -2.9955  -2.6086  -2.5390
    -2.5390  -2.2659  -2.2659  -2.0128  -2.0055  -1.8945  -1.8945  -1.5982
    -1.5013  -1.5013  -1.3858  -1.3515  -1.3515   1.7787   1.7820   1.7820
     4.4052   4.4052   5.3523   5.5599   5.6419   5.6419

     occupation numbers 
     1.0000   1.0000   1.0000   1.0000   1.0000   1.0000   1.0000   1.0000
     1.0000   1.0000   1.0000   1.0000   1.0000   1.0000   1.0000   1.0000
     1.0000   1.0000   1.0000   1.0000   1.0000   1.0000   1.0000   1.0000
     1.0000   1.0000   1.0000   1.0000   1.0000   1.0000   1.0000   1.0000
     1.0000   1.0000   1.0000   1.0000   1.0000   1.0000   1.0000   1.0000
     1.0000   1.0000   1.0000   1.0000   1.0000   1.0000   1.0000   1.0000
     0.0000   0.0000   0.0000   0.0000   0.0000   0.0000

          k = 0.2828 0.2828-0.2828 ( 40038 PWs)   bands (ev):

   -71.4896 -61.9340 -42.8699 -42.8699 -42.8699 -35.8287 -35.8286 -35.8286
   -29.1653 -16.2226 -16.1294 -16.0614 -16.0614 -16.0432 -16.0432 -12.6115
   -12.6115 -12.6088  -6.6143  -6.0391  -5.0309  -5.0309  -4.9715  -4.9715
    -3.8104  -3.4555  -3.3950  -3.3950  -3.0036  -3.0036  -2.9701  -2.8279
    -2.8279  -2.4775  -2.4775  -2.1204  -1.9201  -1.8258  -1.8258  -1.7043
    -1.4438  -1.4438  -1.1826  -1.1476  -1.1476   1.7800   1.7892   1.7892
     4.4809   4.4809   5.4116   5.6261   5.6261   5.8199

     occupation numbers 
     1.0000   1.0000   1.0000   1.0000   1.0000   1.0000   1.0000   1.0000
     1.0000   1.0000   1.0000   1.0000   1.0000   1.0000   1.0000   1.0000
     1.0000   1.0000   1.0000   1.0000   1.0000   1.0000   1.0000   1.0000
     1.0000   1.0000   1.0000   1.0000   1.0000   1.0000   1.0000   1.0000
     1.0000   1.0000   1.0000   1.0000   1.0000   1.0000   1.0000   1.0000
     1.0000   1.0000   1.0000   1.0000   1.0000   1.0000   1.0000   1.0000
     0.0000   0.0000   0.0000   0.0000   0.0000   0.0000

          k = 0.2828 0.0000 0.0000 ( 40022 PWs)   bands (ev):

   -71.4896 -61.9340 -42.8699 -42.8699 -42.8699 -35.8287 -35.8287 -35.8286
   -29.1652 -16.2517 -16.0848 -16.0777 -16.0777 -16.0397 -16.0265 -12.6118
   -12.6118 -12.6111  -6.8634  -5.5640  -5.0361  -5.0361  -5.0061  -4.9823
    -4.1816  -3.6107  -3.4969  -3.4969  -3.0489  -2.9698  -2.6622  -2.6006
    -2.6006  -2.2768  -2.2768  -2.0688  -1.9952  -1.9952  -1.7037  -1.5721
    -1.5524  -1.5070  -1.5070  -1.2305  -1.2305   1.7769   1.7990   1.7990
     4.3794   4.4284   5.4130   5.6317   5.6317   5.6446

     occupation numbers 
     1.0000   1.0000   1.0000   1.0000   1.0000   1.0000   1.0000   1.0000
     1.0000   1.0000   1.0000   1.0000   1.0000   1.0000   1.0000   1.0000
     1.0000   1.0000   1.0000   1.0000   1.0000   1.0000   1.0000   1.0000
     1.0000   1.0000   1.0000   1.0000   1.0000   1.0000   1.0000   1.0000
     1.0000   1.0000   1.0000   1.0000   1.0000   1.0000   1.0000   1.0000
     1.0000   1.0000   1.0000   1.0000   1.0000   1.0000   1.0000   1.0000
     0.0000   0.0000   0.0000   0.0000   0.0000   0.0000

          k = 0.4243 0.1414-0.1414 ( 40049 PWs)   bands (ev):

   -71.4896 -61.9340 -42.8699 -42.8699 -42.8699 -35.8287 -35.8287 -35.8286
   -29.1653 -16.2257 -16.1125 -16.0736 -16.0652 -16.0534 -16.0310 -12.6112
   -12.6110 -12.6093  -6.6805  -5.9260  -5.0220  -5.0162  -4.9867  -4.9547
    -3.8555  -3.5700  -3.3718  -3.3656  -3.1042  -2.9854  -2.9750  -2.8284
    -2.7391  -2.4578  -2.4535  -2.1944  -2.0064  -1.9725  -1.6502  -1.5879
    -1.4412  -1.4167  -1.3577  -1.0796  -1.0728   1.7801   1.8271   1.8296
     4.4242   4.4608   5.4853   5.6666   5.6738   5.8785

     occupation numbers 
     1.0000   1.0000   1.0000   1.0000   1.0000   1.0000   1.0000   1.0000
     1.0000   1.0000   1.0000   1.0000   1.0000   1.0000   1.0000   1.0000
     1.0000   1.0000   1.0000   1.0000   1.0000   1.0000   1.0000   1.0000
     1.0000   1.0000   1.0000   1.0000   1.0000   1.0000   1.0000   1.0000
     1.0000   1.0000   1.0000   1.0000   1.0000   1.0000   1.0000   1.0000
     1.0000   1.0000   1.0000   1.0000   1.0000   1.0000   1.0000   1.0000
     0.0000   0.0000   0.0000   0.0000   0.0000   0.0000

          k =-0.1414-0.4243 0.4243 ( 40024 PWs)   bands (ev):

   -71.4896 -61.9340 -42.8699 -42.8699 -42.8699 -35.8287 -35.8286 -35.8286
   -29.1653 -16.2093 -16.1318 -16.0717 -16.0621 -16.0450 -16.0426 -12.6112
   -12.6105 -12.6087  -6.5195  -6.1558  -5.0257  -5.0034  -4.9621  -4.9603
    -3.7087  -3.4512  -3.3358  -3.3031  -3.2460  -3.0000  -2.9657  -2.8793
    -2.8733  -2.5601  -2.5299  -2.3065  -1.9263  -1.8559  -1.7483  -1.6716
    -1.4125  -1.3547  -1.1622  -1.0878  -1.0648   1.7855   1.8250   1.8319
     4.4489   4.4902   5.4668   5.6278   5.7044   5.9637

     occupation numbers 
     1.0000   1.0000   1.0000   1.0000   1.0000   1.0000   1.0000   1.0000
     1.0000   1.0000   1.0000   1.0000   1.0000   1.0000   1.0000   1.0000
     1.0000   1.0000   1.0000   1.0000   1.0000   1.0000   1.0000   1.0000
     1.0000   1.0000   1.0000   1.0000   1.0000   1.0000   1.0000   1.0000
     1.0000   1.0000   1.0000   1.0000   1.0000   1.0000   1.0000   1.0000
     1.0000   1.0000   1.0000   1.0000   1.0000   1.0000   1.0000   1.0000
     0.0000   0.0000   0.0000   0.0000   0.0000   0.0000

          k = 0.0000-0.2828 0.2828 ( 40024 PWs)   bands (ev):

   -71.4896 -61.9340 -42.8699 -42.8699 -42.8699 -35.8287 -35.8287 -35.8286
   -29.1653 -16.2351 -16.1088 -16.0782 -16.0609 -16.0435 -16.0335 -12.6118
   -12.6111 -12.6099  -6.7374  -5.8365  -5.0403  -5.0107  -4.9974  -4.9689
    -3.9428  -3.5427  -3.4678  -3.4109  -3.0322  -3.0256  -2.8798  -2.6778
    -2.6698  -2.4282  -2.4149  -2.1993  -1.9882  -1.8164  -1.8090  -1.6586
    -1.4804  -1.4120  -1.2522  -1.2120  -1.1570   1.7858   1.7960   1.8021
     4.4116   4.4740   5.4703   5.5876   5.7081   5.7500

     occupation numbers 
     1.0000   1.0000   1.0000   1.0000   1.0000   1.0000   1.0000   1.0000
     1.0000   1.0000   1.0000   1.0000   1.0000   1.0000   1.0000   1.0000
     1.0000   1.0000   1.0000   1.0000   1.0000   1.0000   1.0000   1.0000
     1.0000   1.0000   1.0000   1.0000   1.0000   1.0000   1.0000   1.0000
     1.0000   1.0000   1.0000   1.0000   1.0000   1.0000   1.0000   1.0000
     1.0000   1.0000   1.0000   1.0000   1.0000   1.0000   1.0000   1.0000
     0.0000   0.0000   0.0000   0.0000   0.0000   0.0000

          k = 0.5657 0.0000 0.0000 ( 40074 PWs)   bands (ev):

   -71.4896 -61.9339 -42.8699 -42.8699 -42.8699 -35.8287 -35.8287 -35.8287
   -29.1654 -16.2155 -16.0935 -16.0788 -16.0788 -16.0703 -16.0260 -12.6106
   -12.6106 -12.6088  -6.6580  -5.9416  -5.0074  -4.9911  -4.9911  -4.9179
    -3.8026  -3.6308  -3.2675  -3.2675  -3.1978  -3.1344  -2.9673  -2.8743
    -2.8743  -2.5382  -2.5382  -2.0969  -2.0664  -2.0664  -1.5880  -1.5542
    -1.4402  -1.4402  -1.2875  -0.9707  -0.9707   1.7762   1.8973   1.8973
     4.3976   4.4189   5.5525   5.8010   5.8010   5.8740

     occupation numbers 
     1.0000   1.0000   1.0000   1.0000   1.0000   1.0000   1.0000   1.0000
     1.0000   1.0000   1.0000   1.0000   1.0000   1.0000   1.0000   1.0000
     1.0000   1.0000   1.0000   1.0000   1.0000   1.0000   1.0000   1.0000
     1.0000   1.0000   1.0000   1.0000   1.0000   1.0000   1.0000   1.0000
     1.0000   1.0000   1.0000   1.0000   1.0000   1.0000   1.0000   1.0000
     1.0000   1.0000   1.0000   1.0000   1.0000   1.0000   1.0000   1.0000
     0.0000   0.0000   0.0000   0.0000   0.0000   0.0000

          k = 0.0000-0.5657 0.5657 ( 40044 PWs)   bands (ev):

   -71.4896 -61.9339 -42.8699 -42.8699 -42.8699 -35.8287 -35.8287 -35.8287
   -29.1654 -16.2043 -16.1149 -16.0794 -16.0742 -16.0600 -16.0306 -12.6105
   -12.6098 -12.6088  -6.5652  -6.0786  -5.0155  -4.9858  -4.9699  -4.9178
    -3.6670  -3.5803  -3.3368  -3.2649  -3.2427  -3.0642  -2.9863  -2.9046
    -2.8896  -2.6329  -2.5603  -2.2837  -2.0282  -1.9969  -1.6677  -1.5044
    -1.3839  -1.3756  -1.2347  -0.9760  -0.9670   1.7800   1.8956   1.8991
     4.4112   4.4350   5.5464   5.7467   5.8537   5.9462

     occupation numbers 
     1.0000   1.0000   1.0000   1.0000   1.0000   1.0000   1.0000   1.0000
     1.0000   1.0000   1.0000   1.0000   1.0000   1.0000   1.0000   1.0000
     1.0000   1.0000   1.0000   1.0000   1.0000   1.0000   1.0000   1.0000
     1.0000   1.0000   1.0000   1.0000   1.0000   1.0000   1.0000   1.0000
     1.0000   1.0000   1.0000   1.0000   1.0000   1.0000   1.0000   1.0000
     1.0000   1.0000   1.0000   1.0000   1.0000   1.0000   1.0000   1.0000
     0.0000   0.0000   0.0000   0.0000   0.0000   0.0000

          k =-0.1414-0.4243 0.7071 ( 40052 PWs)   bands (ev):

   -71.4896 -61.9340 -42.8699 -42.8699 -42.8699 -35.8287 -35.8287 -35.8286
   -29.1654 -16.2064 -16.1209 -16.0790 -16.0718 -16.0493 -16.0356 -12.6107
   -12.6099 -12.6091  -6.5491  -6.1073  -5.0219  -4.9862  -4.9652  -4.9397
    -3.6749  -3.5407  -3.3491  -3.2814  -3.2363  -3.0586  -2.9630  -2.8999
    -2.8618  -2.5694  -2.5464  -2.3534  -1.9897  -1.9370  -1.7280  -1.5778
    -1.3401  -1.3247  -1.2284  -1.0761  -0.9710   1.7979   1.8287   1.8973
     4.4132   4.4677   5.5253   5.6906   5.8091   5.9400

     occupation numbers 
     1.0000   1.0000   1.0000   1.0000   1.0000   1.0000   1.0000   1.0000
     1.0000   1.0000   1.0000   1.0000   1.0000   1.0000   1.0000   1.0000
     1.0000   1.0000   1.0000   1.0000   1.0000   1.0000   1.0000   1.0000
     1.0000   1.0000   1.0000   1.0000   1.0000   1.0000   1.0000   1.0000
     1.0000   1.0000   1.0000   1.0000   1.0000   1.0000   1.0000   1.0000
     1.0000   1.0000   1.0000   1.0000   1.0000   1.0000   1.0000   1.0000
     0.0000   0.0000   0.0000   0.0000   0.0000   0.0000

 ------ SPIN DOWN ----------


          k = 0.0000 0.0000 0.0000 ( 39957 PWs)   bands (ev):

   -68.5094 -59.4185 -39.8506 -39.8506 -39.8506 -33.3062 -33.3062 -33.3062
   -29.1648 -16.2273 -16.0406 -16.0406 -16.0406 -15.9896 -15.9896 -12.6118
   -12.6118 -12.6118  -6.7497  -4.9542  -4.9542  -4.9542  -4.7796  -4.7796
    -4.3865  -2.9681  -2.9681  -2.9681  -2.4163  -2.4163  -2.3217  -2.3217
    -2.3217  -1.9947  -1.9947  -1.9947  -1.8186  -1.8186  -1.8186  -1.4980
    -1.4980  -1.4980   3.0575   3.0575   3.0575   5.2100   5.7783   5.7783
     5.7783   5.9217   5.9218   6.3862   6.3862   6.3862

     occupation numbers 
     1.0000   1.0000   1.0000   1.0000   1.0000   1.0000   1.0000   1.0000
     1.0000   1.0000   1.0000   1.0000   1.0000   1.0000   1.0000   1.0000
     1.0000   1.0000   1.0000   1.0000   1.0000   1.0000   1.0000   1.0000
     1.0000   1.0000   1.0000   1.0000   1.0000   1.0000   1.0000   1.0000
     1.0000   1.0000   1.0000   1.0000   1.0000   1.0000   1.0000   1.0000
     1.0000   1.0000   0.0000   0.0000   0.0000   0.0000   0.0000   0.0000
     0.0000   0.0000   0.0000   0.0000   0.0000   0.0000

          k = 0.1414 0.1414-0.1414 ( 40011 PWs)   bands (ev):

   -68.5094 -59.4185 -39.8506 -39.8506 -39.8506 -33.3062 -33.3062 -33.3062
   -29.1647 -16.2132 -16.0563 -16.0359 -16.0359 -15.9945 -15.9945 -12.6115
   -12.6115 -12.6106  -6.6501  -5.3350  -4.9378  -4.9378  -4.7716  -4.7716
    -4.0278  -3.0065  -2.9227  -2.9227  -2.5395  -2.5395  -2.3558  -2.2987
    -2.2987  -2.0770  -2.0770  -1.9564  -1.8563  -1.8119  -1.8119  -1.5445
    -1.4310  -1.4310   3.2056   3.2385   3.2385   5.3232   5.4401   5.5596
     5.5596   5.9489   5.9489   6.1972   6.1972   6.7640

     occupation numbers 
     1.0000   1.0000   1.0000   1.0000   1.0000   1.0000   1.0000   1.0000
     1.0000   1.0000   1.0000   1.0000   1.0000   1.0000   1.0000   1.0000
     1.0000   1.0000   1.0000   1.0000   1.0000   1.0000   1.0000   1.0000
     1.0000   1.0000   1.0000   1.0000   1.0000   1.0000   1.0000   1.0000
     1.0000   1.0000   1.0000   1.0000   1.0000   1.0000   1.0000   1.0000
     1.0000   1.0000   0.0000   0.0000   0.0000   0.0000   0.0000   0.0000
     0.0000   0.0000   0.0000   0.0000   0.0000   0.0000

          k = 0.2828 0.2828-0.2828 ( 40038 PWs)   bands (ev):

   -68.5094 -59.4185 -39.8506 -39.8506 -39.8506 -33.3062 -33.3062 -33.3062
   -29.1646 -16.1808 -16.0913 -16.0236 -16.0236 -16.0071 -16.0071 -12.6109
   -12.6109 -12.6085  -6.3817  -5.8411  -4.9108  -4.9108  -4.7576  -4.7576
    -3.5863  -3.1496  -2.8380  -2.8380  -2.6298  -2.6298  -2.4048  -2.3665
    -2.3665  -2.2506  -2.2506  -1.9198  -1.8642  -1.7258  -1.7258  -1.6500
    -1.3718  -1.3718   3.5261   3.6276   3.6276   4.8124   5.0114   5.0114
     5.8660   6.0096   6.0096   6.4464   6.4465   6.9597

     occupation numbers 
     1.0000   1.0000   1.0000   1.0000   1.0000   1.0000   1.0000   1.0000
     1.0000   1.0000   1.0000   1.0000   1.0000   1.0000   1.0000   1.0000
     1.0000   1.0000   1.0000   1.0000   1.0000   1.0000   1.0000   1.0000
     1.0000   1.0000   1.0000   1.0000   1.0000   1.0000   1.0000   1.0000
     1.0000   1.0000   1.0000   1.0000   1.0000   1.0000   1.0000   1.0000
     1.0000   1.0000   0.0000   0.0000   0.0000   0.0000   0.0000   0.0000
     0.0000   0.0000   0.0000   0.0000   0.0000   0.0000

          k = 0.2828 0.0000 0.0000 ( 40022 PWs)   bands (ev):

   -68.5094 -59.4185 -39.8506 -39.8506 -39.8506 -33.3062 -33.3062 -33.3062
   -29.1647 -16.2090 -16.0472 -16.0412 -16.0412 -16.0030 -15.9893 -12.6112
   -12.6112 -12.6106  -6.6281  -5.3743  -4.9295  -4.9295  -4.7833  -4.7804
    -3.9675  -2.9857  -2.9217  -2.9217  -2.6887  -2.4147  -2.3692  -2.3197
    -2.3197  -2.0903  -2.0903  -2.0124  -1.9201  -1.9201  -1.6042  -1.4991
    -1.4361  -1.4361   3.0650   3.3796   3.3796   5.4069   5.4070   5.4529
     5.7183   5.9508   6.0463   6.2048   6.2048   6.6214

     occupation numbers 
     1.0000   1.0000   1.0000   1.0000   1.0000   1.0000   1.0000   1.0000
     1.0000   1.0000   1.0000   1.0000   1.0000   1.0000   1.0000   1.0000
     1.0000   1.0000   1.0000   1.0000   1.0000   1.0000   1.0000   1.0000
     1.0000   1.0000   1.0000   1.0000   1.0000   1.0000   1.0000   1.0000
     1.0000   1.0000   1.0000   1.0000   1.0000   1.0000   1.0000   1.0000
     1.0000   1.0000   0.0000   0.0000   0.0000   0.0000   0.0000   0.0000
     0.0000   0.0000   0.0000   0.0000   0.0000   0.0000

          k = 0.4243 0.1414-0.1414 ( 40049 PWs)   bands (ev):

   -68.5094 -59.4185 -39.8506 -39.8506 -39.8506 -33.3062 -33.3062 -33.3062
   -29.1646 -16.1833 -16.0747 -16.0368 -16.0271 -16.0179 -15.9940 -12.6106
   -12.6105 -12.6090  -6.4466  -5.7196  -4.9046  -4.9000  -4.7782  -4.7722
    -3.6450  -3.0698  -2.8998  -2.8592  -2.7620  -2.5027  -2.4801  -2.3376
    -2.3245  -2.2623  -2.2000  -2.0065  -1.9330  -1.8896  -1.5904  -1.4984
    -1.3568  -1.3523   3.2360   3.6920   3.7156   5.0027   5.1161   5.5503
     5.8269   5.9795   5.9837   6.1605   6.2985   6.7462

     occupation numbers 
     1.0000   1.0000   1.0000   1.0000   1.0000   1.0000   1.0000   1.0000
     1.0000   1.0000   1.0000   1.0000   1.0000   1.0000   1.0000   1.0000
     1.0000   1.0000   1.0000   1.0000   1.0000   1.0000   1.0000   1.0000
     1.0000   1.0000   1.0000   1.0000   1.0000   1.0000   1.0000   1.0000
     1.0000   1.0000   1.0000   1.0000   1.0000   1.0000   1.0000   1.0000
     1.0000   1.0000   0.0000   0.0000   0.0000   0.0000   0.0000   0.0000
     0.0000   0.0000   0.0000   0.0000   0.0000   0.0000

          k =-0.1414-0.4243 0.4243 ( 40024 PWs)   bands (ev):

   -68.5094 -59.4185 -39.8506 -39.8506 -39.8506 -33.3062 -33.3062 -33.3062
   -29.1646 -16.1671 -16.0937 -16.0347 -16.0244 -16.0084 -16.0065 -12.6106
   -12.6100 -12.6085  -6.2837  -5.9504  -4.8997  -4.8781  -4.7865  -4.7553
    -3.4620  -3.1671  -2.9446  -2.8105  -2.6637  -2.6137  -2.4561  -2.4480
    -2.3384  -2.2704  -2.2373  -2.0906  -1.8504  -1.7629  -1.6792  -1.5759
    -1.3435  -1.2849   3.5816   3.6811   3.7497   4.9087   5.0411   5.1467
     5.9717   6.0181   6.0944   6.2923   6.3569   6.7325

     occupation numbers 
     1.0000   1.0000   1.0000   1.0000   1.0000   1.0000   1.0000   1.0000
     1.0000   1.0000   1.0000   1.0000   1.0000   1.0000   1.0000   1.0000
     1.0000   1.0000   1.0000   1.0000   1.0000   1.0000   1.0000   1.0000
     1.0000   1.0000   1.0000   1.0000   1.0000   1.0000   1.0000   1.0000
     1.0000   1.0000   1.0000   1.0000   1.0000   1.0000   1.0000   1.0000
     1.0000   1.0000   0.0000   0.0000   0.0000   0.0000   0.0000   0.0000
     0.0000   0.0000   0.0000   0.0000   0.0000   0.0000

          k = 0.0000-0.2828 0.2828 ( 40024 PWs)   bands (ev):

   -68.5094 -59.4185 -39.8506 -39.8506 -39.8506 -33.3062 -33.3062 -33.3062
   -29.1646 -16.1928 -16.0710 -16.0417 -16.0231 -16.0075 -15.9965 -12.6112
   -12.6105 -12.6095  -6.5038  -5.6393  -4.9200  -4.9045  -4.7880  -4.7556
    -3.7421  -3.0337  -2.9443  -2.8395  -2.6712  -2.5847  -2.3931  -2.3463
    -2.2994  -2.2397  -2.1121  -2.0324  -1.9264  -1.7172  -1.7105  -1.5946
    -1.4097  -1.3358   3.3504   3.4201   3.5902   4.9228   5.3181   5.6021
     5.7052   5.8527   5.9610   6.1289   6.2313   6.8223

     occupation numbers 
     1.0000   1.0000   1.0000   1.0000   1.0000   1.0000   1.0000   1.0000
     1.0000   1.0000   1.0000   1.0000   1.0000   1.0000   1.0000   1.0000
     1.0000   1.0000   1.0000   1.0000   1.0000   1.0000   1.0000   1.0000
     1.0000   1.0000   1.0000   1.0000   1.0000   1.0000   1.0000   1.0000
     1.0000   1.0000   1.0000   1.0000   1.0000   1.0000   1.0000   1.0000
     1.0000   1.0000   0.0000   0.0000   0.0000   0.0000   0.0000   0.0000
     0.0000   0.0000   0.0000   0.0000   0.0000   0.0000

          k = 0.5657 0.0000 0.0000 ( 40074 PWs)   bands (ev):

   -68.5094 -59.4185 -39.8506 -39.8506 -39.8506 -33.3062 -33.3062 -33.3062
   -29.1646 -16.1723 -16.0556 -16.0423 -16.0423 -16.0342 -15.9888 -12.6101
   -12.6101 -12.6085  -6.4224  -5.7159  -4.8873  -4.8873  -4.7986  -4.7817
    -3.5673  -3.1048  -2.9252  -2.8295  -2.8295  -2.6201  -2.4118  -2.3330
    -2.3330  -2.2796  -2.2796  -2.0410  -1.9965  -1.9965  -1.5009  -1.3799
    -1.3799  -1.2359   3.0774   3.9104   3.9104   5.3294   5.3294   5.6819
     5.9638   5.9943   6.1470   6.1624   6.1625   6.5149

     occupation numbers 
     1.0000   1.0000   1.0000   1.0000   1.0000   1.0000   1.0000   1.0000
     1.0000   1.0000   1.0000   1.0000   1.0000   1.0000   1.0000   1.0000
     1.0000   1.0000   1.0000   1.0000   1.0000   1.0000   1.0000   1.0000
     1.0000   1.0000   1.0000   1.0000   1.0000   1.0000   1.0000   1.0000
     1.0000   1.0000   1.0000   1.0000   1.0000   1.0000   1.0000   1.0000
     1.0000   1.0000   0.0000   0.0000   0.0000   0.0000   0.0000   0.0000
     0.0000   0.0000   0.0000   0.0000   0.0000   0.0000

          k = 0.0000-0.5657 0.5657 ( 40044 PWs)   bands (ev):

   -68.5094 -59.4185 -39.8506 -39.8506 -39.8506 -33.3062 -33.3062 -33.3062
   -29.1645 -16.1610 -16.0777 -16.0429 -16.0374 -16.0233 -15.9936 -12.6101
   -12.6095 -12.6085  -6.3296  -5.8568  -4.8847  -4.8514  -4.8175  -4.7707
    -3.4425  -3.1623  -2.9913  -2.8098  -2.7696  -2.6011  -2.4636  -2.4347
    -2.3271  -2.2949  -2.2938  -2.0670  -1.9377  -1.9175  -1.6085  -1.4274
    -1.3246  -1.1918   3.2439   3.8935   3.9330   5.2465   5.3945   5.5452
     5.9310   5.9968   6.0819   6.1251   6.1776   6.3990

     occupation numbers 
     1.0000   1.0000   1.0000   1.0000   1.0000   1.0000   1.0000   1.0000
     1.0000   1.0000   1.0000   1.0000   1.0000   1.0000   1.0000   1.0000
     1.0000   1.0000   1.0000   1.0000   1.0000   1.0000   1.0000   1.0000
     1.0000   1.0000   1.0000   1.0000   1.0000   1.0000   1.0000   1.0000
     1.0000   1.0000   1.0000   1.0000   1.0000   1.0000   1.0000   1.0000
     1.0000   1.0000   0.0000   0.0000   0.0000   0.0000   0.0000   0.0000
     0.0000   0.0000   0.0000   0.0000   0.0000   0.0000

          k =-0.1414-0.4243 0.7071 ( 40052 PWs)   bands (ev):

   -68.5094 -59.4185 -39.8506 -39.8506 -39.8506 -33.3062 -33.3062 -33.3062
   -29.1645 -16.1636 -16.0832 -16.0425 -16.0348 -16.0126 -15.9988 -12.6102
   -12.6095 -12.6088  -6.3137  -5.8921  -4.8827  -4.8618  -4.8137  -4.7631
    -3.4581  -3.1278  -2.9909  -2.8644  -2.6882  -2.5541  -2.5267  -2.4535
    -2.3054  -2.2900  -2.2690  -2.0797  -1.8869  -1.8560  -1.6596  -1.5025
    -1.2695  -1.2585   3.3911   3.7098   3.9132   5.0619   5.3013   5.4882
     5.9265   5.9706   6.0428   6.1676   6.2564   6.4802

     occupation numbers 
     1.0000   1.0000   1.0000   1.0000   1.0000   1.0000   1.0000   1.0000
     1.0000   1.0000   1.0000   1.0000   1.0000   1.0000   1.0000   1.0000
     1.0000   1.0000   1.0000   1.0000   1.0000   1.0000   1.0000   1.0000
     1.0000   1.0000   1.0000   1.0000   1.0000   1.0000   1.0000   1.0000
     1.0000   1.0000   1.0000   1.0000   1.0000   1.0000   1.0000   1.0000
     1.0000   1.0000   0.0000   0.0000   0.0000   0.0000   0.0000   0.0000
     0.0000   0.0000   0.0000   0.0000   0.0000   0.0000

     the Fermi energy is     2.6519 ev

!    total energy              =    -582.25199040 Ry
     estimated scf accuracy    <       0.00000109 Ry
     smearing contrib. (-TS)   =      -0.00000000 Ry
     internal energy E=F+TS    =    -582.25199040 Ry

     The total energy is F=E-TS. E is the sum of the following terms:
     one-electron contribution =    -512.69143084 Ry
     hartree contribution      =     277.20025930 Ry
     xc contribution           =    -123.28804723 Ry
     ewald contribution        =    -223.71242289 Ry
     Hubbard energy            =       0.23965126 Ry

     total magnetization       =     6.00 Bohr mag/cell
     absolute magnetization    =     6.27 Bohr mag/cell

     convergence has been achieved in  18 iterations

     Writing all to output data dir /tmp/scratch/KVCr_U2_4_FM/KVCr_U2_4_FM.save/ :
     XML data file, charge density, pseudopotentials, collected wavefunctions

     init_run     :      4.64s CPU      5.25s WALL (       1 calls)
     electrons    :    153.14s CPU    172.18s WALL (       1 calls)

     Called by init_run:
     wfcinit      :      2.50s CPU      2.92s WALL (       1 calls)
     wfcinit:atom :      0.06s CPU      0.06s WALL (       3 calls)
     wfcinit:wfcr :      1.95s CPU      2.34s WALL (       3 calls)
     potinit      :      0.95s CPU      1.06s WALL (       1 calls)
     hinit0       :      0.88s CPU      0.91s WALL (       1 calls)

     Called by electrons:
     c_bands      :    111.07s CPU    123.64s WALL (      18 calls)
     sum_band     :     20.64s CPU     24.30s WALL (      18 calls)
     v_of_rho     :      5.99s CPU      6.89s WALL (      19 calls)
     v_h          :      0.15s CPU      0.25s WALL (      19 calls)
     v_xc         :      5.83s CPU      6.64s WALL (      19 calls)
     mix_rho      :     10.61s CPU     12.39s WALL (      18 calls)

     Called by c_bands:
     init_us_2    :      1.23s CPU      1.35s WALL (     114 calls)
     cegterg      :     94.04s CPU    106.01s WALL (      54 calls)

     Called by sum_band:
     sum_band:wei :      0.01s CPU      0.02s WALL (      18 calls)
     sum_band:loo :     17.61s CPU     20.37s WALL (      18 calls)
     sum_band:buf :      0.17s CPU      0.24s WALL (      54 calls)
     sum_band:ini :      0.63s CPU      0.65s WALL (      54 calls)

     Called by *egterg:
     cdiaghg      :      1.01s CPU      1.07s WALL (     324 calls)
     cegterg:over :      4.45s CPU      4.74s WALL (     270 calls)
     cegterg:upda :      2.46s CPU      2.52s WALL (     270 calls)
     cegterg:last :      3.42s CPU      3.54s WALL (     119 calls)
     h_psi        :     81.48s CPU     93.49s WALL (     327 calls)
     g_psi        :      0.31s CPU      0.33s WALL (     270 calls)

     Called by h_psi:
     h_psi:calbec :      5.34s CPU      5.52s WALL (     327 calls)
     vloc_psi     :     69.40s CPU     81.11s WALL (     327 calls)
                                        0.00s GPU  (     327 calls)
     add_vuspsi   :      4.35s CPU      4.41s WALL (     327 calls)
     vhpsi        :      1.99s CPU      2.06s WALL (     327 calls)

     General routines
     calbec       :      7.24s CPU      7.41s WALL (     711 calls)
     fft          :      3.43s CPU      4.43s WALL (     359 calls)
     ffts         :      5.83s CPU      7.64s WALL (    1209 calls)
     fftw         :     74.38s CPU     89.02s WALL (   18680 calls)

     Parallel routines

     Hubbard U routines
     new_ns       :      0.58s CPU      0.57s WALL (      18 calls)
     vhpsi        :      1.99s CPU      2.06s WALL (     327 calls)

     PWSCF        :   2m38.33s CPU   2m58.21s WALL


   This run was terminated on:  11:33:14   3Oct2026            

=------------------------------------------------------------------------------=
   JOB DONE.
=------------------------------------------------------------------------------=
