
     Program PWSCF v.7.5 starts on  3Oct2026 at 11:48: 0 

     This program is part of the open-source Quantum ESPRESSO suite
     for quantum simulation of materials; please cite
         "P. Giannozzi et al., J. Phys.:Condens. Matter 21 395502 (2009);
         "P. Giannozzi et al., J. Phys.:Condens. Matter 29 465901 (2017);
         "P. Giannozzi et al., J. Chem. Phys. 152 154105 (2020);
          URL http://www.quantum-espresso.org", 
     in publications or presentations arising from this work. More details at
     http://www.quantum-espresso.org/quote

     Parallel version (MPI & OpenMP), running on      32 processor cores
     Number of MPI processes:                32
     Threads/MPI process:                     1

     MPI processes distributed on     1 nodes
     409208 MiB available memory on the printing compute node when the environment starts

     Reading input from KVCr_U4_2_LCM_nscf.in

     Current dimensions of program PWSCF are:
     Max number of different atomic species (ntypx) = 10
     Max number of k-points (npk) =  40000
     Max angular momentum in pseudopotentials (lmaxx) =  4

     Atomic positions and unit cell read from directory:
     /tmp/scratch/KVCr_U4_2_LCM/KVCr_U4_2_LCM.save/

     Message from routine setup:
     using ibrav=0 with symmetry is DISCOURAGED, use correct ibrav instead

     K-points division:     npool     =      16
     R & G space division:  proc/nbgrp/npool/nimage =       2
     Subspace diagonalization in iterative solution of the eigenvalue problem:
     a serial algorithm will be used


     Parallelization info
     --------------------
     sticks:   dense  smooth     PW     G-vecs:    dense   smooth      PW
     Min        3090    3090    831               160420   160420   22367
     Max        3091    3091    832               160423   160423   22368
     Sum        6181    6181   1663               320843   320843   44735

     Using Slab Decomposition



     bravais-lattice index     =            0
     lattice parameter (alat)  =      14.2709  a.u.
     unit-cell volume          =    2055.1352 (a.u.)^3
     number of atoms/cell      =           15
     number of atomic types    =            5
     number of electrons       =        90.00
     number of Kohn-Sham states=           54
     kinetic-energy cutoff     =     110.0000  Ry
     charge density cutoff     =     440.0000  Ry
     Exchange-correlation= PBE
                           (   1   4   3   4   0   0   0)
     Hubbard projectors: ortho-atomic
     Hubbard parameters of DFT+U (Dudarev formulation) in eV:
     U(V-3d) =  4.0000
     U(Cr-3d) =  2.0000

     Internal variables: lda_plus_u =T, lda_plus_u_kind = 0

     Internal variables: orbital_resolved =F, hub_pot_fix =F, apply_U = F

     celldm(1)=  14.270914  celldm(2)=   0.000000  celldm(3)=   0.000000
     celldm(4)=   0.000000  celldm(5)=   0.000000  celldm(6)=   0.000000

     crystal axes: (cart. coord. in units of alat)
               a(1) = (   0.000000   0.707107   0.707107 )  
               a(2) = (   0.707107   0.000000   0.707107 )  
               a(3) = (   0.707107   0.707107   0.000000 )  

     reciprocal axes: (cart. coord. in units 2 pi/alat)
               b(1) = ( -0.707107  0.707107  0.707107 )  
               b(2) = (  0.707107 -0.707107  0.707107 )  
               b(3) = (  0.707107  0.707107 -0.707107 )  


     PseudoPot. # 1 for K  read from file:
     /data/pseudo/dojo_sr/K.upf
     MD5 check sum: 0aa97b2c023445f040759afc9fdb6c80
     Pseudo is Norm-conserving + core correction, Zval =  9.0
     Generated using ONCVPSP code by D. R. Hamann
     Using radial grid of 2222 points,  6 beta functions with: 
                l(1) =   0
                l(2) =   0
                l(3) =   1
                l(4) =   1
                l(5) =   2
                l(6) =   2

     PseudoPot. # 2 for V  read from file:
     /data/pseudo/dojo_sr/V.upf
     MD5 check sum: 40fb93c06b4f9d8c28c5ccd071294a04
     Pseudo is Norm-conserving + core correction, Zval = 13.0
     Generated using ONCVPSP code by D. R. Hamann
     Using radial grid of 1536 points,  6 beta functions with: 
                l(1) =   0
                l(2) =   0
                l(3) =   1
                l(4) =   1
                l(5) =   2
                l(6) =   2

     PseudoPot. # 3 for Cr read from file:
     /data/pseudo/dojo_sr/Cr.upf
     MD5 check sum: 41892f80c335c8b1e803fd21ab4016b0
     Pseudo is Norm-conserving + core correction, Zval = 14.0
     Generated using ONCVPSP code by D. R. Hamann
     Using radial grid of 1638 points,  6 beta functions with: 
                l(1) =   0
                l(2) =   0
                l(3) =   1
                l(4) =   1
                l(5) =   2
                l(6) =   2

     PseudoPot. # 4 for C  read from file:
     /data/pseudo/dojo_sr/C.upf
     MD5 check sum: 34a24e64c0a39f27c6c36b90a16ac686
     Pseudo is Norm-conserving + core correction, Zval =  4.0
     Generated using ONCVPSP code by D. R. Hamann
     Using radial grid of 1248 points,  4 beta functions with: 
                l(1) =   0
                l(2) =   0
                l(3) =   1
                l(4) =   1

     PseudoPot. # 5 for N  read from file:
     /data/pseudo/dojo_sr/N.upf
     MD5 check sum: d34365f73bb0e2ee98afc20ec3e87676
     Pseudo is Norm-conserving + core correction, Zval =  5.0
     Generated using ONCVPSP code by D. R. Hamann
     Using radial grid of 1058 points,  4 beta functions with: 
                l(1) =   0
                l(2) =   0
                l(3) =   1
                l(4) =   1

     atomic species   valence    mass     pseudopotential
     K                 9.00    39.09830     K ( 1.00)
     V                13.00    50.94150     V ( 1.00)
     Cr               14.00    51.99610     Cr( 1.00)
     C                 4.00    12.01100     C ( 1.00)
     N                 5.00    14.00700     N ( 1.00)

     Starting magnetic structure 
     atomic species   magnetization
     K               0.000
     V              -0.231
     Cr              0.214
     C               0.000
     N               0.000

     24 Sym. Ops. (no inversion) found


                                    s                        frac. trans.

      isym =  1     identity                                     

 cryst.   s( 1) = (     1          0          0      )
                  (     0          1          0      )
                  (     0          0          1      )

 cart.    s( 1) = (  1.0000000  0.0000000  0.0000000 )
                  (  0.0000000  1.0000000  0.0000000 )
                  (  0.0000000  0.0000000  1.0000000 )


      isym =  2     180 deg rotation - cart. axis [0,0,1]        

 cryst.   s( 2) = (     0          1         -1      )
                  (     1          0         -1      )
                  (     0          0         -1      )

 cart.    s( 2) = ( -1.0000000  0.0000000  0.0000000 )
                  (  0.0000000 -1.0000000  0.0000000 )
                  (  0.0000000  0.0000000  1.0000000 )


      isym =  3     180 deg rotation - cart. axis [0,1,0]        

 cryst.   s( 3) = (     0         -1          1      )
                  (     0         -1          0      )
                  (     1         -1          0      )

 cart.    s( 3) = ( -1.0000000  0.0000000  0.0000000 )
                  (  0.0000000  1.0000000  0.0000000 )
                  (  0.0000000  0.0000000 -1.0000000 )


      isym =  4     180 deg rotation - cart. axis [1,0,0]        

 cryst.   s( 4) = (    -1          0          0      )
                  (    -1          0          1      )
                  (    -1          1          0      )

 cart.    s( 4) = (  1.0000000  0.0000000  0.0000000 )
                  (  0.0000000 -1.0000000  0.0000000 )
                  (  0.0000000  0.0000000 -1.0000000 )


      isym =  5     120 deg rotation - cart. axis [-1,-1,-1]     

 cryst.   s( 5) = (     0          0          1      )
                  (     1          0          0      )
                  (     0          1          0      )

 cart.    s( 5) = (  0.0000000  1.0000000  0.0000000 )
                  (  0.0000000  0.0000000  1.0000000 )
                  (  1.0000000  0.0000000  0.0000000 )


      isym =  6     120 deg rotation - cart. axis [-1,1,1]       

 cryst.   s( 6) = (     1         -1          0      )
                  (     0         -1          1      )
                  (     0         -1          0      )

 cart.    s( 6) = (  0.0000000 -1.0000000  0.0000000 )
                  (  0.0000000  0.0000000  1.0000000 )
                  ( -1.0000000  0.0000000  0.0000000 )


      isym =  7     120 deg rotation - cart. axis [1,1,-1]       

 cryst.   s( 7) = (    -1          1          0      )
                  (    -1          0          0      )
                  (    -1          0          1      )

 cart.    s( 7) = (  0.0000000  1.0000000  0.0000000 )
                  (  0.0000000  0.0000000 -1.0000000 )
                  ( -1.0000000  0.0000000  0.0000000 )


      isym =  8     120 deg rotation - cart. axis [1,-1,1]       

 cryst.   s( 8) = (     0          0         -1      )
                  (     0          1         -1      )
                  (     1          0         -1      )

 cart.    s( 8) = (  0.0000000 -1.0000000  0.0000000 )
                  (  0.0000000  0.0000000 -1.0000000 )
                  (  1.0000000  0.0000000  0.0000000 )


      isym =  9     120 deg rotation - cart. axis [1,1,1]        

 cryst.   s( 9) = (     0          1          0      )
                  (     0          0          1      )
                  (     1          0          0      )

 cart.    s( 9) = (  0.0000000  0.0000000  1.0000000 )
                  (  1.0000000  0.0000000  0.0000000 )
                  (  0.0000000  1.0000000  0.0000000 )


      isym = 10     120 deg rotation - cart. axis [-1,1,-1]      

 cryst.   s(10) = (    -1          0          1      )
                  (    -1          1          0      )
                  (    -1          0          0      )

 cart.    s(10) = (  0.0000000  0.0000000  1.0000000 )
                  ( -1.0000000  0.0000000  0.0000000 )
                  (  0.0000000 -1.0000000  0.0000000 )


      isym = 11     120 deg rotation - cart. axis [1,-1,-1]      

 cryst.   s(11) = (     1          0         -1      )
                  (     0          0         -1      )
                  (     0          1         -1      )

 cart.    s(11) = (  0.0000000  0.0000000 -1.0000000 )
                  ( -1.0000000  0.0000000  0.0000000 )
                  (  0.0000000  1.0000000  0.0000000 )


      isym = 12     120 deg rotation - cart. axis [-1,-1,1]      

 cryst.   s(12) = (     0         -1          0      )
                  (     1         -1          0      )
                  (     0         -1          1      )

 cart.    s(12) = (  0.0000000  0.0000000 -1.0000000 )
                  (  1.0000000  0.0000000  0.0000000 )
                  (  0.0000000 -1.0000000  0.0000000 )


      isym = 13     inv. 180 deg rotation - cart. axis [1,1,0]   

 cryst.   s(13) = (     1          0         -1      )
                  (     0          1         -1      )
                  (     0          0         -1      )

 cart.    s(13) = (  0.0000000 -1.0000000  0.0000000 )
                  ( -1.0000000  0.0000000  0.0000000 )
                  (  0.0000000  0.0000000  1.0000000 )


      isym = 14     inv. 180 deg rotation - cart. axis [1,-1,0]  

 cryst.   s(14) = (     0          1          0      )
                  (     1          0          0      )
                  (     0          0          1      )

 cart.    s(14) = (  0.0000000  1.0000000  0.0000000 )
                  (  1.0000000  0.0000000  0.0000000 )
                  (  0.0000000  0.0000000  1.0000000 )


      isym = 15     inv.  90 deg rotation - cart. axis [0,0,-1]  

 cryst.   s(15) = (     0         -1          0      )
                  (     0         -1          1      )
                  (     1         -1          0      )

 cart.    s(15) = (  0.0000000 -1.0000000  0.0000000 )
                  (  1.0000000  0.0000000  0.0000000 )
                  (  0.0000000  0.0000000 -1.0000000 )


      isym = 16     inv.  90 deg rotation - cart. axis [0,0,1]   

 cryst.   s(16) = (    -1          0          1      )
                  (    -1          0          0      )
                  (    -1          1          0      )

 cart.    s(16) = (  0.0000000  1.0000000  0.0000000 )
                  ( -1.0000000  0.0000000  0.0000000 )
                  (  0.0000000  0.0000000 -1.0000000 )


      isym = 17     inv. 180 deg rotation - cart. axis [1,0,1]   

 cryst.   s(17) = (     1         -1          0      )
                  (     0         -1          0      )
                  (     0         -1          1      )

 cart.    s(17) = (  0.0000000  0.0000000 -1.0000000 )
                  (  0.0000000  1.0000000  0.0000000 )
                  ( -1.0000000  0.0000000  0.0000000 )


      isym = 18     inv. 180 deg rotation - cart. axis [-1,0,1]  

 cryst.   s(18) = (     0          0          1      )
                  (     0          1          0      )
                  (     1          0          0      )

 cart.    s(18) = (  0.0000000  0.0000000  1.0000000 )
                  (  0.0000000  1.0000000  0.0000000 )
                  (  1.0000000  0.0000000  0.0000000 )


      isym = 19     inv.  90 deg rotation - cart. axis [0,1,0]   

 cryst.   s(19) = (     0          0         -1      )
                  (     1          0         -1      )
                  (     0          1         -1      )

 cart.    s(19) = (  0.0000000  0.0000000 -1.0000000 )
                  (  0.0000000 -1.0000000  0.0000000 )
                  (  1.0000000  0.0000000  0.0000000 )


      isym = 20     inv.  90 deg rotation - cart. axis [0,-1,0]  

 cryst.   s(20) = (    -1          1          0      )
                  (    -1          0          1      )
                  (    -1          0          0      )

 cart.    s(20) = (  0.0000000  0.0000000  1.0000000 )
                  (  0.0000000 -1.0000000  0.0000000 )
                  ( -1.0000000  0.0000000  0.0000000 )


      isym = 21     inv. 180 deg rotation - cart. axis [0,1,1]   

 cryst.   s(21) = (    -1          0          0      )
                  (    -1          1          0      )
                  (    -1          0          1      )

 cart.    s(21) = (  1.0000000  0.0000000  0.0000000 )
                  (  0.0000000  0.0000000 -1.0000000 )
                  (  0.0000000 -1.0000000  0.0000000 )


      isym = 22     inv. 180 deg rotation - cart. axis [0,1,-1]  

 cryst.   s(22) = (     1          0          0      )
                  (     0          0          1      )
                  (     0          1          0      )

 cart.    s(22) = (  1.0000000  0.0000000  0.0000000 )
                  (  0.0000000  0.0000000  1.0000000 )
                  (  0.0000000  1.0000000  0.0000000 )


      isym = 23     inv.  90 deg rotation - cart. axis [-1,0,0]  

 cryst.   s(23) = (     0          1         -1      )
                  (     0          0         -1      )
                  (     1          0         -1      )

 cart.    s(23) = ( -1.0000000  0.0000000  0.0000000 )
                  (  0.0000000  0.0000000 -1.0000000 )
                  (  0.0000000  1.0000000  0.0000000 )


      isym = 24     inv.  90 deg rotation - cart. axis [1,0,0]   

 cryst.   s(24) = (     0         -1          1      )
                  (     1         -1          0      )
                  (     0         -1          0      )

 cart.    s(24) = ( -1.0000000  0.0000000  0.0000000 )
                  (  0.0000000  0.0000000  1.0000000 )
                  (  0.0000000 -1.0000000  0.0000000 )


   Cartesian axes

     site n.     atom                  positions (alat units)
         1        K      tau(   1) = (   0.3535534   0.3535534   0.3535534  )
         2        V      tau(   2) = (   0.0000000   0.0000000   0.0000000  )
         3        Cr     tau(   3) = (   0.7071068   0.7071068   0.7071068  )
         4        C      tau(   4) = (   0.4343911   0.7071068   0.7071068  )
         5        C      tau(   5) = (   0.9798225   0.7071068   0.7071068  )
         6        C      tau(   6) = (   0.7071068   0.4343911   0.7071068  )
         7        C      tau(   7) = (   0.7071068   0.9798225   0.7071068  )
         8        C      tau(   8) = (   0.7071068   0.7071068   0.4343911  )
         9        C      tau(   9) = (   0.7071068   0.7071068   0.9798225  )
        10        N      tau(  10) = (   0.2796732   0.7071068   0.7071068  )
        11        N      tau(  11) = (   1.1345404   0.7071068   0.7071068  )
        12        N      tau(  12) = (   0.7071068   0.2796732   0.7071068  )
        13        N      tau(  13) = (   0.7071068   1.1345404   0.7071068  )
        14        N      tau(  14) = (   0.7071068   0.7071068   0.2796732  )
        15        N      tau(  15) = (   0.7071068   0.7071068   1.1345404  )

   Crystallographic axes

     site n.     atom                  positions (cryst. coord.)
         1        K      tau(   1) = (  0.2500000  0.2500000  0.2500000  )
         2        V      tau(   2) = (  0.0000000  0.0000000  0.0000000  )
         3        Cr     tau(   3) = (  0.5000000  0.5000000  0.5000000  )
         4        C      tau(   4) = (  0.6928391  0.3071609  0.3071609  )
         5        C      tau(   5) = (  0.3071609  0.6928391  0.6928391  )
         6        C      tau(   6) = (  0.3071609  0.6928391  0.3071609  )
         7        C      tau(   7) = (  0.6928391  0.3071609  0.6928391  )
         8        C      tau(   8) = (  0.3071609  0.3071609  0.6928391  )
         9        C      tau(   9) = (  0.6928391  0.6928391  0.3071609  )
        10        N      tau(  10) = (  0.8022412  0.1977588  0.1977588  )
        11        N      tau(  11) = (  0.1977588  0.8022412  0.8022412  )
        12        N      tau(  12) = (  0.1977588  0.8022412  0.1977588  )
        13        N      tau(  13) = (  0.8022412  0.1977588  0.8022412  )
        14        N      tau(  14) = (  0.1977588  0.1977588  0.8022412  )
        15        N      tau(  15) = (  0.8022412  0.8022412  0.1977588  )

     number of k points=    29  Gaussian smearing, width (Ry)=  0.0050
                       cart. coord. in units 2pi/alat
        k(    1) = (   0.0000000   0.0000000   0.0000000), wk =   0.0019531
        k(    2) = (   0.0883883   0.0883883  -0.0883883), wk =   0.0156250
        k(    3) = (   0.1767767   0.1767767  -0.1767767), wk =   0.0156250
        k(    4) = (   0.2651650   0.2651650  -0.2651650), wk =   0.0156250
        k(    5) = (  -0.3535534  -0.3535534   0.3535534), wk =   0.0078125
        k(    6) = (   0.1767767   0.0000000   0.0000000), wk =   0.0117188
        k(    7) = (   0.2651650   0.0883883  -0.0883883), wk =   0.0468750
        k(    8) = (   0.3535534   0.1767767  -0.1767767), wk =   0.0468750
        k(    9) = (  -0.2651650  -0.4419417   0.4419417), wk =   0.0468750
        k(   10) = (  -0.1767767  -0.3535534   0.3535534), wk =   0.0468750
        k(   11) = (  -0.0883883  -0.2651650   0.2651650), wk =   0.0468750
        k(   12) = (   0.0000000  -0.1767767   0.1767767), wk =   0.0234375
        k(   13) = (   0.3535534   0.0000000   0.0000000), wk =   0.0117188
        k(   14) = (   0.4419417   0.0883883  -0.0883883), wk =   0.0468750
        k(   15) = (  -0.1767767  -0.5303301   0.5303301), wk =   0.0468750
        k(   16) = (  -0.0883883  -0.4419417   0.4419417), wk =   0.0468750
        k(   17) = (   0.0000000  -0.3535534   0.3535534), wk =   0.0234375
        k(   18) = (   0.5303301   0.0000000   0.0000000), wk =   0.0117188
        k(   19) = (  -0.0883883  -0.6187184   0.6187184), wk =   0.0468750
        k(   20) = (   0.0000000  -0.5303301   0.5303301), wk =   0.0234375
        k(   21) = (  -0.7071068   0.0000000   0.0000000), wk =   0.0058594
        k(   22) = (   0.3535534   0.1767767   0.0000000), wk =   0.0468750
        k(   23) = (  -0.2651650  -0.4419417   0.6187184), wk =   0.0937500
        k(   24) = (  -0.1767767  -0.3535534   0.5303301), wk =   0.0468750
        k(   25) = (  -0.1767767  -0.5303301   0.7071068), wk =   0.0468750
        k(   26) = (  -0.0883883  -0.4419417   0.6187184), wk =   0.0937500
        k(   27) = (  -0.0000000  -0.3535534   0.5303301), wk =   0.0468750
        k(   28) = (  -0.7071068   0.1767767   0.0000000), wk =   0.0234375
        k(   29) = (  -0.7071068   0.3535534   0.0000000), wk =   0.0117188

                       cryst. coord.
        k(    1) = (   0.0000000   0.0000000   0.0000000), wk =   0.0019531
        k(    2) = (   0.0000000   0.0000000   0.1250000), wk =   0.0156250
        k(    3) = (   0.0000000   0.0000000   0.2500000), wk =   0.0156250
        k(    4) = (   0.0000000   0.0000000   0.3750000), wk =   0.0156250
        k(    5) = (   0.0000000   0.0000000  -0.5000000), wk =   0.0078125
        k(    6) = (   0.0000000   0.1250000   0.1250000), wk =   0.0117188
        k(    7) = (   0.0000000   0.1250000   0.2500000), wk =   0.0468750
        k(    8) = (   0.0000000   0.1250000   0.3750000), wk =   0.0468750
        k(    9) = (   0.0000000   0.1250000  -0.5000000), wk =   0.0468750
        k(   10) = (   0.0000000   0.1250000  -0.3750000), wk =   0.0468750
        k(   11) = (   0.0000000   0.1250000  -0.2500000), wk =   0.0468750
        k(   12) = (   0.0000000   0.1250000  -0.1250000), wk =   0.0234375
        k(   13) = (   0.0000000   0.2500000   0.2500000), wk =   0.0117188
        k(   14) = (   0.0000000   0.2500000   0.3750000), wk =   0.0468750
        k(   15) = (   0.0000000   0.2500000  -0.5000000), wk =   0.0468750
        k(   16) = (   0.0000000   0.2500000  -0.3750000), wk =   0.0468750
        k(   17) = (   0.0000000   0.2500000  -0.2500000), wk =   0.0234375
        k(   18) = (   0.0000000   0.3750000   0.3750000), wk =   0.0117188
        k(   19) = (   0.0000000   0.3750000  -0.5000000), wk =   0.0468750
        k(   20) = (   0.0000000   0.3750000  -0.3750000), wk =   0.0234375
        k(   21) = (   0.0000000  -0.5000000  -0.5000000), wk =   0.0058594
        k(   22) = (   0.1250000   0.2500000   0.3750000), wk =   0.0468750
        k(   23) = (   0.1250000   0.2500000  -0.5000000), wk =   0.0937500
        k(   24) = (   0.1250000   0.2500000  -0.3750000), wk =   0.0468750
        k(   25) = (   0.1250000   0.3750000  -0.5000000), wk =   0.0468750
        k(   26) = (   0.1250000   0.3750000  -0.3750000), wk =   0.0937500
        k(   27) = (   0.1250000   0.3750000  -0.2500000), wk =   0.0468750
        k(   28) = (   0.1250000  -0.5000000  -0.3750000), wk =   0.0234375
        k(   29) = (   0.2500000  -0.5000000  -0.2500000), wk =   0.0117188

     Dense  grid:   320843 G-vectors     FFT dimensions: (  96,  96,  96)

     Dynamical RAM for                 wfc:      16.50 MB

     Dynamical RAM for     wfc (w. buffer):      82.48 MB

     Dynamical RAM for             U proj.:       3.05 MB

     Dynamical RAM for  U proj. (w. buff.):      15.27 MB

     Dynamical RAM for           str. fact:      12.24 MB

     Dynamical RAM for           local pot:       0.00 MB

     Dynamical RAM for          nlocal pot:      45.82 MB

     Dynamical RAM for                qrad:       8.42 MB

     Dynamical RAM for          rho,v,vnew:      34.94 MB

     Dynamical RAM for           G-vectors:      10.40 MB

     Dynamical RAM for          h,s,v(r/c):       0.53 MB

     Dynamical RAM for          <psi|beta>:       0.12 MB

     Dynamical RAM for                 psi:      32.99 MB

     Dynamical RAM for                hpsi:      32.99 MB

     Dynamical RAM for      wfcinit/wfcrot:      33.06 MB

     Estimated static dynamical RAM per process >     244.50 MB

     Estimated max dynamical RAM per process >     311.14 MB

     Estimated total dynamical RAM >       9.72 GB
     Generating pointlists ...
     new r_m :   0.2085 (alat units)  2.9753 (a.u.) for type    1
     new r_m :   0.1154 (alat units)  1.6464 (a.u.) for type    2
     new r_m :   0.1125 (alat units)  1.6054 (a.u.) for type    3
     new r_m :   0.0638 (alat units)  0.9108 (a.u.) for type    4
     new r_m :   0.0638 (alat units)  0.9108 (a.u.) for type    5

     The potential is recalculated from file :
     /tmp/scratch/KVCr_U4_2_LCM/KVCr_U4_2_LCM.save/charge-density


     HUBBARD ENERGY =    0.2232  (Ry)

     STARTING HUBBARD OCCUPATIONS:

     =================== HUBBARD OCCUPATIONS ===================
     ------------------------ ATOM    2 ------------------------
     Tr[ns(  2)] (up, down, total) =   0.37464  3.11928  3.49393
     Atomic magnetic moment for atom   2 =  -2.74464
     SPIN  1
     eigenvalues:
       0.023  0.023  0.023  0.153  0.153
     eigenvectors (columns):
      -0.000  0.000 -0.000  0.466 -0.885
      -0.303  0.209 -0.930  0.000  0.000
      -0.609 -0.793  0.020  0.000  0.000
       0.000 -0.000  0.000  0.885  0.466
       0.733 -0.573 -0.367 -0.000 -0.000
     occupation matrix ns (before diag.):
       0.153 -0.000  0.000 -0.000  0.000
      -0.000  0.023 -0.000  0.000  0.000
       0.000 -0.000  0.023  0.000  0.000
      -0.000  0.000  0.000  0.153 -0.000
       0.000  0.000  0.000 -0.000  0.023
     SPIN  2
     eigenvalues:
       0.189  0.189  0.914  0.914  0.914
     eigenvectors (columns):
       0.471 -0.882 -0.000 -0.000  0.000
      -0.000 -0.000  0.320 -0.147 -0.936
      -0.000 -0.000  0.603 -0.731  0.321
       0.882  0.471  0.000  0.000 -0.000
       0.000  0.000 -0.731 -0.667 -0.145
     occupation matrix ns (before diag.):
       0.189 -0.000 -0.000 -0.000  0.000
      -0.000  0.914 -0.000  0.000  0.000
      -0.000 -0.000  0.914  0.000  0.000
      -0.000  0.000  0.000  0.189 -0.000
       0.000  0.000  0.000 -0.000  0.914
     ------------------------ ATOM    3 ------------------------
     Tr[ns(  3)] (up, down, total) =   3.78226  0.90322  4.68548
     Atomic magnetic moment for atom   3 =   2.87904
     SPIN  1
     eigenvalues:
       0.489  0.489  0.935  0.935  0.935
     eigenvectors (columns):
       0.426 -0.905 -0.000 -0.000 -0.000
      -0.000 -0.000  0.319 -0.211  0.924
      -0.000 -0.000  0.601 -0.708 -0.369
       0.905  0.426  0.000  0.000  0.000
       0.000  0.000 -0.732 -0.674  0.100
     occupation matrix ns (before diag.):
       0.489 -0.000 -0.000 -0.000  0.000
      -0.000  0.935 -0.000  0.000  0.000
      -0.000 -0.000  0.935  0.000  0.000
      -0.000  0.000  0.000  0.489 -0.000
       0.000  0.000  0.000 -0.000  0.935
     SPIN  2
     eigenvalues:
       0.052  0.052  0.052  0.373  0.373
     eigenvectors (columns):
       0.000 -0.000  0.000  0.239 -0.971
       0.320  0.275  0.907  0.000  0.000
       0.584  0.696 -0.417  0.000 -0.000
      -0.000  0.000 -0.000  0.971  0.239
      -0.746  0.663  0.062 -0.000 -0.000
     occupation matrix ns (before diag.):
       0.373 -0.000  0.000 -0.000  0.000
      -0.000  0.052 -0.000  0.000  0.000
       0.000 -0.000  0.052  0.000  0.000
      -0.000  0.000  0.000  0.373 -0.000
       0.000  0.000  0.000 -0.000  0.052

     Number of occupied Hubbard levels =    8.1794

     Atomic wfc used for Hubbard projectors are orthogonalized

     Starting wfcs are   73 randomized atomic wfcs

     Band Structure Calculation
     Davidson diagonalization with overlap

     Computing kpt #:     1  of     4 on this pool
     total cpu time spent up to now is       86.6 secs

     Computing kpt #:     2  of     4 on this pool
     total cpu time spent up to now is      163.0 secs

     Computing kpt #:     3  of     4 on this pool
     total cpu time spent up to now is      242.8 secs

     Computing kpt #:     4  of     4 on this pool
     total cpu time spent up to now is      288.9 secs

     ethr =  1.67E-10,  avg # of iterations = 93.0

     total cpu time spent up to now is      298.0 secs

     End of band structure calculation

 ------ SPIN UP ------------


          k = 0.0000 0.0000 0.0000 ( 39957 PWs)   bands (ev):

   -71.4332 -59.6469 -42.8058 -42.8058 -42.8058 -33.5272 -33.5272 -33.5272
   -29.1662 -16.2769 -16.0883 -16.0883 -16.0883 -16.0333 -16.0333 -12.6135
   -12.6135 -12.6135  -6.8600  -4.9903  -4.9903  -4.9903  -4.8733  -4.8733
    -4.5292  -3.2684  -3.2684  -3.2684  -2.8471  -2.8471  -2.3792  -2.3792
    -2.3792  -2.0410  -2.0410  -2.0410  -1.8463  -1.8463  -1.8463  -1.5477
    -1.5477  -1.5477  -0.7174  -0.7174  -0.7174   4.5071   4.5071   4.7801
     4.7801   4.7801   5.1819   5.8146   5.8146   5.8146

     occupation numbers 
     1.0000   1.0000   1.0000   1.0000   1.0000   1.0000   1.0000   1.0000
     1.0000   1.0000   1.0000   1.0000   1.0000   1.0000   1.0000   1.0000
     1.0000   1.0000   1.0000   1.0000   1.0000   1.0000   1.0000   1.0000
     1.0000   1.0000   1.0000   1.0000   1.0000   1.0000   1.0000   1.0000
     1.0000   1.0000   1.0000   1.0000   1.0000   1.0000   1.0000   1.0000
     1.0000   1.0000   1.0000   1.0000   1.0000   0.0000   0.0000   0.0000
     0.0000   0.0000   0.0000   0.0000   0.0000   0.0000

          k = 0.0884 0.0884-0.0884 ( 40023 PWs)   bands (ev):

   -71.4332 -59.6469 -42.8058 -42.8058 -42.8058 -33.5272 -33.5272 -33.5272
   -29.1662 -16.2712 -16.0947 -16.0865 -16.0865 -16.0352 -16.0352 -12.6133
   -12.6133 -12.6129  -6.8214  -5.2025  -4.9807  -4.9807  -4.8724  -4.8724
    -4.3247  -3.2652  -3.2456  -3.2456  -2.8645  -2.8645  -2.4288  -2.4091
    -2.4091  -2.0918  -2.0918  -2.0259  -1.8624  -1.8584  -1.8584  -1.5663
    -1.5092  -1.5092  -0.6860  -0.6781  -0.6781   4.5126   4.5126   4.7954
     4.8195   4.8195   5.2652   5.7884   5.8468   5.8468

     occupation numbers 
     1.0000   1.0000   1.0000   1.0000   1.0000   1.0000   1.0000   1.0000
     1.0000   1.0000   1.0000   1.0000   1.0000   1.0000   1.0000   1.0000
     1.0000   1.0000   1.0000   1.0000   1.0000   1.0000   1.0000   1.0000
     1.0000   1.0000   1.0000   1.0000   1.0000   1.0000   1.0000   1.0000
     1.0000   1.0000   1.0000   1.0000   1.0000   1.0000   1.0000   1.0000
     1.0000   1.0000   1.0000   1.0000   1.0000   0.0000   0.0000   0.0000
     0.0000   0.0000   0.0000   0.0000   0.0000   0.0000

          k = 0.1768 0.1768-0.1768 ( 40014 PWs)   bands (ev):

   -71.4332 -59.6469 -42.8058 -42.8058 -42.8058 -33.5272 -33.5272 -33.5272
   -29.1662 -16.2555 -16.1120 -16.0813 -16.0813 -16.0406 -16.0406 -12.6129
   -12.6129 -12.6115  -6.7097  -5.5373  -4.9556  -4.9556  -4.8720  -4.8720
    -4.0142  -3.2581  -3.1832  -3.1832  -2.8967  -2.8967  -2.5578  -2.5054
    -2.5054  -2.2063  -2.2063  -1.9833  -1.8988  -1.8549  -1.8549  -1.6171
    -1.4402  -1.4402  -0.6152  -0.5933  -0.5933   4.5291   4.5291   4.8397
     4.9289   4.9289   5.4838   5.7315   5.8925   5.8925

     occupation numbers 
     1.0000   1.0000   1.0000   1.0000   1.0000   1.0000   1.0000   1.0000
     1.0000   1.0000   1.0000   1.0000   1.0000   1.0000   1.0000   1.0000
     1.0000   1.0000   1.0000   1.0000   1.0000   1.0000   1.0000   1.0000
     1.0000   1.0000   1.0000   1.0000   1.0000   1.0000   1.0000   1.0000
     1.0000   1.0000   1.0000   1.0000   1.0000   1.0000   1.0000   1.0000
     1.0000   1.0000   1.0000   1.0000   1.0000   0.0000   0.0000   0.0000
     0.0000   0.0000   0.0000   0.0000   0.0000   0.0000

          k = 0.2652 0.2652-0.2652 ( 40026 PWs)   bands (ev):

   -71.4332 -59.6469 -42.8058 -42.8058 -42.8058 -33.5272 -33.5272 -33.5272
   -29.1663 -16.2347 -16.1344 -16.0742 -16.0742 -16.0479 -16.0479 -12.6126
   -12.6126 -12.6101  -6.5436  -5.8498  -4.9246  -4.9246  -4.8768  -4.8768
    -3.7493  -3.2552  -3.1104  -3.1104  -2.8947  -2.8947  -2.7100  -2.6480
    -2.6480  -2.3150  -2.3150  -1.9331  -1.9242  -1.8266  -1.8266  -1.6844
    -1.3910  -1.3910  -0.5499  -0.5187  -0.5187   4.5494   4.5494   4.8957
     5.0755   5.0755   5.5946   5.8290   5.8290   5.8500

     occupation numbers 
     1.0000   1.0000   1.0000   1.0000   1.0000   1.0000   1.0000   1.0000
     1.0000   1.0000   1.0000   1.0000   1.0000   1.0000   1.0000   1.0000
     1.0000   1.0000   1.0000   1.0000   1.0000   1.0000   1.0000   1.0000
     1.0000   1.0000   1.0000   1.0000   1.0000   1.0000   1.0000   1.0000
     1.0000   1.0000   1.0000   1.0000   1.0000   1.0000   1.0000   1.0000
     1.0000   1.0000   1.0000   1.0000   1.0000   0.0000   0.0000   0.0000
     0.0000   0.0000   0.0000   0.0000   0.0000   0.0000

          k =-0.3536-0.3536 0.3536 ( 40094 PWs)   bands (ev):

   -71.4332 -59.6469 -42.8058 -42.8058 -42.8058 -33.5272 -33.5272 -33.5272
   -29.1663 -16.2226 -16.1472 -16.0696 -16.0696 -16.0525 -16.0525 -12.6124
   -12.6124 -12.6095  -6.4226  -6.0210  -4.9047  -4.9047  -4.8856  -4.8856
    -3.6304  -3.2591  -3.0825  -3.0825  -2.8268  -2.8268  -2.7865  -2.7714
    -2.7714  -2.3583  -2.3583  -1.9470  -1.8864  -1.8111  -1.8111  -1.7256
    -1.3746  -1.3746  -0.5242  -0.4901  -0.4901   4.5589   4.5589   4.9235
     5.1611   5.1611   5.5693   5.7514   5.7514   6.0192

     occupation numbers 
     1.0000   1.0000   1.0000   1.0000   1.0000   1.0000   1.0000   1.0000
     1.0000   1.0000   1.0000   1.0000   1.0000   1.0000   1.0000   1.0000
     1.0000   1.0000   1.0000   1.0000   1.0000   1.0000   1.0000   1.0000
     1.0000   1.0000   1.0000   1.0000   1.0000   1.0000   1.0000   1.0000
     1.0000   1.0000   1.0000   1.0000   1.0000   1.0000   1.0000   1.0000
     1.0000   1.0000   1.0000   1.0000   1.0000   0.0000   0.0000   0.0000
     0.0000   0.0000   0.0000   0.0000   0.0000   0.0000

          k = 0.1768 0.0000 0.0000 ( 40009 PWs)   bands (ev):

   -71.4332 -59.6469 -42.8058 -42.8058 -42.8058 -33.5272 -33.5272 -33.5272
   -29.1662 -16.2694 -16.0912 -16.0886 -16.0886 -16.0386 -16.0332 -12.6132
   -12.6132 -12.6129  -6.8102  -5.2418  -4.9799  -4.9799  -4.8736  -4.8703
    -4.2819  -3.2735  -3.2332  -3.2332  -2.8947  -2.8465  -2.4613  -2.4130
    -2.4130  -2.0971  -2.0971  -2.0484  -1.9051  -1.9051  -1.7640  -1.5482
    -1.5108  -1.5108  -0.7174  -0.6464  -0.6464   4.5128   4.5135   4.7815
     4.8456   4.8456   5.2929   5.8123   5.8438   5.8438

     occupation numbers 
     1.0000   1.0000   1.0000   1.0000   1.0000   1.0000   1.0000   1.0000
     1.0000   1.0000   1.0000   1.0000   1.0000   1.0000   1.0000   1.0000
     1.0000   1.0000   1.0000   1.0000   1.0000   1.0000   1.0000   1.0000
     1.0000   1.0000   1.0000   1.0000   1.0000   1.0000   1.0000   1.0000
     1.0000   1.0000   1.0000   1.0000   1.0000   1.0000   1.0000   1.0000
     1.0000   1.0000   1.0000   1.0000   1.0000   0.0000   0.0000   0.0000
     0.0000   0.0000   0.0000   0.0000   0.0000   0.0000

          k = 0.2652 0.0884-0.0884 ( 40035 PWs)   bands (ev):

   -71.4332 -59.6469 -42.8058 -42.8058 -42.8058 -33.5272 -33.5272 -33.5272
   -29.1662 -16.2573 -16.1041 -16.0870 -16.0826 -16.0453 -16.0350 -12.6129
   -12.6128 -12.6119  -6.7278  -5.4861  -4.9618  -4.9599  -4.8738  -4.8674
    -4.0505  -3.2709  -3.1841  -3.1795  -2.9405  -2.8595  -2.5845  -2.4830
    -2.4752  -2.1944  -2.1763  -2.0206  -1.9618  -1.9317  -1.6974  -1.5855
    -1.4616  -1.4484  -0.6816  -0.5720  -0.5688   4.5218   4.5241   4.8072
     4.9400   4.9500   5.4684   5.7646   5.8865   5.9141

     occupation numbers 
     1.0000   1.0000   1.0000   1.0000   1.0000   1.0000   1.0000   1.0000
     1.0000   1.0000   1.0000   1.0000   1.0000   1.0000   1.0000   1.0000
     1.0000   1.0000   1.0000   1.0000   1.0000   1.0000   1.0000   1.0000
     1.0000   1.0000   1.0000   1.0000   1.0000   1.0000   1.0000   1.0000
     1.0000   1.0000   1.0000   1.0000   1.0000   1.0000   1.0000   1.0000
     1.0000   1.0000   1.0000   1.0000   1.0000   0.0000   0.0000   0.0000
     0.0000   0.0000   0.0000   0.0000   0.0000   0.0000

          k = 0.3536 0.1768-0.1768 ( 40059 PWs)   bands (ev):

   -71.4332 -59.6469 -42.8058 -42.8058 -42.8058 -33.5272 -33.5272 -33.5272
   -29.1663 -16.2383 -16.1249 -16.0819 -16.0747 -16.0531 -16.0402 -12.6124
   -12.6124 -12.6105  -6.5864  -5.7720  -4.9332  -4.9300  -4.8763  -4.8689
    -3.7953  -3.2617  -3.1238  -3.1064  -2.9611  -2.8694  -2.7418  -2.6184
    -2.5707  -2.3037  -2.2829  -2.0238  -1.9617  -1.9056  -1.6646  -1.6553
    -1.4005  -1.3869  -0.6031  -0.5067  -0.4973   4.5368   4.5418   4.8708
     5.0641   5.1053   5.6248   5.8153   5.8687   5.9286

     occupation numbers 
     1.0000   1.0000   1.0000   1.0000   1.0000   1.0000   1.0000   1.0000
     1.0000   1.0000   1.0000   1.0000   1.0000   1.0000   1.0000   1.0000
     1.0000   1.0000   1.0000   1.0000   1.0000   1.0000   1.0000   1.0000
     1.0000   1.0000   1.0000   1.0000   1.0000   1.0000   1.0000   1.0000
     1.0000   1.0000   1.0000   1.0000   1.0000   1.0000   1.0000   1.0000
     1.0000   1.0000   1.0000   1.0000   1.0000   0.0000   0.0000   0.0000
     0.0000   0.0000   0.0000   0.0000   0.0000   0.0000

          k =-0.2652-0.4419 0.4419 ( 40040 PWs)   bands (ev):

   -71.4332 -59.6469 -42.8058 -42.8058 -42.8058 -33.5272 -33.5272 -33.5272
   -29.1663 -16.2219 -16.1426 -16.0747 -16.0728 -16.0549 -16.0475 -12.6123
   -12.6121 -12.6097  -6.4386  -5.9929  -4.9065  -4.9041  -4.8837  -4.8798
    -3.6220  -3.2600  -3.0998  -3.0655  -2.9398  -2.8249  -2.8183  -2.7661
    -2.6663  -2.3632  -2.3607  -2.0622  -1.9043  -1.8539  -1.7204  -1.6728
    -1.3635  -1.3570  -0.5338  -0.4824  -0.4671   4.5457   4.5573   4.9356
     5.1463   5.2243   5.6248   5.7842   5.8076   6.0556

     occupation numbers 
     1.0000   1.0000   1.0000   1.0000   1.0000   1.0000   1.0000   1.0000
     1.0000   1.0000   1.0000   1.0000   1.0000   1.0000   1.0000   1.0000
     1.0000   1.0000   1.0000   1.0000   1.0000   1.0000   1.0000   1.0000
     1.0000   1.0000   1.0000   1.0000   1.0000   1.0000   1.0000   1.0000
     1.0000   1.0000   1.0000   1.0000   1.0000   1.0000   1.0000   1.0000
     1.0000   1.0000   1.0000   1.0000   1.0000   0.0000   0.0000   0.0000
     0.0000   0.0000   0.0000   0.0000   0.0000   0.0000

          k =-0.1768-0.3536 0.3536 ( 40010 PWs)   bands (ev):

   -71.4332 -59.6469 -42.8058 -42.8058 -42.8058 -33.5272 -33.5272 -33.5272
   -29.1663 -16.2259 -16.1387 -16.0796 -16.0696 -16.0525 -16.0477 -12.6124
   -12.6121 -12.6099  -6.4756  -5.9437  -4.9117  -4.9114  -4.8804  -4.8780
    -3.6607  -3.2544  -3.1038  -3.0775  -2.9110  -2.9075  -2.7939  -2.6920
    -2.6484  -2.3583  -2.3398  -2.0662  -1.9131  -1.8172  -1.7156  -1.7107
    -1.3808  -1.3495  -0.5225  -0.4952  -0.4906   4.5414   4.5582   4.9365
     5.1262   5.1600   5.6223   5.8147   5.8523   5.9945

     occupation numbers 
     1.0000   1.0000   1.0000   1.0000   1.0000   1.0000   1.0000   1.0000
     1.0000   1.0000   1.0000   1.0000   1.0000   1.0000   1.0000   1.0000
     1.0000   1.0000   1.0000   1.0000   1.0000   1.0000   1.0000   1.0000
     1.0000   1.0000   1.0000   1.0000   1.0000   1.0000   1.0000   1.0000
     1.0000   1.0000   1.0000   1.0000   1.0000   1.0000   1.0000   1.0000
     1.0000   1.0000   1.0000   1.0000   1.0000   0.0000   0.0000   0.0000
     0.0000   0.0000   0.0000   0.0000   0.0000   0.0000

          k =-0.0884-0.2652 0.2652 ( 40013 PWs)   bands (ev):

   -71.4332 -59.6469 -42.8058 -42.8058 -42.8058 -33.5272 -33.5272 -33.5272
   -29.1663 -16.2449 -16.1190 -16.0862 -16.0738 -16.0481 -16.0404 -12.6128
   -12.6124 -12.6110  -6.6341  -5.6897  -4.9426  -4.9381  -4.8741  -4.8703
    -3.8719  -3.2557  -3.1435  -3.1412  -2.9356  -2.8936  -2.6807  -2.5714
    -2.5256  -2.2810  -2.2427  -2.0346  -1.9708  -1.8126  -1.7692  -1.6435
    -1.4269  -1.3865  -0.5850  -0.5583  -0.5280   4.5288   4.5429   4.8750
     5.0031   5.0207   5.6012   5.7419   5.9070   5.9470

     occupation numbers 
     1.0000   1.0000   1.0000   1.0000   1.0000   1.0000   1.0000   1.0000
     1.0000   1.0000   1.0000   1.0000   1.0000   1.0000   1.0000   1.0000
     1.0000   1.0000   1.0000   1.0000   1.0000   1.0000   1.0000   1.0000
     1.0000   1.0000   1.0000   1.0000   1.0000   1.0000   1.0000   1.0000
     1.0000   1.0000   1.0000   1.0000   1.0000   1.0000   1.0000   1.0000
     1.0000   1.0000   1.0000   1.0000   1.0000   0.0000   0.0000   0.0000
     0.0000   0.0000   0.0000   0.0000   0.0000   0.0000

          k = 0.0000-0.1768 0.1768 ( 40006 PWs)   bands (ev):

   -71.4332 -59.6469 -42.8058 -42.8058 -42.8058 -33.5272 -33.5272 -33.5272
   -29.1662 -16.2623 -16.1017 -16.0888 -16.0811 -16.0407 -16.0359 -12.6132
   -12.6129 -12.6122  -6.7601  -5.4064  -4.9694  -4.9646  -4.8729  -4.8701
    -4.1303  -3.2634  -3.2130  -3.2031  -2.9047  -2.8706  -2.5222  -2.4671
    -2.4394  -2.1726  -2.1377  -2.0141  -1.9627  -1.8292  -1.8152  -1.5867
    -1.4816  -1.4538  -0.6554  -0.6378  -0.6003   4.5179   4.5234   4.8171
     4.8762   4.8980   5.3953   5.7586   5.8704   5.9058

     occupation numbers 
     1.0000   1.0000   1.0000   1.0000   1.0000   1.0000   1.0000   1.0000
     1.0000   1.0000   1.0000   1.0000   1.0000   1.0000   1.0000   1.0000
     1.0000   1.0000   1.0000   1.0000   1.0000   1.0000   1.0000   1.0000
     1.0000   1.0000   1.0000   1.0000   1.0000   1.0000   1.0000   1.0000
     1.0000   1.0000   1.0000   1.0000   1.0000   1.0000   1.0000   1.0000
     1.0000   1.0000   1.0000   1.0000   1.0000   0.0000   0.0000   0.0000
     0.0000   0.0000   0.0000   0.0000   0.0000   0.0000

          k = 0.3536 0.0000 0.0000 ( 40046 PWs)   bands (ev):

   -71.4332 -59.6469 -42.8058 -42.8058 -42.8058 -33.5272 -33.5272 -33.5272
   -29.1663 -16.2499 -16.0974 -16.0892 -16.0892 -16.0535 -16.0329 -12.6124
   -12.6124 -12.6115  -6.6860  -5.5676  -4.9537  -4.9537  -4.8744  -4.8604
    -3.9552  -3.2879  -3.1346  -3.1346  -3.0024  -2.8450  -2.6968  -2.5179
    -2.5179  -2.2211  -2.2211  -2.0662  -1.9909  -1.9909  -1.5493  -1.5406
    -1.4539  -1.4539  -0.7175  -0.5044  -0.5044   4.5140   4.5284   4.7864
     5.0616   5.0616   5.5832   5.8182   5.9211   5.9211

     occupation numbers 
     1.0000   1.0000   1.0000   1.0000   1.0000   1.0000   1.0000   1.0000
     1.0000   1.0000   1.0000   1.0000   1.0000   1.0000   1.0000   1.0000
     1.0000   1.0000   1.0000   1.0000   1.0000   1.0000   1.0000   1.0000
     1.0000   1.0000   1.0000   1.0000   1.0000   1.0000   1.0000   1.0000
     1.0000   1.0000   1.0000   1.0000   1.0000   1.0000   1.0000   1.0000
     1.0000   1.0000   1.0000   1.0000   1.0000   0.0000   0.0000   0.0000
     0.0000   0.0000   0.0000   0.0000   0.0000   0.0000

          k = 0.4419 0.0884-0.0884 ( 40048 PWs)   bands (ev):

   -71.4332 -59.6469 -42.8058 -42.8058 -42.8058 -33.5272 -33.5272 -33.5272
   -29.1663 -16.2355 -16.1119 -16.0876 -16.0816 -16.0627 -16.0346 -12.6121
   -12.6120 -12.6106  -6.5917  -5.7423  -4.9338  -4.9318  -4.8756  -4.8561
    -3.7804  -3.2891  -3.0949  -3.0646  -3.0273  -2.8488  -2.8425  -2.6158
    -2.5893  -2.3103  -2.2893  -2.0531  -2.0357  -1.9944  -1.5969  -1.4867
    -1.3997  -1.3806  -0.6815  -0.4457  -0.4427   4.5128   4.5395   4.8144
     5.2140   5.2394   5.6865   5.8963   5.9497   6.0062

     occupation numbers 
     1.0000   1.0000   1.0000   1.0000   1.0000   1.0000   1.0000   1.0000
     1.0000   1.0000   1.0000   1.0000   1.0000   1.0000   1.0000   1.0000
     1.0000   1.0000   1.0000   1.0000   1.0000   1.0000   1.0000   1.0000
     1.0000   1.0000   1.0000   1.0000   1.0000   1.0000   1.0000   1.0000
     1.0000   1.0000   1.0000   1.0000   1.0000   1.0000   1.0000   1.0000
     1.0000   1.0000   1.0000   1.0000   1.0000   0.0000   0.0000   0.0000
     0.0000   0.0000   0.0000   0.0000   0.0000   0.0000

          k =-0.1768-0.5303 0.5303 ( 40037 PWs)   bands (ev):

   -71.4332 -59.6469 -42.8058 -42.8058 -42.8058 -33.5272 -33.5272 -33.5272
   -29.1663 -16.2201 -16.1300 -16.0824 -16.0802 -16.0624 -16.0399 -12.6119
   -12.6114 -12.6100  -6.4714  -5.9296  -4.9100  -4.9059  -4.8799  -4.8629
    -3.6035  -3.2819  -3.1293  -3.0329  -3.0158  -2.8778  -2.8317  -2.7422
    -2.6442  -2.3845  -2.3466  -2.1429  -1.9727  -1.9366  -1.6811  -1.5169
    -1.3543  -1.3027  -0.6020  -0.4267  -0.4154   4.5159   4.5534   4.8862
     5.2621   5.4042   5.7180   5.8770   5.9538   6.1520

     occupation numbers 
     1.0000   1.0000   1.0000   1.0000   1.0000   1.0000   1.0000   1.0000
     1.0000   1.0000   1.0000   1.0000   1.0000   1.0000   1.0000   1.0000
     1.0000   1.0000   1.0000   1.0000   1.0000   1.0000   1.0000   1.0000
     1.0000   1.0000   1.0000   1.0000   1.0000   1.0000   1.0000   1.0000
     1.0000   1.0000   1.0000   1.0000   1.0000   1.0000   1.0000   1.0000
     1.0000   1.0000   1.0000   1.0000   1.0000   0.0000   0.0000   0.0000
     0.0000   0.0000   0.0000   0.0000   0.0000   0.0000

          k =-0.0884-0.4419 0.4419 ( 40068 PWs)   bands (ev):

   -71.4332 -59.6469 -42.8058 -42.8058 -42.8058 -33.5272 -33.5272 -33.5272
   -29.1663 -16.2163 -16.1368 -16.0869 -16.0750 -16.0529 -16.0473 -12.6121
   -12.6111 -12.6101  -6.4206  -6.0029  -4.9002  -4.8905  -4.8813  -4.8812
    -3.5584  -3.2580  -3.1509  -3.0407  -3.0162  -2.9012  -2.8141  -2.7280
    -2.6439  -2.3864  -2.3769  -2.1878  -1.9265  -1.8620  -1.7371  -1.5830
    -1.3523  -1.2831  -0.5302  -0.4558  -0.4342   4.5198   4.5619   4.9655
     5.1662   5.3491   5.7438   5.9254   5.9366   6.1978

     occupation numbers 
     1.0000   1.0000   1.0000   1.0000   1.0000   1.0000   1.0000   1.0000
     1.0000   1.0000   1.0000   1.0000   1.0000   1.0000   1.0000   1.0000
     1.0000   1.0000   1.0000   1.0000   1.0000   1.0000   1.0000   1.0000
     1.0000   1.0000   1.0000   1.0000   1.0000   1.0000   1.0000   1.0000
     1.0000   1.0000   1.0000   1.0000   1.0000   1.0000   1.0000   1.0000
     1.0000   1.0000   1.0000   1.0000   1.0000   0.0000   0.0000   0.0000
     0.0000   0.0000   0.0000   0.0000   0.0000   0.0000

          k = 0.0000-0.3536 0.3536 ( 40038 PWs)   bands (ev):

   -71.4332 -59.6469 -42.8058 -42.8058 -42.8058 -33.5272 -33.5272 -33.5272
   -29.1663 -16.2288 -16.1286 -16.0898 -16.0696 -16.0525 -16.0447 -12.6124
   -12.6115 -12.6105  -6.5168  -5.8770  -4.9166  -4.9165  -4.8768  -4.8727
    -3.6933  -3.2464  -3.1274  -3.0703  -2.9527  -2.9462  -2.7975  -2.6518
    -2.5722  -2.3552  -2.3166  -2.1473  -1.9429  -1.8202  -1.6990  -1.6706
    -1.3872  -1.3204  -0.5199  -0.5013  -0.4911   4.5242   4.5575   4.9505
     5.0950   5.1591   5.6483   5.9253   6.0176   6.0187

     occupation numbers 
     1.0000   1.0000   1.0000   1.0000   1.0000   1.0000   1.0000   1.0000
     1.0000   1.0000   1.0000   1.0000   1.0000   1.0000   1.0000   1.0000
     1.0000   1.0000   1.0000   1.0000   1.0000   1.0000   1.0000   1.0000
     1.0000   1.0000   1.0000   1.0000   1.0000   1.0000   1.0000   1.0000
     1.0000   1.0000   1.0000   1.0000   1.0000   1.0000   1.0000   1.0000
     1.0000   1.0000   1.0000   1.0000   1.0000   0.0000   0.0000   0.0000
     0.0000   0.0000   0.0000   0.0000   0.0000   0.0000

          k = 0.5303 0.0000 0.0000 ( 40022 PWs)   bands (ev):

   -71.4332 -59.6469 -42.8058 -42.8058 -42.8058 -33.5272 -33.5272 -33.5272
   -29.1663 -16.2274 -16.1009 -16.0899 -16.0899 -16.0744 -16.0325 -12.6117
   -12.6117 -12.6101  -6.5594  -5.7786  -4.9260  -4.9260  -4.8753  -4.8441
    -3.7054  -3.3131  -3.1092  -2.9959  -2.9959  -2.9694  -2.8434  -2.6602
    -2.6602  -2.3420  -2.3420  -2.0839  -2.0427  -2.0427  -1.5504  -1.4142
    -1.4142  -1.3017  -0.7174  -0.3906  -0.3906   4.4931   4.5427   4.7902
     5.4501   5.4501   5.7300   6.0237   6.0237   6.0770

     occupation numbers 
     1.0000   1.0000   1.0000   1.0000   1.0000   1.0000   1.0000   1.0000
     1.0000   1.0000   1.0000   1.0000   1.0000   1.0000   1.0000   1.0000
     1.0000   1.0000   1.0000   1.0000   1.0000   1.0000   1.0000   1.0000
     1.0000   1.0000   1.0000   1.0000   1.0000   1.0000   1.0000   1.0000
     1.0000   1.0000   1.0000   1.0000   1.0000   1.0000   1.0000   1.0000
     1.0000   1.0000   1.0000   1.0000   1.0000   0.0000   0.0000   0.0000
     0.0000   0.0000   0.0000   0.0000   0.0000   0.0000

          k =-0.0884-0.6187 0.6187 ( 40061 PWs)   bands (ev):

   -71.4332 -59.6469 -42.8058 -42.8058 -42.8058 -33.5272 -33.5272 -33.5272
   -29.1663 -16.2178 -16.1125 -16.0881 -16.0876 -16.0755 -16.0344 -12.6116
   -12.6113 -12.6098  -6.4987  -5.8695  -4.9129  -4.9110  -4.8768  -4.8432
    -3.5917  -3.3219  -3.1442  -3.0836  -2.9419  -2.9031  -2.8401  -2.7366
    -2.7121  -2.4022  -2.3748  -2.0976  -2.0511  -2.0230  -1.6025  -1.4276
    -1.3742  -1.2318  -0.6813  -0.3716  -0.3681   4.4876   4.5498   4.8180
     5.5140   5.6688   5.8216   5.9950   6.0854   6.2317

     occupation numbers 
     1.0000   1.0000   1.0000   1.0000   1.0000   1.0000   1.0000   1.0000
     1.0000   1.0000   1.0000   1.0000   1.0000   1.0000   1.0000   1.0000
     1.0000   1.0000   1.0000   1.0000   1.0000   1.0000   1.0000   1.0000
     1.0000   1.0000   1.0000   1.0000   1.0000   1.0000   1.0000   1.0000
     1.0000   1.0000   1.0000   1.0000   1.0000   1.0000   1.0000   1.0000
     1.0000   1.0000   1.0000   1.0000   1.0000   0.0000   0.0000   0.0000
     0.0000   0.0000   0.0000   0.0000   0.0000   0.0000

          k = 0.0000-0.5303 0.5303 ( 40054 PWs)   bands (ev):

   -71.4332 -59.6469 -42.8058 -42.8058 -42.8058 -33.5272 -33.5272 -33.5272
   -29.1663 -16.2126 -16.1275 -16.0905 -16.0827 -16.0629 -16.0397 -12.6117
   -12.6107 -12.6101  -6.4349  -5.9686  -4.9007  -4.8956  -4.8807  -4.8591
    -3.5069  -3.3093  -3.1738  -3.1109  -2.9536  -2.8715  -2.8358  -2.7491
    -2.6983  -2.4269  -2.3685  -2.1906  -1.9864  -1.9419  -1.6902  -1.4855
    -1.3436  -1.2300  -0.6016  -0.3976  -0.3851   4.4981   4.5579   4.8907
     5.3306   5.5977   5.8801   6.0058   6.1109   6.1990

     occupation numbers 
     1.0000   1.0000   1.0000   1.0000   1.0000   1.0000   1.0000   1.0000
     1.0000   1.0000   1.0000   1.0000   1.0000   1.0000   1.0000   1.0000
     1.0000   1.0000   1.0000   1.0000   1.0000   1.0000   1.0000   1.0000
     1.0000   1.0000   1.0000   1.0000   1.0000   1.0000   1.0000   1.0000
     1.0000   1.0000   1.0000   1.0000   1.0000   1.0000   1.0000   1.0000
     1.0000   1.0000   1.0000   1.0000   1.0000   0.0000   0.0000   0.0000
     0.0000   0.0000   0.0000   0.0000   0.0000   0.0000

          k =-0.7071 0.0000 0.0000 ( 40170 PWs)   bands (ev):

   -71.4332 -59.6469 -42.8058 -42.8058 -42.8058 -33.5272 -33.5272 -33.5272
   -29.1663 -16.2167 -16.0961 -16.0908 -16.0901 -16.0901 -16.0324 -12.6114
   -12.6114 -12.6096  -6.5089  -5.8450  -4.9141  -4.9141  -4.8756  -4.8344
    -3.5906  -3.3387  -3.1338  -3.1189  -2.8901  -2.8901  -2.8428  -2.7602
    -2.7602  -2.3982  -2.3982  -2.0912  -2.0584  -2.0584  -1.5508  -1.4005
    -1.4005  -1.1991  -0.7172  -0.3496  -0.3496   4.4761   4.5484   4.7916
     5.7329   5.9212   5.9212   5.9575   5.9575   6.2307

     occupation numbers 
     1.0000   1.0000   1.0000   1.0000   1.0000   1.0000   1.0000   1.0000
     1.0000   1.0000   1.0000   1.0000   1.0000   1.0000   1.0000   1.0000
     1.0000   1.0000   1.0000   1.0000   1.0000   1.0000   1.0000   1.0000
     1.0000   1.0000   1.0000   1.0000   1.0000   1.0000   1.0000   1.0000
     1.0000   1.0000   1.0000   1.0000   1.0000   1.0000   1.0000   1.0000
     1.0000   1.0000   1.0000   1.0000   1.0000   0.0000   0.0000   0.0000
     0.0000   0.0000   0.0000   0.0000   0.0000   0.0000

          k = 0.3536 0.1768 0.0000 ( 40042 PWs)   bands (ev):

   -71.4332 -59.6469 -42.8058 -42.8058 -42.8058 -33.5272 -33.5272 -33.5272
   -29.1663 -16.2438 -16.1131 -16.0894 -16.0765 -16.0533 -16.0366 -12.6126
   -12.6122 -12.6111  -6.6358  -5.6770  -4.9431  -4.9393  -4.8748  -4.8645
    -3.8671  -3.2700  -3.1298  -3.1223  -2.9832  -2.8679  -2.7268  -2.5701
    -2.5284  -2.2788  -2.2420  -2.0545  -1.9998  -1.9253  -1.6205  -1.6133
    -1.4247  -1.3910  -0.6480  -0.5039  -0.5027   4.5222   4.5380   4.8380
     5.0623   5.0792   5.6289   5.7710   5.9417   5.9770

     occupation numbers 
     1.0000   1.0000   1.0000   1.0000   1.0000   1.0000   1.0000   1.0000
     1.0000   1.0000   1.0000   1.0000   1.0000   1.0000   1.0000   1.0000
     1.0000   1.0000   1.0000   1.0000   1.0000   1.0000   1.0000   1.0000
     1.0000   1.0000   1.0000   1.0000   1.0000   1.0000   1.0000   1.0000
     1.0000   1.0000   1.0000   1.0000   1.0000   1.0000   1.0000   1.0000
     1.0000   1.0000   1.0000   1.0000   1.0000   0.0000   0.0000   0.0000
     0.0000   0.0000   0.0000   0.0000   0.0000   0.0000

          k =-0.2652-0.4419 0.6187 ( 40028 PWs)   bands (ev):

   -71.4332 -59.6469 -42.8058 -42.8058 -42.8058 -33.5272 -33.5272 -33.5272
   -29.1663 -16.2263 -16.1294 -16.0867 -16.0729 -16.0572 -16.0418 -12.6122
   -12.6116 -12.6103  -6.5044  -5.8914  -4.9156  -4.9136  -4.8786  -4.8683
    -3.6689  -3.2618  -3.1196  -3.0512  -2.9932  -2.8991  -2.8186  -2.6812
    -2.6061  -2.3584  -2.3253  -2.1289  -1.9511  -1.8964  -1.6888  -1.5912
    -1.3644  -1.3349  -0.5732  -0.4770  -0.4433   4.5243   4.5537   4.9121
     5.1401   5.2597   5.6641   5.9108   5.9649   6.0325

     occupation numbers 
     1.0000   1.0000   1.0000   1.0000   1.0000   1.0000   1.0000   1.0000
     1.0000   1.0000   1.0000   1.0000   1.0000   1.0000   1.0000   1.0000
     1.0000   1.0000   1.0000   1.0000   1.0000   1.0000   1.0000   1.0000
     1.0000   1.0000   1.0000   1.0000   1.0000   1.0000   1.0000   1.0000
     1.0000   1.0000   1.0000   1.0000   1.0000   1.0000   1.0000   1.0000
     1.0000   1.0000   1.0000   1.0000   1.0000   0.0000   0.0000   0.0000
     0.0000   0.0000   0.0000   0.0000   0.0000   0.0000

          k =-0.1768-0.3536 0.5303 ( 40076 PWs)   bands (ev):

   -71.4332 -59.6469 -42.8058 -42.8058 -42.8058 -33.5272 -33.5272 -33.5272
   -29.1663 -16.2168 -16.1390 -16.0808 -16.0783 -16.0525 -16.0477 -12.6120
   -12.6114 -12.6099  -6.4182  -6.0086  -4.9001  -4.8932  -4.8828  -4.8803
    -3.5649  -3.2638  -3.1348  -3.0388  -3.0154  -2.8482  -2.8337  -2.7582
    -2.6512  -2.3836  -2.3734  -2.1589  -1.9199  -1.8704  -1.7372  -1.5898
    -1.3342  -1.3160  -0.5113  -0.4980  -0.4197   4.5258   4.5604   4.9686
     5.1328   5.3760   5.7282   5.8498   5.8633   6.1807

     occupation numbers 
     1.0000   1.0000   1.0000   1.0000   1.0000   1.0000   1.0000   1.0000
     1.0000   1.0000   1.0000   1.0000   1.0000   1.0000   1.0000   1.0000
     1.0000   1.0000   1.0000   1.0000   1.0000   1.0000   1.0000   1.0000
     1.0000   1.0000   1.0000   1.0000   1.0000   1.0000   1.0000   1.0000
     1.0000   1.0000   1.0000   1.0000   1.0000   1.0000   1.0000   1.0000
     1.0000   1.0000   1.0000   1.0000   1.0000   0.0000   0.0000   0.0000
     0.0000   0.0000   0.0000   0.0000   0.0000   0.0000

          k =-0.1768-0.5303 0.7071 ( 40038 PWs)   bands (ev):

   -71.4332 -59.6469 -42.8058 -42.8058 -42.8058 -33.5272 -33.5272 -33.5272
   -29.1663 -16.2231 -16.1184 -16.0900 -16.0805 -16.0668 -16.0364 -12.6118
   -12.6114 -12.6102  -6.5128  -5.8611  -4.9154  -4.9153  -4.8773  -4.8535
    -3.6440  -3.2944  -3.1267  -3.0380  -2.9886  -2.9301  -2.8377  -2.6886
    -2.6583  -2.3682  -2.3467  -2.1124  -2.0089  -1.9943  -1.6355  -1.4796
    -1.3504  -1.3006  -0.6476  -0.4212  -0.3906   4.5034   4.5492   4.8454
     5.3100   5.4603   5.7286   6.0202   6.0342   6.1379

     occupation numbers 
     1.0000   1.0000   1.0000   1.0000   1.0000   1.0000   1.0000   1.0000
     1.0000   1.0000   1.0000   1.0000   1.0000   1.0000   1.0000   1.0000
     1.0000   1.0000   1.0000   1.0000   1.0000   1.0000   1.0000   1.0000
     1.0000   1.0000   1.0000   1.0000   1.0000   1.0000   1.0000   1.0000
     1.0000   1.0000   1.0000   1.0000   1.0000   1.0000   1.0000   1.0000
     1.0000   1.0000   1.0000   1.0000   1.0000   0.0000   0.0000   0.0000
     0.0000   0.0000   0.0000   0.0000   0.0000   0.0000

          k =-0.0884-0.4419 0.6187 ( 40051 PWs)   bands (ev):

   -71.4332 -59.6469 -42.8058 -42.8058 -42.8058 -33.5272 -33.5272 -33.5272
   -29.1663 -16.2133 -16.1287 -16.0877 -16.0863 -16.0582 -16.0417 -12.6116
   -12.6109 -12.6101  -6.4325  -5.9746  -4.9000  -4.8935  -4.8813  -4.8640
    -3.5166  -3.2958  -3.1749  -3.1053  -2.9566  -2.8738  -2.8368  -2.7506
    -2.6891  -2.4030  -2.3728  -2.1925  -1.9801  -1.9232  -1.7115  -1.5132
    -1.3112  -1.2572  -0.5724  -0.4457  -0.3695   4.5015   4.5586   4.9227
     5.2196   5.6450   5.8533   5.9552   6.0343   6.2694

     occupation numbers 
     1.0000   1.0000   1.0000   1.0000   1.0000   1.0000   1.0000   1.0000
     1.0000   1.0000   1.0000   1.0000   1.0000   1.0000   1.0000   1.0000
     1.0000   1.0000   1.0000   1.0000   1.0000   1.0000   1.0000   1.0000
     1.0000   1.0000   1.0000   1.0000   1.0000   1.0000   1.0000   1.0000
     1.0000   1.0000   1.0000   1.0000   1.0000   1.0000   1.0000   1.0000
     1.0000   1.0000   1.0000   1.0000   1.0000   0.0000   0.0000   0.0000
     0.0000   0.0000   0.0000   0.0000   0.0000   0.0000

          k =-0.0000-0.3536 0.5303 ( 40063 PWs)   bands (ev):

   -71.4332 -59.6469 -42.8058 -42.8058 -42.8058 -33.5272 -33.5272 -33.5272
   -29.1663 -16.2149 -16.1322 -16.0903 -16.0795 -16.0524 -16.0462 -12.6118
   -12.6108 -12.6103  -6.4266  -5.9890  -4.8999  -4.8892  -4.8824  -4.8743
    -3.5393  -3.2652  -3.1733  -3.0805  -2.9757  -2.9153  -2.8162  -2.7276
    -2.6598  -2.3831  -2.3754  -2.2091  -1.9496  -1.8812  -1.7398  -1.5527
    -1.3183  -1.2760  -0.5077  -0.5030  -0.3904   4.5096   4.5610   4.9770
     5.1270   5.4900   5.7838   6.0328   6.0483   6.2066

     occupation numbers 
     1.0000   1.0000   1.0000   1.0000   1.0000   1.0000   1.0000   1.0000
     1.0000   1.0000   1.0000   1.0000   1.0000   1.0000   1.0000   1.0000
     1.0000   1.0000   1.0000   1.0000   1.0000   1.0000   1.0000   1.0000
     1.0000   1.0000   1.0000   1.0000   1.0000   1.0000   1.0000   1.0000
     1.0000   1.0000   1.0000   1.0000   1.0000   1.0000   1.0000   1.0000
     1.0000   1.0000   1.0000   1.0000   1.0000   0.0000   0.0000   0.0000
     0.0000   0.0000   0.0000   0.0000   0.0000   0.0000

          k =-0.7071 0.1768 0.0000 ( 40038 PWs)   bands (ev):

   -71.4332 -59.6469 -42.8058 -42.8058 -42.8058 -33.5272 -33.5272 -33.5272
   -29.1663 -16.2137 -16.1166 -16.0908 -16.0901 -16.0687 -16.0363 -12.6114
   -12.6111 -12.6098  -6.4672  -5.9154  -4.9053  -4.9033  -4.8782  -4.8468
    -3.5306  -3.3274  -3.1651  -3.1264  -2.9019  -2.8860  -2.8401  -2.7538
    -2.7384  -2.4094  -2.3973  -2.1302  -2.0293  -2.0032  -1.6410  -1.4568
    -1.3364  -1.2146  -0.6474  -0.3915  -0.3496   4.4864   4.5539   4.8477
     5.4092   5.9217   5.9534   5.9579   6.0842   6.2155

     occupation numbers 
     1.0000   1.0000   1.0000   1.0000   1.0000   1.0000   1.0000   1.0000
     1.0000   1.0000   1.0000   1.0000   1.0000   1.0000   1.0000   1.0000
     1.0000   1.0000   1.0000   1.0000   1.0000   1.0000   1.0000   1.0000
     1.0000   1.0000   1.0000   1.0000   1.0000   1.0000   1.0000   1.0000
     1.0000   1.0000   1.0000   1.0000   1.0000   1.0000   1.0000   1.0000
     1.0000   1.0000   1.0000   1.0000   1.0000   0.0000   0.0000   0.0000
     0.0000   0.0000   0.0000   0.0000   0.0000   0.0000

          k =-0.7071 0.3536 0.0000 ( 39932 PWs)   bands (ev):

   -71.4332 -59.6469 -42.8058 -42.8058 -42.8058 -33.5272 -33.5272 -33.5272
   -29.1663 -16.2103 -16.1273 -16.0908 -16.0901 -16.0525 -16.0451 -12.6114
   -12.6105 -12.6105  -6.4138  -5.9961  -4.8953  -4.8829  -4.8798  -4.8719
    -3.4596  -3.3148  -3.2082  -3.1350  -2.9096  -2.8813  -2.8390  -2.7533
    -2.7191  -2.3964  -2.3829  -2.2203  -1.9912  -1.8928  -1.7464  -1.5221
    -1.2633  -1.2591  -0.5085  -0.5039  -0.3496   4.4950   4.5610   4.9768
     5.1352   5.9222   5.9491   5.9590   6.1758   6.1811

     occupation numbers 
     1.0000   1.0000   1.0000   1.0000   1.0000   1.0000   1.0000   1.0000
     1.0000   1.0000   1.0000   1.0000   1.0000   1.0000   1.0000   1.0000
     1.0000   1.0000   1.0000   1.0000   1.0000   1.0000   1.0000   1.0000
     1.0000   1.0000   1.0000   1.0000   1.0000   1.0000   1.0000   1.0000
     1.0000   1.0000   1.0000   1.0000   1.0000   1.0000   1.0000   1.0000
     1.0000   1.0000   1.0000   1.0000   1.0000   0.0000   0.0000   0.0000
     0.0000   0.0000   0.0000   0.0000   0.0000   0.0000

 ------ SPIN DOWN ----------


          k = 0.0000 0.0000 0.0000 ( 39957 PWs)   bands (ev):

   -68.5927 -62.1969 -39.9280 -39.9280 -39.9280 -36.0842 -36.0842 -36.0842
   -29.1667 -16.2326 -16.0411 -16.0411 -16.0411 -15.9829 -15.9829 -12.6138
   -12.6138 -12.6138  -6.8661  -5.0246  -5.0246  -5.0246  -4.8360  -4.8360
    -4.5176  -3.2020  -3.2020  -3.2020  -2.5290  -2.5290  -2.3533  -2.3533
    -2.3533  -2.0042  -2.0042  -2.0042  -1.8489  -1.8489  -1.8489  -1.5009
    -1.5009  -1.5009   0.5187   0.5187   0.5187   3.4278   3.4278   3.4278
     5.2091   5.6283   5.6283   5.7010   5.7010   5.7010

     occupation numbers 
     1.0000   1.0000   1.0000   1.0000   1.0000   1.0000   1.0000   1.0000
     1.0000   1.0000   1.0000   1.0000   1.0000   1.0000   1.0000   1.0000
     1.0000   1.0000   1.0000   1.0000   1.0000   1.0000   1.0000   1.0000
     1.0000   1.0000   1.0000   1.0000   1.0000   1.0000   1.0000   1.0000
     1.0000   1.0000   1.0000   1.0000   1.0000   1.0000   1.0000   1.0000
     1.0000   1.0000   1.0000   1.0000   1.0000   0.0000   0.0000   0.0000
     0.0000   0.0000   0.0000   0.0000   0.0000   0.0000

          k = 0.0884 0.0884-0.0884 ( 40023 PWs)   bands (ev):

   -68.5927 -62.1969 -39.9280 -39.9280 -39.9280 -36.0842 -36.0842 -36.0842
   -29.1667 -16.2268 -16.0476 -16.0391 -16.0391 -15.9850 -15.9850 -12.6136
   -12.6136 -12.6132  -6.8250  -5.2355  -5.0143  -5.0143  -4.8361  -4.8361
    -4.3157  -3.2052  -3.1790  -3.1790  -2.5741  -2.5741  -2.3711  -2.3533
    -2.3533  -2.0526  -2.0526  -1.9887  -1.8918  -1.8511  -1.8511  -1.5200
    -1.4721  -1.4721   0.5750   0.5771   0.5771   3.3790   3.3940   3.3940
     5.2866   5.6042   5.6042   5.7447   5.8032   5.8032

     occupation numbers 
     1.0000   1.0000   1.0000   1.0000   1.0000   1.0000   1.0000   1.0000
     1.0000   1.0000   1.0000   1.0000   1.0000   1.0000   1.0000   1.0000
     1.0000   1.0000   1.0000   1.0000   1.0000   1.0000   1.0000   1.0000
     1.0000   1.0000   1.0000   1.0000   1.0000   1.0000   1.0000   1.0000
     1.0000   1.0000   1.0000   1.0000   1.0000   1.0000   1.0000   1.0000
     1.0000   1.0000   1.0000   1.0000   1.0000   0.0000   0.0000   0.0000
     0.0000   0.0000   0.0000   0.0000   0.0000   0.0000

          k = 0.1768 0.1768-0.1768 ( 40014 PWs)   bands (ev):

   -68.5927 -62.1969 -39.9280 -39.9280 -39.9280 -36.0842 -36.0842 -36.0842
   -29.1667 -16.2106 -16.0655 -16.0334 -16.0334 -15.9908 -15.9908 -12.6132
   -12.6132 -12.6118  -6.7042  -5.5807  -4.9876  -4.9876  -4.8378  -4.8378
    -3.9993  -3.2240  -3.1147  -3.1147  -2.6519  -2.6519  -2.4123  -2.3958
    -2.3958  -2.1837  -2.1837  -1.9973  -1.9449  -1.8133  -1.8133  -1.5725
    -1.4241  -1.4241   0.7128   0.7166   0.7166   3.2582   3.3086   3.3086
     5.4928   5.6428   5.6428   5.8641   5.9686   5.9686

     occupation numbers 
     1.0000   1.0000   1.0000   1.0000   1.0000   1.0000   1.0000   1.0000
     1.0000   1.0000   1.0000   1.0000   1.0000   1.0000   1.0000   1.0000
     1.0000   1.0000   1.0000   1.0000   1.0000   1.0000   1.0000   1.0000
     1.0000   1.0000   1.0000   1.0000   1.0000   1.0000   1.0000   1.0000
     1.0000   1.0000   1.0000   1.0000   1.0000   1.0000   1.0000   1.0000
     1.0000   1.0000   1.0000   1.0000   1.0000   0.0000   0.0000   0.0000
     0.0000   0.0000   0.0000   0.0000   0.0000   0.0000

          k = 0.2652 0.2652-0.2652 ( 40026 PWs)   bands (ev):

   -68.5927 -62.1969 -39.9280 -39.9280 -39.9280 -36.0842 -36.0842 -36.0842
   -29.1667 -16.1889 -16.0889 -16.0254 -16.0254 -15.9990 -15.9990 -12.6129
   -12.6129 -12.6104  -6.5124  -5.9207  -4.9568  -4.9568  -4.8430  -4.8430
    -3.7147  -3.2821  -3.0303  -3.0303  -2.7099  -2.7099  -2.4632  -2.4632
    -2.4468  -2.3296  -2.3296  -2.1101  -1.8836  -1.7498  -1.7498  -1.6425
    -1.3966  -1.3966   0.8557   0.8565   0.8565   3.1308   3.2167   3.2167
     5.7223   5.7395   5.7395   6.0425   6.0909   6.0909

     occupation numbers 
     1.0000   1.0000   1.0000   1.0000   1.0000   1.0000   1.0000   1.0000
     1.0000   1.0000   1.0000   1.0000   1.0000   1.0000   1.0000   1.0000
     1.0000   1.0000   1.0000   1.0000   1.0000   1.0000   1.0000   1.0000
     1.0000   1.0000   1.0000   1.0000   1.0000   1.0000   1.0000   1.0000
     1.0000   1.0000   1.0000   1.0000   1.0000   1.0000   1.0000   1.0000
     1.0000   1.0000   1.0000   1.0000   1.0000   0.0000   0.0000   0.0000
     0.0000   0.0000   0.0000   0.0000   0.0000   0.0000

          k =-0.3536-0.3536 0.3536 ( 40094 PWs)   bands (ev):

   -68.5927 -62.1969 -39.9280 -39.9280 -39.9280 -36.0842 -36.0842 -36.0842
   -29.1667 -16.1760 -16.1025 -16.0198 -16.0198 -16.0046 -16.0046 -12.6127
   -12.6127 -12.6098  -6.3173  -6.1666  -4.9419  -4.9419  -4.8471  -4.8471
    -3.5572  -3.3551  -2.9841  -2.9841  -2.7297  -2.7297  -2.4999  -2.4999
    -2.4567  -2.3944  -2.3944  -2.1613  -1.8438  -1.7194  -1.7194  -1.6859
    -1.3904  -1.3904   0.9152   0.9152   0.9173   3.0752   3.1763   3.1763
     5.8017   5.8017   5.8147   6.1151   6.1151   6.1706

     occupation numbers 
     1.0000   1.0000   1.0000   1.0000   1.0000   1.0000   1.0000   1.0000
     1.0000   1.0000   1.0000   1.0000   1.0000   1.0000   1.0000   1.0000
     1.0000   1.0000   1.0000   1.0000   1.0000   1.0000   1.0000   1.0000
     1.0000   1.0000   1.0000   1.0000   1.0000   1.0000   1.0000   1.0000
     1.0000   1.0000   1.0000   1.0000   1.0000   1.0000   1.0000   1.0000
     1.0000   1.0000   1.0000   1.0000   1.0000   0.0000   0.0000   0.0000
     0.0000   0.0000   0.0000   0.0000   0.0000   0.0000

          k = 0.1768 0.0000 0.0000 ( 40009 PWs)   bands (ev):

   -68.5927 -62.1969 -39.9280 -39.9280 -39.9280 -36.0842 -36.0842 -36.0842
   -29.1667 -16.2249 -16.0438 -16.0414 -16.0414 -15.9886 -15.9827 -12.6135
   -12.6135 -12.6132  -6.8130  -5.2728  -5.0141  -5.0141  -4.8389  -4.8364
    -4.2706  -3.2070  -3.1705  -3.1705  -2.6386  -2.5283  -2.3819  -2.3578
    -2.3578  -2.0648  -2.0648  -2.0118  -1.9116  -1.9116  -1.7579  -1.5013
    -1.4750  -1.4750   0.5191   0.6283   0.6283   3.3609   3.3609   3.4290
     5.3106   5.5613   5.6350   5.7914   5.7914   5.8185

     occupation numbers 
     1.0000   1.0000   1.0000   1.0000   1.0000   1.0000   1.0000   1.0000
     1.0000   1.0000   1.0000   1.0000   1.0000   1.0000   1.0000   1.0000
     1.0000   1.0000   1.0000   1.0000   1.0000   1.0000   1.0000   1.0000
     1.0000   1.0000   1.0000   1.0000   1.0000   1.0000   1.0000   1.0000
     1.0000   1.0000   1.0000   1.0000   1.0000   1.0000   1.0000   1.0000
     1.0000   1.0000   1.0000   1.0000   1.0000   0.0000   0.0000   0.0000
     0.0000   0.0000   0.0000   0.0000   0.0000   0.0000

          k = 0.2652 0.0884-0.0884 ( 40035 PWs)   bands (ev):

   -68.5927 -62.1969 -39.9280 -39.9280 -39.9280 -36.0842 -36.0842 -36.0842
   -29.1667 -16.2124 -16.0572 -16.0396 -16.0347 -15.9959 -15.9847 -12.6132
   -12.6131 -12.6121  -6.7238  -5.5241  -4.9955  -4.9921  -4.8417  -4.8373
    -4.0339  -3.2142  -3.1245  -3.1197  -2.7265  -2.5684  -2.4513  -2.3785
    -2.3672  -2.1960  -2.1624  -1.9836  -1.9819  -1.9182  -1.6762  -1.5403
    -1.4419  -1.4235   0.5772   0.7534   0.7537   3.2818   3.2949   3.3938
     5.4606   5.6031   5.6429   5.8588   5.9262   5.9298

     occupation numbers 
     1.0000   1.0000   1.0000   1.0000   1.0000   1.0000   1.0000   1.0000
     1.0000   1.0000   1.0000   1.0000   1.0000   1.0000   1.0000   1.0000
     1.0000   1.0000   1.0000   1.0000   1.0000   1.0000   1.0000   1.0000
     1.0000   1.0000   1.0000   1.0000   1.0000   1.0000   1.0000   1.0000
     1.0000   1.0000   1.0000   1.0000   1.0000   1.0000   1.0000   1.0000
     1.0000   1.0000   1.0000   1.0000   1.0000   0.0000   0.0000   0.0000
     0.0000   0.0000   0.0000   0.0000   0.0000   0.0000

          k = 0.3536 0.1768-0.1768 ( 40059 PWs)   bands (ev):

   -68.5927 -62.1969 -39.9280 -39.9280 -39.9280 -36.0842 -36.0842 -36.0842
   -29.1667 -16.1926 -16.0790 -16.0340 -16.0258 -16.0047 -15.9905 -12.6127
   -12.6127 -12.6108  -6.5641  -5.8306  -4.9664  -4.9594  -4.8469  -4.8408
    -3.7678  -3.2468  -3.0610  -3.0419  -2.7866  -2.6357  -2.5241  -2.4301
    -2.4137  -2.3408  -2.2810  -2.1021  -1.9198  -1.8585  -1.6260  -1.6113
    -1.4022  -1.3770   0.7162   0.8800   0.8806   3.1837   3.2298   3.3043
     5.6371   5.6953   5.7637   5.9657   6.0402   6.0847

     occupation numbers 
     1.0000   1.0000   1.0000   1.0000   1.0000   1.0000   1.0000   1.0000
     1.0000   1.0000   1.0000   1.0000   1.0000   1.0000   1.0000   1.0000
     1.0000   1.0000   1.0000   1.0000   1.0000   1.0000   1.0000   1.0000
     1.0000   1.0000   1.0000   1.0000   1.0000   1.0000   1.0000   1.0000
     1.0000   1.0000   1.0000   1.0000   1.0000   1.0000   1.0000   1.0000
     1.0000   1.0000   1.0000   1.0000   1.0000   0.0000   0.0000   0.0000
     0.0000   0.0000   0.0000   0.0000   0.0000   0.0000

          k =-0.2652-0.4419 0.4419 ( 40040 PWs)   bands (ev):

   -68.5927 -62.1969 -39.9280 -39.9280 -39.9280 -36.0842 -36.0842 -36.0842
   -29.1667 -16.1753 -16.0977 -16.0259 -16.0235 -16.0068 -15.9986 -12.6126
   -12.6124 -12.6100  -6.3576  -6.1117  -4.9428  -4.9370  -4.8542  -4.8458
    -3.5634  -3.3233  -3.0204  -2.9750  -2.7816  -2.7039  -2.5530  -2.5228
    -2.4321  -2.3819  -2.3642  -2.2057  -1.8590  -1.7802  -1.6764  -1.6372
    -1.3673  -1.3642   0.8567   0.9335   0.9343   3.1226   3.2077   3.2145
     5.7545   5.7726   5.8521   6.0634   6.1108   6.1829

     occupation numbers 
     1.0000   1.0000   1.0000   1.0000   1.0000   1.0000   1.0000   1.0000
     1.0000   1.0000   1.0000   1.0000   1.0000   1.0000   1.0000   1.0000
     1.0000   1.0000   1.0000   1.0000   1.0000   1.0000   1.0000   1.0000
     1.0000   1.0000   1.0000   1.0000   1.0000   1.0000   1.0000   1.0000
     1.0000   1.0000   1.0000   1.0000   1.0000   1.0000   1.0000   1.0000
     1.0000   1.0000   1.0000   1.0000   1.0000   0.0000   0.0000   0.0000
     0.0000   0.0000   0.0000   0.0000   0.0000   0.0000

          k =-0.1768-0.3536 0.3536 ( 40010 PWs)   bands (ev):

   -68.5927 -62.1969 -39.9280 -39.9280 -39.9280 -36.0842 -36.0842 -36.0842
   -29.1667 -16.1795 -16.0936 -16.0314 -16.0199 -16.0046 -15.9986 -12.6127
   -12.6123 -12.6102  -6.4203  -6.0368  -4.9458  -4.9437  -4.8518  -4.8446
    -3.6152  -3.2938  -3.0426  -2.9835  -2.7555  -2.7233  -2.5251  -2.5043
    -2.4394  -2.3754  -2.3217  -2.2077  -1.8706  -1.7309  -1.7017  -1.6641
    -1.3904  -1.3480   0.8792   0.8820   0.9160   3.1215   3.2002   3.2468
     5.7195   5.7715   5.8281   6.0520   6.0816   6.1692

     occupation numbers 
     1.0000   1.0000   1.0000   1.0000   1.0000   1.0000   1.0000   1.0000
     1.0000   1.0000   1.0000   1.0000   1.0000   1.0000   1.0000   1.0000
     1.0000   1.0000   1.0000   1.0000   1.0000   1.0000   1.0000   1.0000
     1.0000   1.0000   1.0000   1.0000   1.0000   1.0000   1.0000   1.0000
     1.0000   1.0000   1.0000   1.0000   1.0000   1.0000   1.0000   1.0000
     1.0000   1.0000   1.0000   1.0000   1.0000   0.0000   0.0000   0.0000
     0.0000   0.0000   0.0000   0.0000   0.0000   0.0000

          k =-0.0884-0.2652 0.2652 ( 40013 PWs)   bands (ev):

   -68.5927 -62.1969 -39.9280 -39.9280 -39.9280 -36.0842 -36.0842 -36.0842
   -29.1667 -16.1995 -16.0728 -16.0387 -16.0250 -15.9993 -15.9906 -12.6131
   -12.6126 -12.6112  -6.6195  -5.7411  -4.9762  -4.9678  -4.8441  -4.8390
    -3.8501  -3.2260  -3.0967  -3.0662  -2.7289  -2.6614  -2.4669  -2.4265
    -2.3973  -2.3095  -2.1969  -2.1149  -1.9325  -1.7802  -1.7373  -1.5974
    -1.4257  -1.3717   0.7511   0.7571   0.8559   3.1827   3.2673   3.3194
     5.5970   5.6686   5.7003   5.9283   6.0056   6.0633

     occupation numbers 
     1.0000   1.0000   1.0000   1.0000   1.0000   1.0000   1.0000   1.0000
     1.0000   1.0000   1.0000   1.0000   1.0000   1.0000   1.0000   1.0000
     1.0000   1.0000   1.0000   1.0000   1.0000   1.0000   1.0000   1.0000
     1.0000   1.0000   1.0000   1.0000   1.0000   1.0000   1.0000   1.0000
     1.0000   1.0000   1.0000   1.0000   1.0000   1.0000   1.0000   1.0000
     1.0000   1.0000   1.0000   1.0000   1.0000   0.0000   0.0000   0.0000
     0.0000   0.0000   0.0000   0.0000   0.0000   0.0000

          k = 0.0000-0.1768 0.1768 ( 40006 PWs)   bands (ev):

   -68.5927 -62.1969 -39.9280 -39.9280 -39.9280 -36.0842 -36.0842 -36.0842
   -29.1667 -16.2176 -16.0548 -16.0416 -16.0331 -15.9910 -15.9857 -12.6135
   -12.6132 -12.6125  -6.7590  -5.4432  -5.0036  -4.9962  -4.8390  -4.8363
    -4.1176  -3.2080  -3.1477  -3.1420  -2.6581  -2.5948  -2.3921  -2.3871
    -2.3618  -2.1619  -2.0877  -1.9951  -1.9776  -1.8351  -1.7895  -1.5403
    -1.4594  -1.4255   0.6262   0.6311   0.7150   3.2906   3.3456   3.3786
     5.4052   5.5976   5.6241   5.8244   5.8871   5.9085

     occupation numbers 
     1.0000   1.0000   1.0000   1.0000   1.0000   1.0000   1.0000   1.0000
     1.0000   1.0000   1.0000   1.0000   1.0000   1.0000   1.0000   1.0000
     1.0000   1.0000   1.0000   1.0000   1.0000   1.0000   1.0000   1.0000
     1.0000   1.0000   1.0000   1.0000   1.0000   1.0000   1.0000   1.0000
     1.0000   1.0000   1.0000   1.0000   1.0000   1.0000   1.0000   1.0000
     1.0000   1.0000   1.0000   1.0000   1.0000   0.0000   0.0000   0.0000
     0.0000   0.0000   0.0000   0.0000   0.0000   0.0000

          k = 0.3536 0.0000 0.0000 ( 40046 PWs)   bands (ev):

   -68.5927 -62.1969 -39.9280 -39.9280 -39.9280 -36.0842 -36.0842 -36.0842
   -29.1667 -16.2047 -16.0498 -16.0420 -16.0420 -16.0047 -15.9824 -12.6127
   -12.6127 -12.6118  -6.6773  -5.6047  -4.9879  -4.9879  -4.8492  -4.8372
    -3.9307  -3.2213  -3.0827  -3.0827  -2.8321  -2.5451  -2.5266  -2.3798
    -2.3798  -2.2566  -2.2566  -2.0299  -1.9734  -1.9734  -1.5194  -1.5025
    -1.4318  -1.4318   0.5202   0.8459   0.8459   3.2827   3.2827   3.4318
     5.4897   5.6499   5.6699   5.8811   5.9442   5.9442

     occupation numbers 
     1.0000   1.0000   1.0000   1.0000   1.0000   1.0000   1.0000   1.0000
     1.0000   1.0000   1.0000   1.0000   1.0000   1.0000   1.0000   1.0000
     1.0000   1.0000   1.0000   1.0000   1.0000   1.0000   1.0000   1.0000
     1.0000   1.0000   1.0000   1.0000   1.0000   1.0000   1.0000   1.0000
     1.0000   1.0000   1.0000   1.0000   1.0000   1.0000   1.0000   1.0000
     1.0000   1.0000   1.0000   1.0000   1.0000   0.0000   0.0000   0.0000
     0.0000   0.0000   0.0000   0.0000   0.0000   0.0000

          k = 0.4419 0.0884-0.0884 ( 40048 PWs)   bands (ev):

   -68.5927 -62.1969 -39.9280 -39.9280 -39.9280 -36.0842 -36.0842 -36.0842
   -29.1667 -16.1895 -16.0652 -16.0403 -16.0333 -16.0148 -15.9843 -12.6124
   -12.6123 -12.6109  -6.5695  -5.7926  -4.9678  -4.9624  -4.8563  -4.8388
    -3.7494  -3.2326  -3.0463  -3.0151  -2.9011  -2.6310  -2.5585  -2.4508
    -2.4283  -2.3476  -2.3354  -2.0358  -1.9948  -1.9621  -1.5530  -1.4629
    -1.3815  -1.3676   0.5783   0.9382   0.9385   3.2632   3.2771   3.3964
     5.5716   5.6677   5.8367   5.9023   6.0227   6.0416

     occupation numbers 
     1.0000   1.0000   1.0000   1.0000   1.0000   1.0000   1.0000   1.0000
     1.0000   1.0000   1.0000   1.0000   1.0000   1.0000   1.0000   1.0000
     1.0000   1.0000   1.0000   1.0000   1.0000   1.0000   1.0000   1.0000
     1.0000   1.0000   1.0000   1.0000   1.0000   1.0000   1.0000   1.0000
     1.0000   1.0000   1.0000   1.0000   1.0000   1.0000   1.0000   1.0000
     1.0000   1.0000   1.0000   1.0000   1.0000   0.0000   0.0000   0.0000
     0.0000   0.0000   0.0000   0.0000   0.0000   0.0000

          k =-0.1768-0.5303 0.5303 ( 40037 PWs)   bands (ev):

   -68.5927 -62.1969 -39.9280 -39.9280 -39.9280 -36.0842 -36.0842 -36.0842
   -29.1667 -16.1731 -16.0846 -16.0346 -16.0319 -16.0144 -15.9901 -12.6122
   -12.6117 -12.6103  -6.4146  -6.0171  -4.9450  -4.9295  -4.8693  -4.8427
    -3.5645  -3.2719  -3.0747  -2.9440  -2.8758  -2.6533  -2.6472  -2.5516
    -2.4704  -2.3804  -2.3692  -2.1548  -1.9155  -1.8911  -1.6384  -1.5069
    -1.3430  -1.2916   0.7170   0.9770   0.9770   3.2360   3.2850   3.3062
     5.6934   5.7171   5.8467   6.0055   6.0864   6.1979

     occupation numbers 
     1.0000   1.0000   1.0000   1.0000   1.0000   1.0000   1.0000   1.0000
     1.0000   1.0000   1.0000   1.0000   1.0000   1.0000   1.0000   1.0000
     1.0000   1.0000   1.0000   1.0000   1.0000   1.0000   1.0000   1.0000
     1.0000   1.0000   1.0000   1.0000   1.0000   1.0000   1.0000   1.0000
     1.0000   1.0000   1.0000   1.0000   1.0000   1.0000   1.0000   1.0000
     1.0000   1.0000   1.0000   1.0000   1.0000   0.0000   0.0000   0.0000
     0.0000   0.0000   0.0000   0.0000   0.0000   0.0000

          k =-0.0884-0.4419 0.4419 ( 40068 PWs)   bands (ev):

   -68.5927 -62.1969 -39.9280 -39.9280 -39.9280 -36.0842 -36.0842 -36.0842
   -29.1667 -16.1690 -16.0918 -16.0394 -16.0263 -16.0039 -15.9984 -12.6123
   -12.6114 -12.6104  -6.3212  -6.1353  -4.9347  -4.9229  -4.8727  -4.8451
    -3.5143  -3.2777  -3.1116  -2.9156  -2.8106  -2.7647  -2.6020  -2.5675
    -2.4355  -2.3815  -2.3465  -2.2650  -1.8681  -1.7997  -1.6893  -1.5898
    -1.3490  -1.2719   0.8570   0.9374   0.9403   3.1839   3.2476   3.3039
     5.7047   5.7633   5.8887   6.0064   6.0378   6.2687

     occupation numbers 
     1.0000   1.0000   1.0000   1.0000   1.0000   1.0000   1.0000   1.0000
     1.0000   1.0000   1.0000   1.0000   1.0000   1.0000   1.0000   1.0000
     1.0000   1.0000   1.0000   1.0000   1.0000   1.0000   1.0000   1.0000
     1.0000   1.0000   1.0000   1.0000   1.0000   1.0000   1.0000   1.0000
     1.0000   1.0000   1.0000   1.0000   1.0000   1.0000   1.0000   1.0000
     1.0000   1.0000   1.0000   1.0000   1.0000   0.0000   0.0000   0.0000
     0.0000   0.0000   0.0000   0.0000   0.0000   0.0000

          k = 0.0000-0.3536 0.3536 ( 40038 PWs)   bands (ev):

   -68.5927 -62.1969 -39.9280 -39.9280 -39.9280 -36.0842 -36.0842 -36.0842
   -29.1667 -16.1825 -16.0828 -16.0426 -16.0199 -16.0046 -15.9952 -12.6127
   -12.6118 -12.6108  -6.4777  -5.9510  -4.9507  -4.9455  -4.8568  -4.8422
    -3.6624  -3.2182  -3.1212  -2.9827  -2.7789  -2.7238  -2.5359  -2.5015
    -2.4216  -2.3608  -2.2614  -2.2500  -1.9010  -1.7357  -1.6880  -1.6496
    -1.3903  -1.3074   0.8432   0.8498   0.9160   3.1413   3.2516   3.3191
     5.6574   5.7255   5.8319   6.0005   6.0160   6.1776

     occupation numbers 
     1.0000   1.0000   1.0000   1.0000   1.0000   1.0000   1.0000   1.0000
     1.0000   1.0000   1.0000   1.0000   1.0000   1.0000   1.0000   1.0000
     1.0000   1.0000   1.0000   1.0000   1.0000   1.0000   1.0000   1.0000
     1.0000   1.0000   1.0000   1.0000   1.0000   1.0000   1.0000   1.0000
     1.0000   1.0000   1.0000   1.0000   1.0000   1.0000   1.0000   1.0000
     1.0000   1.0000   1.0000   1.0000   1.0000   0.0000   0.0000   0.0000
     0.0000   0.0000   0.0000   0.0000   0.0000   0.0000

          k = 0.5303 0.0000 0.0000 ( 40022 PWs)   bands (ev):

   -68.5927 -62.1969 -39.9280 -39.9280 -39.9280 -36.0842 -36.0842 -36.0842
   -29.1667 -16.1808 -16.0535 -16.0427 -16.0427 -16.0269 -15.9821 -12.6120
   -12.6120 -12.6104  -6.5302  -5.8292  -4.9602  -4.9602  -4.8620  -4.8380
    -3.6663  -3.2505  -3.0198  -2.9575  -2.9575  -2.7303  -2.5282  -2.5282
    -2.5247  -2.3501  -2.3501  -2.0481  -2.0100  -2.0100  -1.5036  -1.3984
    -1.3984  -1.2774   0.5214   0.9961   0.9961   3.3326   3.3326   3.4348
     5.5675   5.6632   5.7877   6.0274   6.0274   6.0485

     occupation numbers 
     1.0000   1.0000   1.0000   1.0000   1.0000   1.0000   1.0000   1.0000
     1.0000   1.0000   1.0000   1.0000   1.0000   1.0000   1.0000   1.0000
     1.0000   1.0000   1.0000   1.0000   1.0000   1.0000   1.0000   1.0000
     1.0000   1.0000   1.0000   1.0000   1.0000   1.0000   1.0000   1.0000
     1.0000   1.0000   1.0000   1.0000   1.0000   1.0000   1.0000   1.0000
     1.0000   1.0000   1.0000   1.0000   1.0000   0.0000   0.0000   0.0000
     0.0000   0.0000   0.0000   0.0000   0.0000   0.0000

          k =-0.0884-0.6187 0.6187 ( 40061 PWs)   bands (ev):

   -68.5927 -62.1969 -39.9280 -39.9280 -39.9280 -36.0842 -36.0842 -36.0842
   -29.1667 -16.1704 -16.0663 -16.0407 -16.0401 -16.0279 -15.9841 -12.6118
   -12.6116 -12.6101  -6.4532  -5.9368  -4.9473  -4.9384  -4.8720  -4.8397
    -3.5514  -3.2754  -3.0877  -2.9057  -2.8937  -2.7519  -2.6363  -2.5924
    -2.5394  -2.3778  -2.3590  -2.0630  -2.0048  -1.9854  -1.5600  -1.4176
    -1.3571  -1.2105   0.5792   1.0198   1.0200   3.3509   3.3649   3.3974
     5.6501   5.6789   5.7441   6.0170   6.0446   6.2122

     occupation numbers 
     1.0000   1.0000   1.0000   1.0000   1.0000   1.0000   1.0000   1.0000
     1.0000   1.0000   1.0000   1.0000   1.0000   1.0000   1.0000   1.0000
     1.0000   1.0000   1.0000   1.0000   1.0000   1.0000   1.0000   1.0000
     1.0000   1.0000   1.0000   1.0000   1.0000   1.0000   1.0000   1.0000
     1.0000   1.0000   1.0000   1.0000   1.0000   1.0000   1.0000   1.0000
     1.0000   1.0000   1.0000   1.0000   1.0000   0.0000   0.0000   0.0000
     0.0000   0.0000   0.0000   0.0000   0.0000   0.0000

          k = 0.0000-0.5303 0.5303 ( 40054 PWs)   bands (ev):

   -68.5927 -62.1969 -39.9280 -39.9280 -39.9280 -36.0842 -36.0842 -36.0842
   -29.1667 -16.1648 -16.0822 -16.0434 -16.0348 -16.0144 -15.9900 -12.6120
   -12.6110 -12.6104  -6.3554  -6.0751  -4.9363  -4.9057  -4.8926  -4.8429
    -3.4732  -3.2886  -3.1244  -2.8902  -2.8691  -2.7287  -2.6865  -2.5654
    -2.5486  -2.3853  -2.3628  -2.1721  -1.9192  -1.9000  -1.6487  -1.4876
    -1.3303  -1.2127   0.7174   0.9956   0.9971   3.2964   3.3134   3.3536
     5.6970   5.7191   5.8315   5.9848   6.0073   6.2423

     occupation numbers 
     1.0000   1.0000   1.0000   1.0000   1.0000   1.0000   1.0000   1.0000
     1.0000   1.0000   1.0000   1.0000   1.0000   1.0000   1.0000   1.0000
     1.0000   1.0000   1.0000   1.0000   1.0000   1.0000   1.0000   1.0000
     1.0000   1.0000   1.0000   1.0000   1.0000   1.0000   1.0000   1.0000
     1.0000   1.0000   1.0000   1.0000   1.0000   1.0000   1.0000   1.0000
     1.0000   1.0000   1.0000   1.0000   1.0000   0.0000   0.0000   0.0000
     0.0000   0.0000   0.0000   0.0000   0.0000   0.0000

          k =-0.7071 0.0000 0.0000 ( 40170 PWs)   bands (ev):

   -68.5927 -62.1969 -39.9280 -39.9280 -39.9280 -36.0842 -36.0842 -36.0842
   -29.1667 -16.1691 -16.0494 -16.0436 -16.0429 -16.0429 -15.9819 -12.6117
   -12.6117 -12.6098  -6.4666  -5.9047  -4.9482  -4.9482  -4.8684  -4.8384
    -3.5418  -3.2921  -3.0965  -2.8610  -2.8610  -2.8097  -2.6588  -2.6588
    -2.5239  -2.3590  -2.3590  -2.0556  -2.0239  -2.0239  -1.5041  -1.3859
    -1.3859  -1.1760   0.5219   1.0377   1.0377   3.3989   3.3989   3.4360
     5.6389   5.6683   5.6867   6.0228   6.0228   6.1622

     occupation numbers 
     1.0000   1.0000   1.0000   1.0000   1.0000   1.0000   1.0000   1.0000
     1.0000   1.0000   1.0000   1.0000   1.0000   1.0000   1.0000   1.0000
     1.0000   1.0000   1.0000   1.0000   1.0000   1.0000   1.0000   1.0000
     1.0000   1.0000   1.0000   1.0000   1.0000   1.0000   1.0000   1.0000
     1.0000   1.0000   1.0000   1.0000   1.0000   1.0000   1.0000   1.0000
     1.0000   1.0000   1.0000   1.0000   1.0000   0.0000   0.0000   0.0000
     0.0000   0.0000   0.0000   0.0000   0.0000   0.0000

          k = 0.3536 0.1768 0.0000 ( 40042 PWs)   bands (ev):

   -68.5927 -62.1969 -39.9280 -39.9280 -39.9280 -36.0842 -36.0842 -36.0842
   -29.1667 -16.1983 -16.0665 -16.0422 -16.0279 -16.0048 -15.9865 -12.6129
   -12.6124 -12.6114  -6.6210  -5.7247  -4.9773  -4.9691  -4.8487  -4.8387
    -3.8430  -3.2177  -3.0937  -3.0569  -2.8073  -2.5986  -2.5328  -2.3999
    -2.3968  -2.3180  -2.2580  -2.0603  -1.9630  -1.8997  -1.5899  -1.5706
    -1.4182  -1.3725   0.6296   0.8461   0.8801   3.2107   3.2774   3.3710
     5.5649   5.6604   5.7311   5.9056   5.9888   6.0432

     occupation numbers 
     1.0000   1.0000   1.0000   1.0000   1.0000   1.0000   1.0000   1.0000
     1.0000   1.0000   1.0000   1.0000   1.0000   1.0000   1.0000   1.0000
     1.0000   1.0000   1.0000   1.0000   1.0000   1.0000   1.0000   1.0000
     1.0000   1.0000   1.0000   1.0000   1.0000   1.0000   1.0000   1.0000
     1.0000   1.0000   1.0000   1.0000   1.0000   1.0000   1.0000   1.0000
     1.0000   1.0000   1.0000   1.0000   1.0000   0.0000   0.0000   0.0000
     0.0000   0.0000   0.0000   0.0000   0.0000   0.0000

          k =-0.2652-0.4419 0.6187 ( 40028 PWs)   bands (ev):

   -68.5927 -62.1969 -39.9280 -39.9280 -39.9280 -36.0842 -36.0842 -36.0842
   -29.1667 -16.1799 -16.0837 -16.0392 -16.0237 -16.0093 -15.9922 -12.6125
   -12.6119 -12.6105  -6.4611  -5.9682  -4.9494  -4.9417  -4.8596  -4.8425
    -3.6347  -3.2460  -3.0854  -2.9736  -2.8408  -2.6623  -2.5857  -2.5144
    -2.4185  -2.3848  -2.3359  -2.1685  -1.9059  -1.8434  -1.6455  -1.5736
    -1.3619  -1.3240   0.7548   0.9337   0.9388   3.1728   3.2560   3.3140
     5.6694   5.7197   5.8517   5.9928   6.0564   6.1652

     occupation numbers 
     1.0000   1.0000   1.0000   1.0000   1.0000   1.0000   1.0000   1.0000
     1.0000   1.0000   1.0000   1.0000   1.0000   1.0000   1.0000   1.0000
     1.0000   1.0000   1.0000   1.0000   1.0000   1.0000   1.0000   1.0000
     1.0000   1.0000   1.0000   1.0000   1.0000   1.0000   1.0000   1.0000
     1.0000   1.0000   1.0000   1.0000   1.0000   1.0000   1.0000   1.0000
     1.0000   1.0000   1.0000   1.0000   1.0000   0.0000   0.0000   0.0000
     0.0000   0.0000   0.0000   0.0000   0.0000   0.0000

          k =-0.1768-0.3536 0.5303 ( 40076 PWs)   bands (ev):

   -68.5927 -62.1969 -39.9280 -39.9280 -39.9280 -36.0842 -36.0842 -36.0842
   -29.1667 -16.1696 -16.0940 -16.0325 -16.0301 -16.0033 -15.9990 -12.6123
   -12.6117 -12.6102  -6.3137  -6.1470  -4.9345  -4.9268  -4.8685  -4.8456
    -3.5129  -3.3033  -3.0761  -2.9378  -2.8191  -2.7207  -2.5922  -2.5810
    -2.4344  -2.3956  -2.3488  -2.2417  -1.8628  -1.8077  -1.6935  -1.5865
    -1.3277  -1.3114   0.8781   0.8840   0.9770   3.1812   3.2311   3.2811
     5.7226   5.7647   5.8811   6.0357   6.0510   6.2561

     occupation numbers 
     1.0000   1.0000   1.0000   1.0000   1.0000   1.0000   1.0000   1.0000
     1.0000   1.0000   1.0000   1.0000   1.0000   1.0000   1.0000   1.0000
     1.0000   1.0000   1.0000   1.0000   1.0000   1.0000   1.0000   1.0000
     1.0000   1.0000   1.0000   1.0000   1.0000   1.0000   1.0000   1.0000
     1.0000   1.0000   1.0000   1.0000   1.0000   1.0000   1.0000   1.0000
     1.0000   1.0000   1.0000   1.0000   1.0000   0.0000   0.0000   0.0000
     0.0000   0.0000   0.0000   0.0000   0.0000   0.0000

          k =-0.1768-0.5303 0.7071 ( 40038 PWs)   bands (ev):

   -68.5927 -62.1969 -39.9280 -39.9280 -39.9280 -36.0842 -36.0842 -36.0842
   -29.1667 -16.1762 -16.0723 -16.0428 -16.0321 -16.0190 -15.9863 -12.6121
   -12.6117 -12.6104  -6.4721  -5.9285  -4.9495  -4.9418  -4.8676  -4.8405
    -3.6094  -3.2458  -3.0756  -2.9440  -2.9148  -2.6900  -2.5873  -2.5475
    -2.5072  -2.3863  -2.3472  -2.0829  -1.9637  -1.9538  -1.5942  -1.4657
    -1.3360  -1.2832   0.6306   0.9770   0.9961   3.2651   3.3254   3.3746
     5.6375   5.6842   5.8139   6.0125   6.0467   6.1621

     occupation numbers 
     1.0000   1.0000   1.0000   1.0000   1.0000   1.0000   1.0000   1.0000
     1.0000   1.0000   1.0000   1.0000   1.0000   1.0000   1.0000   1.0000
     1.0000   1.0000   1.0000   1.0000   1.0000   1.0000   1.0000   1.0000
     1.0000   1.0000   1.0000   1.0000   1.0000   1.0000   1.0000   1.0000
     1.0000   1.0000   1.0000   1.0000   1.0000   1.0000   1.0000   1.0000
     1.0000   1.0000   1.0000   1.0000   1.0000   0.0000   0.0000   0.0000
     0.0000   0.0000   0.0000   0.0000   0.0000   0.0000

          k =-0.0884-0.4419 0.6187 ( 40051 PWs)   bands (ev):

   -68.5927 -62.1969 -39.9280 -39.9280 -39.9280 -36.0842 -36.0842 -36.0842
   -29.1667 -16.1657 -16.0834 -16.0402 -16.0388 -16.0093 -15.9921 -12.6119
   -12.6112 -12.6104  -6.3503  -6.0849  -4.9315  -4.9154  -4.8861  -4.8438
    -3.4850  -3.2784  -3.1129  -2.9411  -2.8459  -2.6947  -2.6670  -2.5981
    -2.5397  -2.3803  -2.3530  -2.1764  -1.9066  -1.8847  -1.6716  -1.5131
    -1.2990  -1.2417   0.7554   0.9391   1.0199   3.2685   3.2946   3.3631
     5.6890   5.7261   5.8435   5.9888   6.0202   6.2411

     occupation numbers 
     1.0000   1.0000   1.0000   1.0000   1.0000   1.0000   1.0000   1.0000
     1.0000   1.0000   1.0000   1.0000   1.0000   1.0000   1.0000   1.0000
     1.0000   1.0000   1.0000   1.0000   1.0000   1.0000   1.0000   1.0000
     1.0000   1.0000   1.0000   1.0000   1.0000   1.0000   1.0000   1.0000
     1.0000   1.0000   1.0000   1.0000   1.0000   1.0000   1.0000   1.0000
     1.0000   1.0000   1.0000   1.0000   1.0000   0.0000   0.0000   0.0000
     0.0000   0.0000   0.0000   0.0000   0.0000   0.0000

          k =-0.0000-0.3536 0.5303 ( 40063 PWs)   bands (ev):

   -68.5927 -62.1969 -39.9280 -39.9280 -39.9280 -36.0842 -36.0842 -36.0842
   -29.1667 -16.1675 -16.0869 -16.0431 -16.0313 -16.0031 -15.9972 -12.6121
   -12.6111 -12.6106  -6.3369  -6.1092  -4.9291  -4.9223  -4.8797  -4.8446
    -3.5060  -3.2542  -3.1331  -2.9192  -2.8520  -2.7224  -2.6098  -2.6047
    -2.4903  -2.3778  -2.3406  -2.2263  -1.8802  -1.8330  -1.6974  -1.5575
    -1.3093  -1.2623   0.8467   0.8816   0.9962   3.2135   3.2749   3.3448
     5.6868   5.7437   5.8770   5.9911   6.0218   6.2726

     occupation numbers 
     1.0000   1.0000   1.0000   1.0000   1.0000   1.0000   1.0000   1.0000
     1.0000   1.0000   1.0000   1.0000   1.0000   1.0000   1.0000   1.0000
     1.0000   1.0000   1.0000   1.0000   1.0000   1.0000   1.0000   1.0000
     1.0000   1.0000   1.0000   1.0000   1.0000   1.0000   1.0000   1.0000
     1.0000   1.0000   1.0000   1.0000   1.0000   1.0000   1.0000   1.0000
     1.0000   1.0000   1.0000   1.0000   1.0000   0.0000   0.0000   0.0000
     0.0000   0.0000   0.0000   0.0000   0.0000   0.0000

          k =-0.7071 0.1768 0.0000 ( 40038 PWs)   bands (ev):

   -68.5927 -62.1969 -39.9280 -39.9280 -39.9280 -36.0842 -36.0842 -36.0842
   -29.1667 -16.1659 -16.0708 -16.0436 -16.0429 -16.0204 -15.9862 -12.6117
   -12.6114 -12.6101  -6.4090  -5.9964  -4.9375  -4.9271  -4.8808  -4.8410
    -3.4955  -3.2901  -3.1041  -2.9365  -2.8345  -2.7387  -2.6584  -2.6424
    -2.5510  -2.3921  -2.3548  -2.0908  -1.9724  -1.9664  -1.6017  -1.4477
    -1.3222  -1.1946   0.6310   0.9964   1.0377   3.3332   3.3680   3.3989
     5.6783   5.7011   5.7384   6.0055   6.0112   6.1811

     occupation numbers 
     1.0000   1.0000   1.0000   1.0000   1.0000   1.0000   1.0000   1.0000
     1.0000   1.0000   1.0000   1.0000   1.0000   1.0000   1.0000   1.0000
     1.0000   1.0000   1.0000   1.0000   1.0000   1.0000   1.0000   1.0000
     1.0000   1.0000   1.0000   1.0000   1.0000   1.0000   1.0000   1.0000
     1.0000   1.0000   1.0000   1.0000   1.0000   1.0000   1.0000   1.0000
     1.0000   1.0000   1.0000   1.0000   1.0000   0.0000   0.0000   0.0000
     0.0000   0.0000   0.0000   0.0000   0.0000   0.0000

          k =-0.7071 0.3536 0.0000 ( 39932 PWs)   bands (ev):

   -68.5927 -62.1969 -39.9280 -39.9280 -39.9280 -36.0842 -36.0842 -36.0842
   -29.1667 -16.1623 -16.0820 -16.0436 -16.0429 -16.0027 -15.9962 -12.6117
   -12.6108 -12.6107  -6.3101  -6.1269  -4.9139  -4.9072  -4.9060  -4.8448
    -3.4445  -3.2881  -3.1108  -2.9874  -2.7940  -2.6882  -2.6634  -2.6557
    -2.5878  -2.3539  -2.3517  -2.1926  -1.9051  -1.8593  -1.7076  -1.5255
    -1.2533  -1.2405   0.8433   0.8513   1.0377   3.2846   3.2882   3.3989
     5.6803   5.7251   5.8646   5.9450   5.9969   6.2024

     occupation numbers 
     1.0000   1.0000   1.0000   1.0000   1.0000   1.0000   1.0000   1.0000
     1.0000   1.0000   1.0000   1.0000   1.0000   1.0000   1.0000   1.0000
     1.0000   1.0000   1.0000   1.0000   1.0000   1.0000   1.0000   1.0000
     1.0000   1.0000   1.0000   1.0000   1.0000   1.0000   1.0000   1.0000
     1.0000   1.0000   1.0000   1.0000   1.0000   1.0000   1.0000   1.0000
     1.0000   1.0000   1.0000   1.0000   1.0000   0.0000   0.0000   0.0000
     0.0000   0.0000   0.0000   0.0000   0.0000   0.0000

     the Fermi energy is     2.0113 ev
     (compare with:     1.9965 eV, computed in scf)

     Writing all to output data dir /tmp/scratch/KVCr_U4_2_LCM/KVCr_U4_2_LCM.save/ :
     XML data file, pseudopotentials, collected wavefunctions

     init_run     :      3.39s CPU      3.72s WALL (       1 calls)
     electrons    :    269.79s CPU    293.82s WALL (       1 calls)

     Called by init_run:
     wfcinit      :      0.77s CPU      0.83s WALL (       1 calls)
     wfcinit:atom :      0.07s CPU      0.07s WALL (       4 calls)
     wfcinit:wfcr :      7.37s CPU      8.40s WALL (       4 calls)
     potinit      :      1.17s CPU      1.35s WALL (       1 calls)
     hinit0       :      1.05s CPU      1.09s WALL (       1 calls)

     Called by electrons:
     c_bands      :    269.72s CPU    293.73s WALL (       1 calls)
     v_of_rho     :      0.94s CPU      1.09s WALL (       1 calls)
     v_h          :      0.09s CPU      0.11s WALL (       1 calls)
     v_xc         :      0.85s CPU      0.98s WALL (       1 calls)

     Called by c_bands:
     init_us_2    :      0.25s CPU      0.26s WALL (       8 calls)
     cegterg      :    196.05s CPU    216.99s WALL (      14 calls)

     Called by sum_band:

     Called by *egterg:
     cdiaghg      :      0.86s CPU      0.97s WALL (     250 calls)
     cegterg:over :     10.54s CPU     10.76s WALL (     246 calls)
     cegterg:upda :      5.78s CPU      5.95s WALL (     246 calls)
     cegterg:last :     11.24s CPU     11.59s WALL (     146 calls)
     h_psi        :    170.84s CPU    191.94s WALL (     264 calls)
     g_psi        :      0.99s CPU      0.92s WALL (     246 calls)

     Called by h_psi:
     h_psi:calbec :      8.73s CPU      8.90s WALL (     264 calls)
     vloc_psi     :    150.47s CPU    170.99s WALL (     264 calls)
                                        0.00s GPU  (     264 calls)
     add_vuspsi   :      7.96s CPU      8.26s WALL (     264 calls)
     vhpsi        :      2.78s CPU      2.80s WALL (     264 calls)

     General routines
     calbec       :     10.61s CPU     10.82s WALL (     532 calls)
     fft          :      0.71s CPU      0.85s WALL (      19 calls)
     fftw         :    119.58s CPU    138.97s WALL (   15292 calls)

     Parallel routines

     Hubbard U routines
     vhpsi        :      2.78s CPU      2.80s WALL (     264 calls)

     PWSCF        :   4m33.89s CPU   4m58.77s WALL


   This run was terminated on:  11:52:59   3Oct2026            

=------------------------------------------------------------------------------=
   JOB DONE.
=------------------------------------------------------------------------------=
