
     Program PWSCF v.7.5 starts on  3Oct2026 at 11:36:12 

     This program is part of the open-source Quantum ESPRESSO suite
     for quantum simulation of materials; please cite
         "P. Giannozzi et al., J. Phys.:Condens. Matter 21 395502 (2009);
         "P. Giannozzi et al., J. Phys.:Condens. Matter 29 465901 (2017);
         "P. Giannozzi et al., J. Chem. Phys. 152 154105 (2020);
          URL http://www.quantum-espresso.org", 
     in publications or presentations arising from this work. More details at
     http://www.quantum-espresso.org/quote

     Parallel version (MPI & OpenMP), running on      32 processor cores
     Number of MPI processes:                32
     Threads/MPI process:                     1

     MPI processes distributed on     1 nodes
     409206 MiB available memory on the printing compute node when the environment starts

     Reading input from KVCr_U2_4_LCM_nscf.in

     Current dimensions of program PWSCF are:
     Max number of different atomic species (ntypx) = 10
     Max number of k-points (npk) =  40000
     Max angular momentum in pseudopotentials (lmaxx) =  4

     Atomic positions and unit cell read from directory:
     /tmp/scratch/KVCr_U2_4_LCM/KVCr_U2_4_LCM.save/

     Message from routine setup:
     using ibrav=0 with symmetry is DISCOURAGED, use correct ibrav instead

     K-points division:     npool     =      16
     R & G space division:  proc/nbgrp/npool/nimage =       2
     Subspace diagonalization in iterative solution of the eigenvalue problem:
     a serial algorithm will be used


     Parallelization info
     --------------------
     sticks:   dense  smooth     PW     G-vecs:    dense   smooth      PW
     Min        3090    3090    831               160420   160420   22367
     Max        3091    3091    832               160423   160423   22368
     Sum        6181    6181   1663               320843   320843   44735

     Using Slab Decomposition



     bravais-lattice index     =            0
     lattice parameter (alat)  =      14.2709  a.u.
     unit-cell volume          =    2055.1352 (a.u.)^3
     number of atoms/cell      =           15
     number of atomic types    =            5
     number of electrons       =        90.00
     number of Kohn-Sham states=           54
     kinetic-energy cutoff     =     110.0000  Ry
     charge density cutoff     =     440.0000  Ry
     Exchange-correlation= PBE
                           (   1   4   3   4   0   0   0)
     Hubbard projectors: ortho-atomic
     Hubbard parameters of DFT+U (Dudarev formulation) in eV:
     U(V-3d) =  2.0000
     U(Cr-3d) =  4.0000

     Internal variables: lda_plus_u =T, lda_plus_u_kind = 0

     Internal variables: orbital_resolved =F, hub_pot_fix =F, apply_U = F

     celldm(1)=  14.270914  celldm(2)=   0.000000  celldm(3)=   0.000000
     celldm(4)=   0.000000  celldm(5)=   0.000000  celldm(6)=   0.000000

     crystal axes: (cart. coord. in units of alat)
               a(1) = (   0.000000   0.707107   0.707107 )  
               a(2) = (   0.707107   0.000000   0.707107 )  
               a(3) = (   0.707107   0.707107   0.000000 )  

     reciprocal axes: (cart. coord. in units 2 pi/alat)
               b(1) = ( -0.707107  0.707107  0.707107 )  
               b(2) = (  0.707107 -0.707107  0.707107 )  
               b(3) = (  0.707107  0.707107 -0.707107 )  


     PseudoPot. # 1 for K  read from file:
     /data/pseudo/dojo_sr/K.upf
     MD5 check sum: 0aa97b2c023445f040759afc9fdb6c80
     Pseudo is Norm-conserving + core correction, Zval =  9.0
     Generated using ONCVPSP code by D. R. Hamann
     Using radial grid of 2222 points,  6 beta functions with: 
                l(1) =   0
                l(2) =   0
                l(3) =   1
                l(4) =   1
                l(5) =   2
                l(6) =   2

     PseudoPot. # 2 for V  read from file:
     /data/pseudo/dojo_sr/V.upf
     MD5 check sum: 40fb93c06b4f9d8c28c5ccd071294a04
     Pseudo is Norm-conserving + core correction, Zval = 13.0
     Generated using ONCVPSP code by D. R. Hamann
     Using radial grid of 1536 points,  6 beta functions with: 
                l(1) =   0
                l(2) =   0
                l(3) =   1
                l(4) =   1
                l(5) =   2
                l(6) =   2

     PseudoPot. # 3 for Cr read from file:
     /data/pseudo/dojo_sr/Cr.upf
     MD5 check sum: 41892f80c335c8b1e803fd21ab4016b0
     Pseudo is Norm-conserving + core correction, Zval = 14.0
     Generated using ONCVPSP code by D. R. Hamann
     Using radial grid of 1638 points,  6 beta functions with: 
                l(1) =   0
                l(2) =   0
                l(3) =   1
                l(4) =   1
                l(5) =   2
                l(6) =   2

     PseudoPot. # 4 for C  read from file:
     /data/pseudo/dojo_sr/C.upf
     MD5 check sum: 34a24e64c0a39f27c6c36b90a16ac686
     Pseudo is Norm-conserving + core correction, Zval =  4.0
     Generated using ONCVPSP code by D. R. Hamann
     Using radial grid of 1248 points,  4 beta functions with: 
                l(1) =   0
                l(2) =   0
                l(3) =   1
                l(4) =   1

     PseudoPot. # 5 for N  read from file:
     /data/pseudo/dojo_sr/N.upf
     MD5 check sum: d34365f73bb0e2ee98afc20ec3e87676
     Pseudo is Norm-conserving + core correction, Zval =  5.0
     Generated using ONCVPSP code by D. R. Hamann
     Using radial grid of 1058 points,  4 beta functions with: 
                l(1) =   0
                l(2) =   0
                l(3) =   1
                l(4) =   1

     atomic species   valence    mass     pseudopotential
     K                 9.00    39.09830     K ( 1.00)
     V                13.00    50.94150     V ( 1.00)
     Cr               14.00    51.99610     Cr( 1.00)
     C                 4.00    12.01100     C ( 1.00)
     N                 5.00    14.00700     N ( 1.00)

     Starting magnetic structure 
     atomic species   magnetization
     K               0.000
     V              -0.231
     Cr              0.214
     C               0.000
     N               0.000

     24 Sym. Ops. (no inversion) found


                                    s                        frac. trans.

      isym =  1     identity                                     

 cryst.   s( 1) = (     1          0          0      )
                  (     0          1          0      )
                  (     0          0          1      )

 cart.    s( 1) = (  1.0000000  0.0000000  0.0000000 )
                  (  0.0000000  1.0000000  0.0000000 )
                  (  0.0000000  0.0000000  1.0000000 )


      isym =  2     180 deg rotation - cart. axis [0,0,1]        

 cryst.   s( 2) = (     0          1         -1      )
                  (     1          0         -1      )
                  (     0          0         -1      )

 cart.    s( 2) = ( -1.0000000  0.0000000  0.0000000 )
                  (  0.0000000 -1.0000000  0.0000000 )
                  (  0.0000000  0.0000000  1.0000000 )


      isym =  3     180 deg rotation - cart. axis [0,1,0]        

 cryst.   s( 3) = (     0         -1          1      )
                  (     0         -1          0      )
                  (     1         -1          0      )

 cart.    s( 3) = ( -1.0000000  0.0000000  0.0000000 )
                  (  0.0000000  1.0000000  0.0000000 )
                  (  0.0000000  0.0000000 -1.0000000 )


      isym =  4     180 deg rotation - cart. axis [1,0,0]        

 cryst.   s( 4) = (    -1          0          0      )
                  (    -1          0          1      )
                  (    -1          1          0      )

 cart.    s( 4) = (  1.0000000  0.0000000  0.0000000 )
                  (  0.0000000 -1.0000000  0.0000000 )
                  (  0.0000000  0.0000000 -1.0000000 )


      isym =  5     120 deg rotation - cart. axis [-1,-1,-1]     

 cryst.   s( 5) = (     0          0          1      )
                  (     1          0          0      )
                  (     0          1          0      )

 cart.    s( 5) = (  0.0000000  1.0000000  0.0000000 )
                  (  0.0000000  0.0000000  1.0000000 )
                  (  1.0000000  0.0000000  0.0000000 )


      isym =  6     120 deg rotation - cart. axis [-1,1,1]       

 cryst.   s( 6) = (     1         -1          0      )
                  (     0         -1          1      )
                  (     0         -1          0      )

 cart.    s( 6) = (  0.0000000 -1.0000000  0.0000000 )
                  (  0.0000000  0.0000000  1.0000000 )
                  ( -1.0000000  0.0000000  0.0000000 )


      isym =  7     120 deg rotation - cart. axis [1,1,-1]       

 cryst.   s( 7) = (    -1          1          0      )
                  (    -1          0          0      )
                  (    -1          0          1      )

 cart.    s( 7) = (  0.0000000  1.0000000  0.0000000 )
                  (  0.0000000  0.0000000 -1.0000000 )
                  ( -1.0000000  0.0000000  0.0000000 )


      isym =  8     120 deg rotation - cart. axis [1,-1,1]       

 cryst.   s( 8) = (     0          0         -1      )
                  (     0          1         -1      )
                  (     1          0         -1      )

 cart.    s( 8) = (  0.0000000 -1.0000000  0.0000000 )
                  (  0.0000000  0.0000000 -1.0000000 )
                  (  1.0000000  0.0000000  0.0000000 )


      isym =  9     120 deg rotation - cart. axis [1,1,1]        

 cryst.   s( 9) = (     0          1          0      )
                  (     0          0          1      )
                  (     1          0          0      )

 cart.    s( 9) = (  0.0000000  0.0000000  1.0000000 )
                  (  1.0000000  0.0000000  0.0000000 )
                  (  0.0000000  1.0000000  0.0000000 )


      isym = 10     120 deg rotation - cart. axis [-1,1,-1]      

 cryst.   s(10) = (    -1          0          1      )
                  (    -1          1          0      )
                  (    -1          0          0      )

 cart.    s(10) = (  0.0000000  0.0000000  1.0000000 )
                  ( -1.0000000  0.0000000  0.0000000 )
                  (  0.0000000 -1.0000000  0.0000000 )


      isym = 11     120 deg rotation - cart. axis [1,-1,-1]      

 cryst.   s(11) = (     1          0         -1      )
                  (     0          0         -1      )
                  (     0          1         -1      )

 cart.    s(11) = (  0.0000000  0.0000000 -1.0000000 )
                  ( -1.0000000  0.0000000  0.0000000 )
                  (  0.0000000  1.0000000  0.0000000 )


      isym = 12     120 deg rotation - cart. axis [-1,-1,1]      

 cryst.   s(12) = (     0         -1          0      )
                  (     1         -1          0      )
                  (     0         -1          1      )

 cart.    s(12) = (  0.0000000  0.0000000 -1.0000000 )
                  (  1.0000000  0.0000000  0.0000000 )
                  (  0.0000000 -1.0000000  0.0000000 )


      isym = 13     inv. 180 deg rotation - cart. axis [1,1,0]   

 cryst.   s(13) = (     1          0         -1      )
                  (     0          1         -1      )
                  (     0          0         -1      )

 cart.    s(13) = (  0.0000000 -1.0000000  0.0000000 )
                  ( -1.0000000  0.0000000  0.0000000 )
                  (  0.0000000  0.0000000  1.0000000 )


      isym = 14     inv. 180 deg rotation - cart. axis [1,-1,0]  

 cryst.   s(14) = (     0          1          0      )
                  (     1          0          0      )
                  (     0          0          1      )

 cart.    s(14) = (  0.0000000  1.0000000  0.0000000 )
                  (  1.0000000  0.0000000  0.0000000 )
                  (  0.0000000  0.0000000  1.0000000 )


      isym = 15     inv.  90 deg rotation - cart. axis [0,0,-1]  

 cryst.   s(15) = (     0         -1          0      )
                  (     0         -1          1      )
                  (     1         -1          0      )

 cart.    s(15) = (  0.0000000 -1.0000000  0.0000000 )
                  (  1.0000000  0.0000000  0.0000000 )
                  (  0.0000000  0.0000000 -1.0000000 )


      isym = 16     inv.  90 deg rotation - cart. axis [0,0,1]   

 cryst.   s(16) = (    -1          0          1      )
                  (    -1          0          0      )
                  (    -1          1          0      )

 cart.    s(16) = (  0.0000000  1.0000000  0.0000000 )
                  ( -1.0000000  0.0000000  0.0000000 )
                  (  0.0000000  0.0000000 -1.0000000 )


      isym = 17     inv. 180 deg rotation - cart. axis [1,0,1]   

 cryst.   s(17) = (     1         -1          0      )
                  (     0         -1          0      )
                  (     0         -1          1      )

 cart.    s(17) = (  0.0000000  0.0000000 -1.0000000 )
                  (  0.0000000  1.0000000  0.0000000 )
                  ( -1.0000000  0.0000000  0.0000000 )


      isym = 18     inv. 180 deg rotation - cart. axis [-1,0,1]  

 cryst.   s(18) = (     0          0          1      )
                  (     0          1          0      )
                  (     1          0          0      )

 cart.    s(18) = (  0.0000000  0.0000000  1.0000000 )
                  (  0.0000000  1.0000000  0.0000000 )
                  (  1.0000000  0.0000000  0.0000000 )


      isym = 19     inv.  90 deg rotation - cart. axis [0,1,0]   

 cryst.   s(19) = (     0          0         -1      )
                  (     1          0         -1      )
                  (     0          1         -1      )

 cart.    s(19) = (  0.0000000  0.0000000 -1.0000000 )
                  (  0.0000000 -1.0000000  0.0000000 )
                  (  1.0000000  0.0000000  0.0000000 )


      isym = 20     inv.  90 deg rotation - cart. axis [0,-1,0]  

 cryst.   s(20) = (    -1          1          0      )
                  (    -1          0          1      )
                  (    -1          0          0      )

 cart.    s(20) = (  0.0000000  0.0000000  1.0000000 )
                  (  0.0000000 -1.0000000  0.0000000 )
                  ( -1.0000000  0.0000000  0.0000000 )


      isym = 21     inv. 180 deg rotation - cart. axis [0,1,1]   

 cryst.   s(21) = (    -1          0          0      )
                  (    -1          1          0      )
                  (    -1          0          1      )

 cart.    s(21) = (  1.0000000  0.0000000  0.0000000 )
                  (  0.0000000  0.0000000 -1.0000000 )
                  (  0.0000000 -1.0000000  0.0000000 )


      isym = 22     inv. 180 deg rotation - cart. axis [0,1,-1]  

 cryst.   s(22) = (     1          0          0      )
                  (     0          0          1      )
                  (     0          1          0      )

 cart.    s(22) = (  1.0000000  0.0000000  0.0000000 )
                  (  0.0000000  0.0000000  1.0000000 )
                  (  0.0000000  1.0000000  0.0000000 )


      isym = 23     inv.  90 deg rotation - cart. axis [-1,0,0]  

 cryst.   s(23) = (     0          1         -1      )
                  (     0          0         -1      )
                  (     1          0         -1      )

 cart.    s(23) = ( -1.0000000  0.0000000  0.0000000 )
                  (  0.0000000  0.0000000 -1.0000000 )
                  (  0.0000000  1.0000000  0.0000000 )


      isym = 24     inv.  90 deg rotation - cart. axis [1,0,0]   

 cryst.   s(24) = (     0         -1          1      )
                  (     1         -1          0      )
                  (     0         -1          0      )

 cart.    s(24) = ( -1.0000000  0.0000000  0.0000000 )
                  (  0.0000000  0.0000000  1.0000000 )
                  (  0.0000000 -1.0000000  0.0000000 )


   Cartesian axes

     site n.     atom                  positions (alat units)
         1        K      tau(   1) = (   0.3535534   0.3535534   0.3535534  )
         2        V      tau(   2) = (   0.0000000   0.0000000   0.0000000  )
         3        Cr     tau(   3) = (   0.7071068   0.7071068   0.7071068  )
         4        C      tau(   4) = (   0.4343911   0.7071068   0.7071068  )
         5        C      tau(   5) = (   0.9798225   0.7071068   0.7071068  )
         6        C      tau(   6) = (   0.7071068   0.4343911   0.7071068  )
         7        C      tau(   7) = (   0.7071068   0.9798225   0.7071068  )
         8        C      tau(   8) = (   0.7071068   0.7071068   0.4343911  )
         9        C      tau(   9) = (   0.7071068   0.7071068   0.9798225  )
        10        N      tau(  10) = (   0.2796732   0.7071068   0.7071068  )
        11        N      tau(  11) = (   1.1345404   0.7071068   0.7071068  )
        12        N      tau(  12) = (   0.7071068   0.2796732   0.7071068  )
        13        N      tau(  13) = (   0.7071068   1.1345404   0.7071068  )
        14        N      tau(  14) = (   0.7071068   0.7071068   0.2796732  )
        15        N      tau(  15) = (   0.7071068   0.7071068   1.1345404  )

   Crystallographic axes

     site n.     atom                  positions (cryst. coord.)
         1        K      tau(   1) = (  0.2500000  0.2500000  0.2500000  )
         2        V      tau(   2) = (  0.0000000  0.0000000  0.0000000  )
         3        Cr     tau(   3) = (  0.5000000  0.5000000  0.5000000  )
         4        C      tau(   4) = (  0.6928391  0.3071609  0.3071609  )
         5        C      tau(   5) = (  0.3071609  0.6928391  0.6928391  )
         6        C      tau(   6) = (  0.3071609  0.6928391  0.3071609  )
         7        C      tau(   7) = (  0.6928391  0.3071609  0.6928391  )
         8        C      tau(   8) = (  0.3071609  0.3071609  0.6928391  )
         9        C      tau(   9) = (  0.6928391  0.6928391  0.3071609  )
        10        N      tau(  10) = (  0.8022412  0.1977588  0.1977588  )
        11        N      tau(  11) = (  0.1977588  0.8022412  0.8022412  )
        12        N      tau(  12) = (  0.1977588  0.8022412  0.1977588  )
        13        N      tau(  13) = (  0.8022412  0.1977588  0.8022412  )
        14        N      tau(  14) = (  0.1977588  0.1977588  0.8022412  )
        15        N      tau(  15) = (  0.8022412  0.8022412  0.1977588  )

     number of k points=    29  Gaussian smearing, width (Ry)=  0.0050
                       cart. coord. in units 2pi/alat
        k(    1) = (   0.0000000   0.0000000   0.0000000), wk =   0.0019531
        k(    2) = (   0.0883883   0.0883883  -0.0883883), wk =   0.0156250
        k(    3) = (   0.1767767   0.1767767  -0.1767767), wk =   0.0156250
        k(    4) = (   0.2651650   0.2651650  -0.2651650), wk =   0.0156250
        k(    5) = (  -0.3535534  -0.3535534   0.3535534), wk =   0.0078125
        k(    6) = (   0.1767767   0.0000000   0.0000000), wk =   0.0117188
        k(    7) = (   0.2651650   0.0883883  -0.0883883), wk =   0.0468750
        k(    8) = (   0.3535534   0.1767767  -0.1767767), wk =   0.0468750
        k(    9) = (  -0.2651650  -0.4419417   0.4419417), wk =   0.0468750
        k(   10) = (  -0.1767767  -0.3535534   0.3535534), wk =   0.0468750
        k(   11) = (  -0.0883883  -0.2651650   0.2651650), wk =   0.0468750
        k(   12) = (   0.0000000  -0.1767767   0.1767767), wk =   0.0234375
        k(   13) = (   0.3535534   0.0000000   0.0000000), wk =   0.0117188
        k(   14) = (   0.4419417   0.0883883  -0.0883883), wk =   0.0468750
        k(   15) = (  -0.1767767  -0.5303301   0.5303301), wk =   0.0468750
        k(   16) = (  -0.0883883  -0.4419417   0.4419417), wk =   0.0468750
        k(   17) = (   0.0000000  -0.3535534   0.3535534), wk =   0.0234375
        k(   18) = (   0.5303301   0.0000000   0.0000000), wk =   0.0117188
        k(   19) = (  -0.0883883  -0.6187184   0.6187184), wk =   0.0468750
        k(   20) = (   0.0000000  -0.5303301   0.5303301), wk =   0.0234375
        k(   21) = (  -0.7071068   0.0000000   0.0000000), wk =   0.0058594
        k(   22) = (   0.3535534   0.1767767   0.0000000), wk =   0.0468750
        k(   23) = (  -0.2651650  -0.4419417   0.6187184), wk =   0.0937500
        k(   24) = (  -0.1767767  -0.3535534   0.5303301), wk =   0.0468750
        k(   25) = (  -0.1767767  -0.5303301   0.7071068), wk =   0.0468750
        k(   26) = (  -0.0883883  -0.4419417   0.6187184), wk =   0.0937500
        k(   27) = (  -0.0000000  -0.3535534   0.5303301), wk =   0.0468750
        k(   28) = (  -0.7071068   0.1767767   0.0000000), wk =   0.0234375
        k(   29) = (  -0.7071068   0.3535534   0.0000000), wk =   0.0117188

                       cryst. coord.
        k(    1) = (   0.0000000   0.0000000   0.0000000), wk =   0.0019531
        k(    2) = (   0.0000000   0.0000000   0.1250000), wk =   0.0156250
        k(    3) = (   0.0000000   0.0000000   0.2500000), wk =   0.0156250
        k(    4) = (   0.0000000   0.0000000   0.3750000), wk =   0.0156250
        k(    5) = (   0.0000000   0.0000000  -0.5000000), wk =   0.0078125
        k(    6) = (   0.0000000   0.1250000   0.1250000), wk =   0.0117188
        k(    7) = (   0.0000000   0.1250000   0.2500000), wk =   0.0468750
        k(    8) = (   0.0000000   0.1250000   0.3750000), wk =   0.0468750
        k(    9) = (   0.0000000   0.1250000  -0.5000000), wk =   0.0468750
        k(   10) = (   0.0000000   0.1250000  -0.3750000), wk =   0.0468750
        k(   11) = (   0.0000000   0.1250000  -0.2500000), wk =   0.0468750
        k(   12) = (   0.0000000   0.1250000  -0.1250000), wk =   0.0234375
        k(   13) = (   0.0000000   0.2500000   0.2500000), wk =   0.0117188
        k(   14) = (   0.0000000   0.2500000   0.3750000), wk =   0.0468750
        k(   15) = (   0.0000000   0.2500000  -0.5000000), wk =   0.0468750
        k(   16) = (   0.0000000   0.2500000  -0.3750000), wk =   0.0468750
        k(   17) = (   0.0000000   0.2500000  -0.2500000), wk =   0.0234375
        k(   18) = (   0.0000000   0.3750000   0.3750000), wk =   0.0117188
        k(   19) = (   0.0000000   0.3750000  -0.5000000), wk =   0.0468750
        k(   20) = (   0.0000000   0.3750000  -0.3750000), wk =   0.0234375
        k(   21) = (   0.0000000  -0.5000000  -0.5000000), wk =   0.0058594
        k(   22) = (   0.1250000   0.2500000   0.3750000), wk =   0.0468750
        k(   23) = (   0.1250000   0.2500000  -0.5000000), wk =   0.0937500
        k(   24) = (   0.1250000   0.2500000  -0.3750000), wk =   0.0468750
        k(   25) = (   0.1250000   0.3750000  -0.5000000), wk =   0.0468750
        k(   26) = (   0.1250000   0.3750000  -0.3750000), wk =   0.0937500
        k(   27) = (   0.1250000   0.3750000  -0.2500000), wk =   0.0468750
        k(   28) = (   0.1250000  -0.5000000  -0.3750000), wk =   0.0234375
        k(   29) = (   0.2500000  -0.5000000  -0.2500000), wk =   0.0117188

     Dense  grid:   320843 G-vectors     FFT dimensions: (  96,  96,  96)

     Dynamical RAM for                 wfc:      16.50 MB

     Dynamical RAM for     wfc (w. buffer):      82.48 MB

     Dynamical RAM for             U proj.:       3.05 MB

     Dynamical RAM for  U proj. (w. buff.):      15.27 MB

     Dynamical RAM for           str. fact:      12.24 MB

     Dynamical RAM for           local pot:       0.00 MB

     Dynamical RAM for          nlocal pot:      45.82 MB

     Dynamical RAM for                qrad:       8.42 MB

     Dynamical RAM for          rho,v,vnew:      34.94 MB

     Dynamical RAM for           G-vectors:      10.40 MB

     Dynamical RAM for          h,s,v(r/c):       0.53 MB

     Dynamical RAM for          <psi|beta>:       0.12 MB

     Dynamical RAM for                 psi:      32.99 MB

     Dynamical RAM for                hpsi:      32.99 MB

     Dynamical RAM for      wfcinit/wfcrot:      33.06 MB

     Estimated static dynamical RAM per process >     244.50 MB

     Estimated max dynamical RAM per process >     311.14 MB

     Estimated total dynamical RAM >       9.72 GB
     Generating pointlists ...
     new r_m :   0.2085 (alat units)  2.9753 (a.u.) for type    1
     new r_m :   0.1154 (alat units)  1.6464 (a.u.) for type    2
     new r_m :   0.1125 (alat units)  1.6054 (a.u.) for type    3
     new r_m :   0.0638 (alat units)  0.9108 (a.u.) for type    4
     new r_m :   0.0638 (alat units)  0.9108 (a.u.) for type    5

     The potential is recalculated from file :
     /tmp/scratch/KVCr_U2_4_LCM/KVCr_U2_4_LCM.save/charge-density


     HUBBARD ENERGY =    0.2546  (Ry)

     STARTING HUBBARD OCCUPATIONS:

     =================== HUBBARD OCCUPATIONS ===================
     ------------------------ ATOM    2 ------------------------
     Tr[ns(  2)] (up, down, total) =   0.42884  3.08678  3.51562
     Atomic magnetic moment for atom   2 =  -2.65794
     SPIN  1
     eigenvalues:
       0.029  0.029  0.029  0.172  0.172
     eigenvectors (columns):
       0.000 -0.000 -0.000 -0.499 -0.867
       0.336 -0.906  0.258 -0.000  0.000
       0.564  0.413  0.715 -0.000  0.000
      -0.000  0.000  0.000 -0.867  0.499
      -0.755 -0.095  0.649  0.000 -0.000
     occupation matrix ns (before diag.):
       0.172 -0.000 -0.000 -0.000  0.000
      -0.000  0.029 -0.000  0.000  0.000
      -0.000 -0.000  0.029  0.000  0.000
      -0.000  0.000  0.000  0.172 -0.000
       0.000  0.000  0.000 -0.000  0.029
     SPIN  2
     eigenvalues:
       0.211  0.211  0.888  0.888  0.888
     eigenvectors (columns):
       0.542 -0.840 -0.000 -0.000 -0.000
      -0.000 -0.000  0.327 -0.283  0.902
      -0.000 -0.000  0.584 -0.690 -0.428
       0.840  0.542  0.000  0.000  0.000
       0.000  0.000 -0.743 -0.666  0.060
     occupation matrix ns (before diag.):
       0.211 -0.000 -0.000 -0.000  0.000
      -0.000  0.888 -0.000  0.000  0.000
      -0.000 -0.000  0.888  0.000  0.000
      -0.000  0.000  0.000  0.211 -0.000
       0.000  0.000  0.000 -0.000  0.888
     ------------------------ ATOM    3 ------------------------
     Tr[ns(  3)] (up, down, total) =   3.82534  0.83599  4.66133
     Atomic magnetic moment for atom   3 =   2.98935
     SPIN  1
     eigenvalues:
       0.492  0.492  0.947  0.947  0.947
     eigenvectors (columns):
       0.408  0.913 -0.000 -0.000 -0.000
      -0.000  0.000  0.322 -0.237  0.917
      -0.000  0.000  0.594 -0.704 -0.390
       0.913 -0.408  0.000  0.000  0.000
       0.000 -0.000 -0.737 -0.670  0.086
     occupation matrix ns (before diag.):
       0.492 -0.000 -0.000 -0.000  0.000
      -0.000  0.947 -0.000  0.000  0.000
      -0.000 -0.000  0.947  0.000  0.000
      -0.000  0.000  0.000  0.492 -0.000
       0.000  0.000  0.000 -0.000  0.947
     SPIN  2
     eigenvalues:
       0.044  0.044  0.044  0.352  0.352
     eigenvectors (columns):
      -0.000 -0.000 -0.000  0.534 -0.845
      -0.371  0.269 -0.889  0.000  0.000
      -0.675  0.579  0.457 -0.000 -0.000
       0.000  0.000  0.000  0.845  0.534
       0.638  0.769 -0.033 -0.000 -0.000
     occupation matrix ns (before diag.):
       0.352 -0.000  0.000 -0.000  0.000
      -0.000  0.044 -0.000  0.000  0.000
       0.000 -0.000  0.044  0.000  0.000
      -0.000  0.000  0.000  0.352 -0.000
       0.000  0.000  0.000 -0.000  0.044

     Number of occupied Hubbard levels =    8.1769

     Atomic wfc used for Hubbard projectors are orthogonalized

     Starting wfcs are   73 randomized atomic wfcs

     Band Structure Calculation
     Davidson diagonalization with overlap

     Computing kpt #:     1  of     4 on this pool
     total cpu time spent up to now is       85.7 secs

     Computing kpt #:     2  of     4 on this pool
     total cpu time spent up to now is      171.6 secs

     Computing kpt #:     3  of     4 on this pool
     total cpu time spent up to now is      256.7 secs

     Computing kpt #:     4  of     4 on this pool
     total cpu time spent up to now is      305.0 secs

     ethr =  1.67E-10,  avg # of iterations =102.6

     total cpu time spent up to now is      321.6 secs

     End of band structure calculation

 ------ SPIN UP ------------


          k = 0.0000 0.0000 0.0000 ( 39957 PWs)   bands (ev):

   -71.4581 -59.8413 -42.8344 -42.8344 -42.8344 -33.7124 -33.7124 -33.7124
   -29.1613 -16.2748 -16.0862 -16.0862 -16.0862 -16.0385 -16.0385 -12.6087
   -12.6087 -12.6087  -6.8602  -4.9935  -4.9935  -4.9935  -4.9376  -4.9376
    -4.5393  -3.4781  -3.4781  -3.4781  -2.9110  -2.9110  -2.3811  -2.3811
    -2.3811  -2.0340  -2.0340  -2.0340  -1.8419  -1.8419  -1.8419  -1.5411
    -1.5411  -1.5411  -1.4042  -1.4042  -1.4042   4.4680   4.4680   4.4719
     4.4719   4.4719   5.1853   5.8175   5.8175   5.8175

     occupation numbers 
     1.0000   1.0000   1.0000   1.0000   1.0000   1.0000   1.0000   1.0000
     1.0000   1.0000   1.0000   1.0000   1.0000   1.0000   1.0000   1.0000
     1.0000   1.0000   1.0000   1.0000   1.0000   1.0000   1.0000   1.0000
     1.0000   1.0000   1.0000   1.0000   1.0000   1.0000   1.0000   1.0000
     1.0000   1.0000   1.0000   1.0000   1.0000   1.0000   1.0000   1.0000
     1.0000   1.0000   1.0000   1.0000   1.0000   0.0000   0.0000   0.0000
     0.0000   0.0000   0.0000   0.0000   0.0000   0.0000

          k = 0.0884 0.0884-0.0884 ( 40023 PWs)   bands (ev):

   -71.4581 -59.8413 -42.8344 -42.8344 -42.8344 -33.7124 -33.7124 -33.7124
   -29.1613 -16.2692 -16.0925 -16.0845 -16.0845 -16.0403 -16.0403 -12.6086
   -12.6086 -12.6081  -6.8215  -5.2075  -4.9875  -4.9875  -4.9337  -4.9337
    -4.3335  -3.4689  -3.4562  -3.4562  -2.9229  -2.9229  -2.4544  -2.4191
    -2.4191  -2.1058  -2.1058  -2.0189  -1.8635  -1.8558  -1.8558  -1.5596
    -1.5086  -1.5086  -1.3507  -1.3345  -1.3345   4.4741   4.4741   4.4917
     4.5141   4.5141   5.2662   5.7843   5.8461   5.8461

     occupation numbers 
     1.0000   1.0000   1.0000   1.0000   1.0000   1.0000   1.0000   1.0000
     1.0000   1.0000   1.0000   1.0000   1.0000   1.0000   1.0000   1.0000
     1.0000   1.0000   1.0000   1.0000   1.0000   1.0000   1.0000   1.0000
     1.0000   1.0000   1.0000   1.0000   1.0000   1.0000   1.0000   1.0000
     1.0000   1.0000   1.0000   1.0000   1.0000   1.0000   1.0000   1.0000
     1.0000   1.0000   1.0000   1.0000   1.0000   0.0000   0.0000   0.0000
     0.0000   0.0000   0.0000   0.0000   0.0000   0.0000

          k = 0.1768 0.1768-0.1768 ( 40014 PWs)   bands (ev):

   -71.4581 -59.8413 -42.8344 -42.8344 -42.8344 -33.7124 -33.7124 -33.7124
   -29.1614 -16.2535 -16.1098 -16.0797 -16.0797 -16.0453 -16.0453 -12.6082
   -12.6082 -12.6067  -6.7091  -5.5438  -4.9729  -4.9729  -4.9241  -4.9241
    -4.0259  -3.4375  -3.3960  -3.3960  -2.9431  -2.9431  -2.6370  -2.5428
    -2.5428  -2.2357  -2.2357  -1.9764  -1.9056  -1.8555  -1.8555  -1.6104
    -1.4450  -1.4450  -1.2448  -1.2135  -1.2135   4.5014   4.5014   4.5452
     4.6186   4.6186   5.4769   5.7143   5.8734   5.8734

     occupation numbers 
     1.0000   1.0000   1.0000   1.0000   1.0000   1.0000   1.0000   1.0000
     1.0000   1.0000   1.0000   1.0000   1.0000   1.0000   1.0000   1.0000
     1.0000   1.0000   1.0000   1.0000   1.0000   1.0000   1.0000   1.0000
     1.0000   1.0000   1.0000   1.0000   1.0000   1.0000   1.0000   1.0000
     1.0000   1.0000   1.0000   1.0000   1.0000   1.0000   1.0000   1.0000
     1.0000   1.0000   1.0000   1.0000   1.0000   0.0000   0.0000   0.0000
     0.0000   0.0000   0.0000   0.0000   0.0000   0.0000

          k = 0.2652 0.2652-0.2652 ( 40026 PWs)   bands (ev):

   -71.4581 -59.8413 -42.8344 -42.8344 -42.8344 -33.7124 -33.7124 -33.7124
   -29.1614 -16.2328 -16.1321 -16.0728 -16.0728 -16.0525 -16.0525 -12.6078
   -12.6078 -12.6052  -6.5410  -5.8586  -4.9583  -4.9583  -4.9141  -4.9141
    -3.7818  -3.3619  -3.3202  -3.3202  -2.9366  -2.9366  -2.8639  -2.7140
    -2.7140  -2.3414  -2.3414  -1.9427  -1.9172  -1.8256  -1.8256  -1.6777
    -1.4016  -1.4016  -1.1577  -1.1218  -1.1218   4.5332   4.5332   4.6088
     4.7499   4.7499   5.5567   5.7876   5.7876   5.8424

     occupation numbers 
     1.0000   1.0000   1.0000   1.0000   1.0000   1.0000   1.0000   1.0000
     1.0000   1.0000   1.0000   1.0000   1.0000   1.0000   1.0000   1.0000
     1.0000   1.0000   1.0000   1.0000   1.0000   1.0000   1.0000   1.0000
     1.0000   1.0000   1.0000   1.0000   1.0000   1.0000   1.0000   1.0000
     1.0000   1.0000   1.0000   1.0000   1.0000   1.0000   1.0000   1.0000
     1.0000   1.0000   1.0000   1.0000   1.0000   0.0000   0.0000   0.0000
     0.0000   0.0000   0.0000   0.0000   0.0000   0.0000

          k =-0.3536-0.3536 0.3536 ( 40094 PWs)   bands (ev):

   -71.4581 -59.8413 -42.8344 -42.8344 -42.8344 -33.7124 -33.7124 -33.7124
   -29.1614 -16.2208 -16.1448 -16.0675 -16.0675 -16.0579 -16.0579 -12.6076
   -12.6076 -12.6046  -6.4159  -6.0338  -4.9522  -4.9522  -4.9098  -4.9098
    -3.6931  -3.2818  -3.2818  -3.2630  -3.0203  -2.8701  -2.8701  -2.8544
    -2.8544  -2.3820  -2.3820  -1.9575  -1.8794  -1.8085  -1.8085  -1.7189
    -1.3881  -1.3881  -1.1251  -1.0886  -1.0886   4.5476   4.5476   4.6392
     4.8188   4.8188   5.5244   5.7137   5.7137   6.0077

     occupation numbers 
     1.0000   1.0000   1.0000   1.0000   1.0000   1.0000   1.0000   1.0000
     1.0000   1.0000   1.0000   1.0000   1.0000   1.0000   1.0000   1.0000
     1.0000   1.0000   1.0000   1.0000   1.0000   1.0000   1.0000   1.0000
     1.0000   1.0000   1.0000   1.0000   1.0000   1.0000   1.0000   1.0000
     1.0000   1.0000   1.0000   1.0000   1.0000   1.0000   1.0000   1.0000
     1.0000   1.0000   1.0000   1.0000   1.0000   0.0000   0.0000   0.0000
     0.0000   0.0000   0.0000   0.0000   0.0000   0.0000

          k = 0.1768 0.0000 0.0000 ( 40009 PWs)   bands (ev):

   -71.4581 -59.8413 -42.8344 -42.8344 -42.8344 -33.7124 -33.7124 -33.7124
   -29.1613 -16.2674 -16.0895 -16.0865 -16.0865 -16.0434 -16.0384 -12.6084
   -12.6084 -12.6081  -6.8103  -5.2510  -4.9833  -4.9833  -4.9380  -4.9291
    -4.2930  -3.4820  -3.4412  -3.4412  -2.9454  -2.9103  -2.4681  -2.4406
    -2.4406  -2.1124  -2.1124  -2.0414  -1.8993  -1.8993  -1.7698  -1.5416
    -1.5112  -1.5112  -1.4042  -1.2843  -1.2843   4.4598   4.4741   4.4983
     4.5386   4.5386   5.2935   5.8152   5.8381   5.8381

     occupation numbers 
     1.0000   1.0000   1.0000   1.0000   1.0000   1.0000   1.0000   1.0000
     1.0000   1.0000   1.0000   1.0000   1.0000   1.0000   1.0000   1.0000
     1.0000   1.0000   1.0000   1.0000   1.0000   1.0000   1.0000   1.0000
     1.0000   1.0000   1.0000   1.0000   1.0000   1.0000   1.0000   1.0000
     1.0000   1.0000   1.0000   1.0000   1.0000   1.0000   1.0000   1.0000
     1.0000   1.0000   1.0000   1.0000   1.0000   0.0000   0.0000   0.0000
     0.0000   0.0000   0.0000   0.0000   0.0000   0.0000

          k = 0.2652 0.0884-0.0884 ( 40035 PWs)   bands (ev):

   -71.4581 -59.8413 -42.8344 -42.8344 -42.8344 -33.7124 -33.7124 -33.7124
   -29.1614 -16.2554 -16.1022 -16.0850 -16.0810 -16.0497 -16.0401 -12.6081
   -12.6080 -12.6070  -6.7278  -5.4959  -4.9713  -4.9697  -4.9343  -4.9170
    -4.0656  -3.4712  -3.3897  -3.3869  -2.9784  -2.9184  -2.6282  -2.5416
    -2.5169  -2.2110  -2.2073  -2.0154  -1.9656  -1.9289  -1.7040  -1.5805
    -1.4685  -1.4493  -1.3415  -1.1811  -1.1776   4.4813   4.4881   4.5246
     4.6323   4.6414   5.4640   5.7526   5.8654   5.9070

     occupation numbers 
     1.0000   1.0000   1.0000   1.0000   1.0000   1.0000   1.0000   1.0000
     1.0000   1.0000   1.0000   1.0000   1.0000   1.0000   1.0000   1.0000
     1.0000   1.0000   1.0000   1.0000   1.0000   1.0000   1.0000   1.0000
     1.0000   1.0000   1.0000   1.0000   1.0000   1.0000   1.0000   1.0000
     1.0000   1.0000   1.0000   1.0000   1.0000   1.0000   1.0000   1.0000
     1.0000   1.0000   1.0000   1.0000   1.0000   0.0000   0.0000   0.0000
     0.0000   0.0000   0.0000   0.0000   0.0000   0.0000

          k = 0.3536 0.1768-0.1768 ( 40059 PWs)   bands (ev):

   -71.4581 -59.8413 -42.8344 -42.8344 -42.8344 -33.7124 -33.7124 -33.7124
   -29.1614 -16.2365 -16.1230 -16.0803 -16.0731 -16.0575 -16.0450 -12.6076
   -12.6076 -12.6057  -6.5855  -5.7818  -4.9567  -4.9558  -4.9234  -4.9049
    -3.8226  -3.4271  -3.3137  -3.3125  -2.9936  -2.9207  -2.8455  -2.7009
    -2.6365  -2.3257  -2.3185  -2.0344  -1.9575  -1.9046  -1.6659  -1.6510
    -1.4137  -1.3915  -1.2276  -1.1004  -1.0907   4.5157   4.5187   4.5819
     4.7469   4.7831   5.5947   5.8031   5.8224   5.9049

     occupation numbers 
     1.0000   1.0000   1.0000   1.0000   1.0000   1.0000   1.0000   1.0000
     1.0000   1.0000   1.0000   1.0000   1.0000   1.0000   1.0000   1.0000
     1.0000   1.0000   1.0000   1.0000   1.0000   1.0000   1.0000   1.0000
     1.0000   1.0000   1.0000   1.0000   1.0000   1.0000   1.0000   1.0000
     1.0000   1.0000   1.0000   1.0000   1.0000   1.0000   1.0000   1.0000
     1.0000   1.0000   1.0000   1.0000   1.0000   0.0000   0.0000   0.0000
     0.0000   0.0000   0.0000   0.0000   0.0000   0.0000

          k =-0.2652-0.4419 0.4419 ( 40040 PWs)   bands (ev):

   -71.4581 -59.8413 -42.8344 -42.8344 -42.8344 -33.7124 -33.7124 -33.7124
   -29.1614 -16.2202 -16.1406 -16.0733 -16.0709 -16.0595 -16.0521 -12.6075
   -12.6073 -12.6048  -6.4347  -6.0051  -4.9508  -4.9456  -4.9106  -4.9021
    -3.6825  -3.3431  -3.2653  -3.2344  -3.0713  -2.9272  -2.8826  -2.8420
    -2.7718  -2.3929  -2.3869  -2.0733  -1.9001  -1.8514  -1.7170  -1.6724
    -1.3738  -1.3706  -1.1389  -1.0725  -1.0561   4.5328   4.5420   4.6517
     4.8143   4.8769   5.5800   5.7455   5.7646   6.0444

     occupation numbers 
     1.0000   1.0000   1.0000   1.0000   1.0000   1.0000   1.0000   1.0000
     1.0000   1.0000   1.0000   1.0000   1.0000   1.0000   1.0000   1.0000
     1.0000   1.0000   1.0000   1.0000   1.0000   1.0000   1.0000   1.0000
     1.0000   1.0000   1.0000   1.0000   1.0000   1.0000   1.0000   1.0000
     1.0000   1.0000   1.0000   1.0000   1.0000   1.0000   1.0000   1.0000
     1.0000   1.0000   1.0000   1.0000   1.0000   0.0000   0.0000   0.0000
     0.0000   0.0000   0.0000   0.0000   0.0000   0.0000

          k =-0.1768-0.3536 0.3536 ( 40010 PWs)   bands (ev):

   -71.4581 -59.8413 -42.8344 -42.8344 -42.8344 -33.7124 -33.7124 -33.7124
   -29.1614 -16.2241 -16.1368 -16.0781 -16.0675 -16.0578 -16.0520 -12.6076
   -12.6072 -12.6050  -6.4726  -5.9548  -4.9558  -4.9434  -4.9121  -4.9056
    -3.7097  -3.3568  -3.2920  -3.2564  -3.0200  -2.9473  -2.8986  -2.7702
    -2.7468  -2.3809  -2.3766  -2.0759  -1.9079  -1.8145  -1.7181  -1.7080
    -1.3943  -1.3584  -1.1217  -1.0915  -1.0828   4.5225   4.5473   4.6546
     4.7947   4.8240   5.5812   5.7640   5.8130   5.9855

     occupation numbers 
     1.0000   1.0000   1.0000   1.0000   1.0000   1.0000   1.0000   1.0000
     1.0000   1.0000   1.0000   1.0000   1.0000   1.0000   1.0000   1.0000
     1.0000   1.0000   1.0000   1.0000   1.0000   1.0000   1.0000   1.0000
     1.0000   1.0000   1.0000   1.0000   1.0000   1.0000   1.0000   1.0000
     1.0000   1.0000   1.0000   1.0000   1.0000   1.0000   1.0000   1.0000
     1.0000   1.0000   1.0000   1.0000   1.0000   0.0000   0.0000   0.0000
     0.0000   0.0000   0.0000   0.0000   0.0000   0.0000

          k =-0.0884-0.2652 0.2652 ( 40013 PWs)   bands (ev):

   -71.4581 -59.8413 -42.8344 -42.8344 -42.8344 -33.7124 -33.7124 -33.7124
   -29.1614 -16.2430 -16.1172 -16.0843 -16.0724 -16.0528 -16.0450 -12.6080
   -12.6076 -12.6061  -6.6333  -5.6986  -4.9678  -4.9534  -4.9270  -4.9114
    -3.8919  -3.4294  -3.3650  -3.3297  -2.9668  -2.9450  -2.7803  -2.6107
    -2.6000  -2.2953  -2.2953  -2.0414  -1.9650  -1.8122  -1.7737  -1.6406
    -1.4378  -1.3911  -1.2002  -1.1637  -1.1313   4.4995   4.5260   4.5860
     4.6865   4.7052   5.5792   5.7256   5.8739   5.9280

     occupation numbers 
     1.0000   1.0000   1.0000   1.0000   1.0000   1.0000   1.0000   1.0000
     1.0000   1.0000   1.0000   1.0000   1.0000   1.0000   1.0000   1.0000
     1.0000   1.0000   1.0000   1.0000   1.0000   1.0000   1.0000   1.0000
     1.0000   1.0000   1.0000   1.0000   1.0000   1.0000   1.0000   1.0000
     1.0000   1.0000   1.0000   1.0000   1.0000   1.0000   1.0000   1.0000
     1.0000   1.0000   1.0000   1.0000   1.0000   0.0000   0.0000   0.0000
     0.0000   0.0000   0.0000   0.0000   0.0000   0.0000

          k = 0.0000-0.1768 0.1768 ( 40006 PWs)   bands (ev):

   -71.4581 -59.8413 -42.8344 -42.8344 -42.8344 -33.7124 -33.7124 -33.7124
   -29.1613 -16.2603 -16.0998 -16.0867 -16.0795 -16.0455 -16.0409 -12.6084
   -12.6081 -12.6074  -6.7599  -5.4140  -4.9808  -4.9730  -4.9344  -4.9232
    -4.1414  -3.4614  -3.4285  -3.4065  -2.9497  -2.9281  -2.5747  -2.4842
    -2.4762  -2.1884  -2.1765  -2.0074  -1.9649  -1.8301  -1.8172  -1.5825
    -1.4865  -1.4558  -1.3004  -1.2702  -1.2228   4.4798   4.4936   4.5211
     4.5690   4.5905   5.3929   5.7460   5.8566   5.9043

     occupation numbers 
     1.0000   1.0000   1.0000   1.0000   1.0000   1.0000   1.0000   1.0000
     1.0000   1.0000   1.0000   1.0000   1.0000   1.0000   1.0000   1.0000
     1.0000   1.0000   1.0000   1.0000   1.0000   1.0000   1.0000   1.0000
     1.0000   1.0000   1.0000   1.0000   1.0000   1.0000   1.0000   1.0000
     1.0000   1.0000   1.0000   1.0000   1.0000   1.0000   1.0000   1.0000
     1.0000   1.0000   1.0000   1.0000   1.0000   0.0000   0.0000   0.0000
     0.0000   0.0000   0.0000   0.0000   0.0000   0.0000

          k = 0.3536 0.0000 0.0000 ( 40046 PWs)   bands (ev):

   -71.4581 -59.8413 -42.8344 -42.8344 -42.8344 -33.7124 -33.7124 -33.7124
   -29.1614 -16.2481 -16.0968 -16.0871 -16.0871 -16.0572 -16.0381 -12.6077
   -12.6077 -12.6067  -6.6868  -5.5825  -4.9574  -4.9574  -4.9388  -4.9031
    -3.9811  -3.4923  -3.3398  -3.3398  -3.0289  -2.9088  -2.7227  -2.6019
    -2.6019  -2.2365  -2.2365  -2.0592  -1.9881  -1.9881  -1.5571  -1.5427
    -1.4547  -1.4547  -1.4007  -1.0928  -1.0928   4.4622   4.4884   4.5190
     4.7516   4.7516   5.5767   5.8233   5.8924   5.8924

     occupation numbers 
     1.0000   1.0000   1.0000   1.0000   1.0000   1.0000   1.0000   1.0000
     1.0000   1.0000   1.0000   1.0000   1.0000   1.0000   1.0000   1.0000
     1.0000   1.0000   1.0000   1.0000   1.0000   1.0000   1.0000   1.0000
     1.0000   1.0000   1.0000   1.0000   1.0000   1.0000   1.0000   1.0000
     1.0000   1.0000   1.0000   1.0000   1.0000   1.0000   1.0000   1.0000
     1.0000   1.0000   1.0000   1.0000   1.0000   0.0000   0.0000   0.0000
     0.0000   0.0000   0.0000   0.0000   0.0000   0.0000

          k = 0.4419 0.0884-0.0884 ( 40048 PWs)   bands (ev):

   -71.4581 -59.8413 -42.8344 -42.8344 -42.8344 -33.7124 -33.7124 -33.7124
   -29.1614 -16.2337 -16.1110 -16.0857 -16.0799 -16.0660 -16.0397 -12.6073
   -12.6072 -12.6058  -6.5933  -5.7567  -4.9472  -4.9433  -4.9308  -4.8858
    -3.8178  -3.4824  -3.2730  -3.2704  -3.0609  -2.9096  -2.9074  -2.7157
    -2.6817  -2.3226  -2.3110  -2.0669  -2.0326  -1.9924  -1.5920  -1.4883
    -1.4022  -1.3998  -1.3306  -1.0226  -1.0196   4.4848   4.5034   4.5293
     4.8943   4.9142   5.6677   5.8813   5.8969   5.9931

     occupation numbers 
     1.0000   1.0000   1.0000   1.0000   1.0000   1.0000   1.0000   1.0000
     1.0000   1.0000   1.0000   1.0000   1.0000   1.0000   1.0000   1.0000
     1.0000   1.0000   1.0000   1.0000   1.0000   1.0000   1.0000   1.0000
     1.0000   1.0000   1.0000   1.0000   1.0000   1.0000   1.0000   1.0000
     1.0000   1.0000   1.0000   1.0000   1.0000   1.0000   1.0000   1.0000
     1.0000   1.0000   1.0000   1.0000   1.0000   0.0000   0.0000   0.0000
     0.0000   0.0000   0.0000   0.0000   0.0000   0.0000

          k =-0.1768-0.5303 0.5303 ( 40037 PWs)   bands (ev):

   -71.4581 -59.8413 -42.8344 -42.8344 -42.8344 -33.7124 -33.7124 -33.7124
   -29.1614 -16.2184 -16.1291 -16.0809 -16.0785 -16.0658 -16.0446 -12.6071
   -12.6066 -12.6051  -6.4727  -5.9424  -4.9469  -4.9324  -4.9129  -4.8793
    -3.6624  -3.4311  -3.2353  -3.2197  -3.1064  -3.0053  -2.9038  -2.8209
    -2.7542  -2.4066  -2.3784  -2.1677  -1.9732  -1.9340  -1.6780  -1.5168
    -1.3582  -1.3174  -1.2213  -1.0005  -0.9889   4.5015   4.5278   4.5919
     4.9430   5.0386   5.6808   5.8333   5.9078   6.1403

     occupation numbers 
     1.0000   1.0000   1.0000   1.0000   1.0000   1.0000   1.0000   1.0000
     1.0000   1.0000   1.0000   1.0000   1.0000   1.0000   1.0000   1.0000
     1.0000   1.0000   1.0000   1.0000   1.0000   1.0000   1.0000   1.0000
     1.0000   1.0000   1.0000   1.0000   1.0000   1.0000   1.0000   1.0000
     1.0000   1.0000   1.0000   1.0000   1.0000   1.0000   1.0000   1.0000
     1.0000   1.0000   1.0000   1.0000   1.0000   0.0000   0.0000   0.0000
     0.0000   0.0000   0.0000   0.0000   0.0000   0.0000

          k =-0.0884-0.4419 0.4419 ( 40068 PWs)   bands (ev):

   -71.4581 -59.8413 -42.8344 -42.8344 -42.8344 -33.7124 -33.7124 -33.7124
   -29.1614 -16.2145 -16.1359 -16.0851 -16.0737 -16.0564 -16.0518 -12.6072
   -12.6063 -12.6052  -6.4200  -6.0159  -4.9509  -4.9275  -4.9016  -4.8920
    -3.6284  -3.3674  -3.2373  -3.2356  -3.1724  -2.9522  -2.9089  -2.8046
    -2.7790  -2.4325  -2.4007  -2.2062  -1.9253  -1.8588  -1.7370  -1.5865
    -1.3618  -1.2897  -1.1345  -1.0336  -1.0104   4.5011   4.5473   4.6791
     4.8512   4.9904   5.7090   5.8488   5.8947   6.1803

     occupation numbers 
     1.0000   1.0000   1.0000   1.0000   1.0000   1.0000   1.0000   1.0000
     1.0000   1.0000   1.0000   1.0000   1.0000   1.0000   1.0000   1.0000
     1.0000   1.0000   1.0000   1.0000   1.0000   1.0000   1.0000   1.0000
     1.0000   1.0000   1.0000   1.0000   1.0000   1.0000   1.0000   1.0000
     1.0000   1.0000   1.0000   1.0000   1.0000   1.0000   1.0000   1.0000
     1.0000   1.0000   1.0000   1.0000   1.0000   0.0000   0.0000   0.0000
     0.0000   0.0000   0.0000   0.0000   0.0000   0.0000

          k = 0.0000-0.3536 0.3536 ( 40038 PWs)   bands (ev):

   -71.4581 -59.8413 -42.8344 -42.8344 -42.8344 -33.7124 -33.7124 -33.7124
   -29.1614 -16.2270 -16.1274 -16.0877 -16.0675 -16.0578 -16.0489 -12.6076
   -12.6066 -12.6056  -6.5161  -5.8885  -4.9588  -4.9283  -4.9199  -4.9019
    -3.7322  -3.4068  -3.3022  -3.2611  -3.0192  -2.9746  -2.9151  -2.7027
    -2.6875  -2.3794  -2.3671  -2.1591  -1.9389  -1.8173  -1.7000  -1.6764
    -1.4001  -1.3248  -1.1175  -1.0946  -1.0774   4.4991   4.5469   4.6714
     4.7685   4.8288   5.6143   5.8729   5.9934   6.0009

     occupation numbers 
     1.0000   1.0000   1.0000   1.0000   1.0000   1.0000   1.0000   1.0000
     1.0000   1.0000   1.0000   1.0000   1.0000   1.0000   1.0000   1.0000
     1.0000   1.0000   1.0000   1.0000   1.0000   1.0000   1.0000   1.0000
     1.0000   1.0000   1.0000   1.0000   1.0000   1.0000   1.0000   1.0000
     1.0000   1.0000   1.0000   1.0000   1.0000   1.0000   1.0000   1.0000
     1.0000   1.0000   1.0000   1.0000   1.0000   0.0000   0.0000   0.0000
     0.0000   0.0000   0.0000   0.0000   0.0000   0.0000

          k = 0.5303 0.0000 0.0000 ( 40022 PWs)   bands (ev):

   -71.4581 -59.8413 -42.8344 -42.8344 -42.8344 -33.7124 -33.7124 -33.7124
   -29.1614 -16.2258 -16.1020 -16.0877 -16.0877 -16.0761 -16.0378 -12.6069
   -12.6069 -12.6053  -6.5634  -5.7958  -4.9396  -4.9298  -4.9298  -4.8626
    -3.7605  -3.5064  -3.2081  -3.2081  -3.1230  -3.0131  -2.9071  -2.7675
    -2.7675  -2.3585  -2.3585  -2.0768  -2.0408  -2.0408  -1.5438  -1.4209
    -1.4123  -1.4123  -1.2925  -0.9575  -0.9575   4.4667   4.5009   4.5021
     5.1054   5.1054   5.7250   5.9571   5.9571   6.0783

     occupation numbers 
     1.0000   1.0000   1.0000   1.0000   1.0000   1.0000   1.0000   1.0000
     1.0000   1.0000   1.0000   1.0000   1.0000   1.0000   1.0000   1.0000
     1.0000   1.0000   1.0000   1.0000   1.0000   1.0000   1.0000   1.0000
     1.0000   1.0000   1.0000   1.0000   1.0000   1.0000   1.0000   1.0000
     1.0000   1.0000   1.0000   1.0000   1.0000   1.0000   1.0000   1.0000
     1.0000   1.0000   1.0000   1.0000   1.0000   0.0000   0.0000   0.0000
     0.0000   0.0000   0.0000   0.0000   0.0000   0.0000

          k =-0.0884-0.6187 0.6187 ( 40061 PWs)   bands (ev):

   -71.4581 -59.8413 -42.8344 -42.8344 -42.8344 -33.7124 -33.7124 -33.7124
   -29.1615 -16.2162 -16.1133 -16.0861 -16.0856 -16.0772 -16.0394 -12.6067
   -12.6065 -12.6049  -6.5040  -5.8851  -4.9423  -4.9218  -4.9160  -4.8515
    -3.6610  -3.4979  -3.2146  -3.1619  -3.1408  -3.0646  -2.9127  -2.8235
    -2.8162  -2.4218  -2.3954  -2.1157  -2.0493  -2.0197  -1.5969  -1.4269
    -1.3729  -1.3560  -1.2215  -0.9357  -0.9321   4.4729   4.5135   4.5167
     5.1884   5.2547   5.7696   5.9348   6.0082   6.1955

     occupation numbers 
     1.0000   1.0000   1.0000   1.0000   1.0000   1.0000   1.0000   1.0000
     1.0000   1.0000   1.0000   1.0000   1.0000   1.0000   1.0000   1.0000
     1.0000   1.0000   1.0000   1.0000   1.0000   1.0000   1.0000   1.0000
     1.0000   1.0000   1.0000   1.0000   1.0000   1.0000   1.0000   1.0000
     1.0000   1.0000   1.0000   1.0000   1.0000   1.0000   1.0000   1.0000
     1.0000   1.0000   1.0000   1.0000   1.0000   0.0000   0.0000   0.0000
     0.0000   0.0000   0.0000   0.0000   0.0000   0.0000

          k = 0.0000-0.5303 0.5303 ( 40054 PWs)   bands (ev):

   -71.4581 -59.8413 -42.8344 -42.8344 -42.8344 -33.7124 -33.7124 -33.7124
   -29.1615 -16.2109 -16.1277 -16.0884 -16.0811 -16.0654 -16.0445 -12.6069
   -12.6059 -12.6052  -6.4387  -5.9819  -4.9461  -4.9211  -4.9051  -4.8637
    -3.5899  -3.4354  -3.2710  -3.1927  -3.1758  -2.9504  -2.9436  -2.8418
    -2.8080  -2.4594  -2.3914  -2.2249  -1.9870  -1.9399  -1.6868  -1.4870
    -1.3469  -1.2592  -1.2001  -0.9650  -0.9519   4.4817   4.5325   4.5938
     5.0311   5.1889   5.8525   5.9542   5.9844   6.1841

     occupation numbers 
     1.0000   1.0000   1.0000   1.0000   1.0000   1.0000   1.0000   1.0000
     1.0000   1.0000   1.0000   1.0000   1.0000   1.0000   1.0000   1.0000
     1.0000   1.0000   1.0000   1.0000   1.0000   1.0000   1.0000   1.0000
     1.0000   1.0000   1.0000   1.0000   1.0000   1.0000   1.0000   1.0000
     1.0000   1.0000   1.0000   1.0000   1.0000   1.0000   1.0000   1.0000
     1.0000   1.0000   1.0000   1.0000   1.0000   0.0000   0.0000   0.0000
     0.0000   0.0000   0.0000   0.0000   0.0000   0.0000

          k =-0.7071 0.0000 0.0000 ( 40170 PWs)   bands (ev):

   -71.4581 -59.8413 -42.8344 -42.8344 -42.8344 -33.7124 -33.7124 -33.7124
   -29.1615 -16.2152 -16.1007 -16.0886 -16.0880 -16.0880 -16.0376 -12.6066
   -12.6066 -12.6047  -6.5157  -5.8622  -4.9400  -4.9178  -4.9178  -4.8387
    -3.6702  -3.5184  -3.1712  -3.1425  -3.1322  -3.1322  -2.9064  -2.8434
    -2.8434  -2.4199  -2.4199  -2.0841  -2.0556  -2.0556  -1.5442  -1.4165
    -1.3972  -1.3972  -1.1897  -0.9108  -0.9108   4.4625   4.4864   4.5076
     5.3817   5.3817   5.7333   5.9542   5.9542   6.2221

     occupation numbers 
     1.0000   1.0000   1.0000   1.0000   1.0000   1.0000   1.0000   1.0000
     1.0000   1.0000   1.0000   1.0000   1.0000   1.0000   1.0000   1.0000
     1.0000   1.0000   1.0000   1.0000   1.0000   1.0000   1.0000   1.0000
     1.0000   1.0000   1.0000   1.0000   1.0000   1.0000   1.0000   1.0000
     1.0000   1.0000   1.0000   1.0000   1.0000   1.0000   1.0000   1.0000
     1.0000   1.0000   1.0000   1.0000   1.0000   0.0000   0.0000   0.0000
     0.0000   0.0000   0.0000   0.0000   0.0000   0.0000

          k = 0.3536 0.1768 0.0000 ( 40042 PWs)   bands (ev):

   -71.4581 -59.8413 -42.8344 -42.8344 -42.8344 -33.7124 -33.7124 -33.7124
   -29.1614 -16.2419 -16.1117 -16.0873 -16.0750 -16.0574 -16.0416 -12.6078
   -12.6074 -12.6062  -6.6359  -5.6885  -4.9627  -4.9471  -4.9329  -4.9032
    -3.8916  -3.4623  -3.3364  -3.3155  -3.0112  -2.9232  -2.8040  -2.6234
    -2.6183  -2.2912  -2.2795  -2.0670  -1.9961  -1.9252  -1.6216  -1.6131
    -1.4370  -1.3938  -1.2862  -1.0965  -1.0919   4.4913   4.5106   4.5507
     4.7493   4.7642   5.6100   5.7552   5.9086   5.9654

     occupation numbers 
     1.0000   1.0000   1.0000   1.0000   1.0000   1.0000   1.0000   1.0000
     1.0000   1.0000   1.0000   1.0000   1.0000   1.0000   1.0000   1.0000
     1.0000   1.0000   1.0000   1.0000   1.0000   1.0000   1.0000   1.0000
     1.0000   1.0000   1.0000   1.0000   1.0000   1.0000   1.0000   1.0000
     1.0000   1.0000   1.0000   1.0000   1.0000   1.0000   1.0000   1.0000
     1.0000   1.0000   1.0000   1.0000   1.0000   0.0000   0.0000   0.0000
     0.0000   0.0000   0.0000   0.0000   0.0000   0.0000

          k =-0.2652-0.4419 0.6187 ( 40028 PWs)   bands (ev):

   -71.4581 -59.8413 -42.8344 -42.8344 -42.8344 -33.7124 -33.7124 -33.7124
   -29.1614 -16.2245 -16.1282 -16.0848 -16.0710 -16.0616 -16.0464 -12.6074
   -12.6068 -12.6054  -6.5042  -5.9033  -4.9540  -4.9337  -4.9169  -4.8938
    -3.7133  -3.4212  -3.2667  -3.2533  -3.0413  -2.9853  -2.9084  -2.7588
    -2.7085  -2.3772  -2.3674  -2.1481  -1.9492  -1.8949  -1.6875  -1.5933
    -1.3776  -1.3397  -1.1836  -1.0656  -1.0204   4.5033   4.5369   4.6230
     4.8156   4.9255   5.6302   5.8518   5.9275   6.0273

     occupation numbers 
     1.0000   1.0000   1.0000   1.0000   1.0000   1.0000   1.0000   1.0000
     1.0000   1.0000   1.0000   1.0000   1.0000   1.0000   1.0000   1.0000
     1.0000   1.0000   1.0000   1.0000   1.0000   1.0000   1.0000   1.0000
     1.0000   1.0000   1.0000   1.0000   1.0000   1.0000   1.0000   1.0000
     1.0000   1.0000   1.0000   1.0000   1.0000   1.0000   1.0000   1.0000
     1.0000   1.0000   1.0000   1.0000   1.0000   0.0000   0.0000   0.0000
     0.0000   0.0000   0.0000   0.0000   0.0000   0.0000

          k =-0.1768-0.3536 0.5303 ( 40076 PWs)   bands (ev):

   -71.4581 -59.8413 -42.8344 -42.8344 -42.8344 -33.7124 -33.7124 -33.7124
   -29.1614 -16.2150 -16.1378 -16.0790 -16.0773 -16.0555 -16.0527 -12.6072
   -12.6066 -12.6050  -6.4168  -6.0216  -4.9503  -4.9318  -4.9010  -4.8954
    -3.6356  -3.3643  -3.2382  -3.2143  -3.1687  -2.9400  -2.9166  -2.8140
    -2.7899  -2.4154  -2.4062  -2.1779  -1.9188  -1.8669  -1.7368  -1.5928
    -1.3430  -1.3248  -1.1108  -1.0867  -0.9936   4.5091   4.5450   4.6889
     4.8020   5.0149   5.6870   5.8013   5.8174   6.1647

     occupation numbers 
     1.0000   1.0000   1.0000   1.0000   1.0000   1.0000   1.0000   1.0000
     1.0000   1.0000   1.0000   1.0000   1.0000   1.0000   1.0000   1.0000
     1.0000   1.0000   1.0000   1.0000   1.0000   1.0000   1.0000   1.0000
     1.0000   1.0000   1.0000   1.0000   1.0000   1.0000   1.0000   1.0000
     1.0000   1.0000   1.0000   1.0000   1.0000   1.0000   1.0000   1.0000
     1.0000   1.0000   1.0000   1.0000   1.0000   0.0000   0.0000   0.0000
     0.0000   0.0000   0.0000   0.0000   0.0000   0.0000

          k =-0.1768-0.5303 0.7071 ( 40038 PWs)   bands (ev):

   -71.4581 -59.8413 -42.8344 -42.8344 -42.8344 -33.7124 -33.7124 -33.7124
   -29.1614 -16.2214 -16.1183 -16.0879 -16.0787 -16.0697 -16.0414 -12.6070
   -12.6066 -12.6053  -6.5158  -5.8754  -4.9468  -4.9267  -4.9193  -4.8710
    -3.6970  -3.4752  -3.2379  -3.2085  -3.0665  -3.0581  -2.9075  -2.7794
    -2.7676  -2.3844  -2.3702  -2.1409  -2.0087  -1.9919  -1.6315  -1.4811
    -1.3548  -1.3261  -1.2661  -0.9947  -0.9576   4.4858   4.5187   4.5490
     4.9808   5.1108   5.6995   5.9485   5.9844   6.1387

     occupation numbers 
     1.0000   1.0000   1.0000   1.0000   1.0000   1.0000   1.0000   1.0000
     1.0000   1.0000   1.0000   1.0000   1.0000   1.0000   1.0000   1.0000
     1.0000   1.0000   1.0000   1.0000   1.0000   1.0000   1.0000   1.0000
     1.0000   1.0000   1.0000   1.0000   1.0000   1.0000   1.0000   1.0000
     1.0000   1.0000   1.0000   1.0000   1.0000   1.0000   1.0000   1.0000
     1.0000   1.0000   1.0000   1.0000   1.0000   0.0000   0.0000   0.0000
     0.0000   0.0000   0.0000   0.0000   0.0000   0.0000

          k =-0.0884-0.4419 0.6187 ( 40051 PWs)   bands (ev):

   -71.4581 -59.8413 -42.8344 -42.8344 -42.8344 -33.7124 -33.7124 -33.7124
   -29.1615 -16.2116 -16.1288 -16.0857 -16.0847 -16.0607 -16.0464 -12.6068
   -12.6060 -12.6053  -6.4355  -5.9879  -4.9478  -4.9226  -4.8998  -4.8719
    -3.5915  -3.4340  -3.2758  -3.1965  -3.1562  -2.9762  -2.9243  -2.8345
    -2.8012  -2.4340  -2.3995  -2.2324  -1.9800  -1.9213  -1.7098  -1.5184
    -1.3149  -1.2666  -1.1774  -1.0220  -0.9338   4.4835   4.5363   4.6302
     4.9031   5.2384   5.8192   5.9123   5.9617   6.2433

     occupation numbers 
     1.0000   1.0000   1.0000   1.0000   1.0000   1.0000   1.0000   1.0000
     1.0000   1.0000   1.0000   1.0000   1.0000   1.0000   1.0000   1.0000
     1.0000   1.0000   1.0000   1.0000   1.0000   1.0000   1.0000   1.0000
     1.0000   1.0000   1.0000   1.0000   1.0000   1.0000   1.0000   1.0000
     1.0000   1.0000   1.0000   1.0000   1.0000   1.0000   1.0000   1.0000
     1.0000   1.0000   1.0000   1.0000   1.0000   0.0000   0.0000   0.0000
     0.0000   0.0000   0.0000   0.0000   0.0000   0.0000

          k =-0.0000-0.3536 0.5303 ( 40063 PWs)   bands (ev):

   -71.4581 -59.8413 -42.8344 -42.8344 -42.8344 -33.7124 -33.7124 -33.7124
   -29.1615 -16.2131 -16.1319 -16.0881 -16.0782 -16.0551 -16.0511 -12.6070
   -12.6059 -12.6055  -6.4278  -6.0021  -4.9504  -4.9237  -4.8942  -4.8885
    -3.6082  -3.4037  -3.2659  -3.2105  -3.1659  -2.9763  -2.9011  -2.8231
    -2.7766  -2.4277  -2.3993  -2.2403  -1.9494  -1.8776  -1.7406  -1.5588
    -1.3263  -1.2796  -1.1088  -1.0841  -0.9576   4.4897   4.5443   4.6987
     4.7983   5.1263   5.7505   5.9498   5.9839   6.1865

     occupation numbers 
     1.0000   1.0000   1.0000   1.0000   1.0000   1.0000   1.0000   1.0000
     1.0000   1.0000   1.0000   1.0000   1.0000   1.0000   1.0000   1.0000
     1.0000   1.0000   1.0000   1.0000   1.0000   1.0000   1.0000   1.0000
     1.0000   1.0000   1.0000   1.0000   1.0000   1.0000   1.0000   1.0000
     1.0000   1.0000   1.0000   1.0000   1.0000   1.0000   1.0000   1.0000
     1.0000   1.0000   1.0000   1.0000   1.0000   0.0000   0.0000   0.0000
     0.0000   0.0000   0.0000   0.0000   0.0000   0.0000

          k =-0.7071 0.1768 0.0000 ( 40038 PWs)   bands (ev):

   -71.4581 -59.8413 -42.8344 -42.8344 -42.8344 -33.7124 -33.7124 -33.7124
   -29.1615 -16.2121 -16.1179 -16.0886 -16.0880 -16.0704 -16.0412 -12.6066
   -12.6063 -12.6049  -6.4729  -5.9300  -4.9444  -4.9192  -4.9073  -4.8512
    -3.6061  -3.4917  -3.2507  -3.1913  -3.1279  -3.0207  -2.9254  -2.8526
    -2.8183  -2.4326  -2.4192  -2.1639  -2.0274  -2.0016  -1.6365  -1.4590
    -1.3409  -1.2983  -1.2012  -0.9583  -0.9109   4.4703   4.5223   4.5472
     5.0951   5.3818   5.8979   5.9485   5.9738   6.2101

     occupation numbers 
     1.0000   1.0000   1.0000   1.0000   1.0000   1.0000   1.0000   1.0000
     1.0000   1.0000   1.0000   1.0000   1.0000   1.0000   1.0000   1.0000
     1.0000   1.0000   1.0000   1.0000   1.0000   1.0000   1.0000   1.0000
     1.0000   1.0000   1.0000   1.0000   1.0000   1.0000   1.0000   1.0000
     1.0000   1.0000   1.0000   1.0000   1.0000   1.0000   1.0000   1.0000
     1.0000   1.0000   1.0000   1.0000   1.0000   0.0000   0.0000   0.0000
     0.0000   0.0000   0.0000   0.0000   0.0000   0.0000

          k =-0.7071 0.3536 0.0000 ( 39932 PWs)   bands (ev):

   -71.4581 -59.8413 -42.8344 -42.8344 -42.8344 -33.7124 -33.7124 -33.7124
   -29.1615 -16.2085 -16.1282 -16.0886 -16.0880 -16.0545 -16.0504 -12.6066
   -12.6056 -12.6056  -6.4176  -6.0094  -4.9485  -4.9201  -4.8843  -4.8761
    -3.5379  -3.4505  -3.3202  -3.2156  -3.1251  -2.9491  -2.9382  -2.8730
    -2.7991  -2.4229  -2.4184  -2.2738  -1.9895  -1.8898  -1.7472  -1.5308
    -1.2691  -1.2595  -1.1090  -1.0792  -0.9110   4.4747   4.5406   4.6986
     4.8078   5.3820   5.9404   5.9425   6.0568   6.1373

     occupation numbers 
     1.0000   1.0000   1.0000   1.0000   1.0000   1.0000   1.0000   1.0000
     1.0000   1.0000   1.0000   1.0000   1.0000   1.0000   1.0000   1.0000
     1.0000   1.0000   1.0000   1.0000   1.0000   1.0000   1.0000   1.0000
     1.0000   1.0000   1.0000   1.0000   1.0000   1.0000   1.0000   1.0000
     1.0000   1.0000   1.0000   1.0000   1.0000   1.0000   1.0000   1.0000
     1.0000   1.0000   1.0000   1.0000   1.0000   0.0000   0.0000   0.0000
     0.0000   0.0000   0.0000   0.0000   0.0000   0.0000

 ------ SPIN DOWN ----------


          k = 0.0000 0.0000 0.0000 ( 39957 PWs)   bands (ev):

   -68.5019 -62.3060 -39.8393 -39.8393 -39.8393 -36.1844 -36.1844 -36.1844
   -29.1619 -16.2480 -16.0563 -16.0563 -16.0563 -16.0028 -16.0028 -12.6088
   -12.6088 -12.6088  -6.8859  -5.0486  -5.0486  -5.0486  -4.9089  -4.9089
    -4.5332  -3.1355  -3.1355  -3.1355  -2.4931  -2.4931  -2.3719  -2.3719
    -2.3719  -2.0225  -2.0225  -2.0225  -1.8660  -1.8660  -1.8660  -1.5197
    -1.5197  -1.5197   1.1857   1.1857   1.1857   4.0256   4.0256   4.0256
     5.2102   5.5758   5.5758   5.6885   5.6885   5.6885

     occupation numbers 
     1.0000   1.0000   1.0000   1.0000   1.0000   1.0000   1.0000   1.0000
     1.0000   1.0000   1.0000   1.0000   1.0000   1.0000   1.0000   1.0000
     1.0000   1.0000   1.0000   1.0000   1.0000   1.0000   1.0000   1.0000
     1.0000   1.0000   1.0000   1.0000   1.0000   1.0000   1.0000   1.0000
     1.0000   1.0000   1.0000   1.0000   1.0000   1.0000   1.0000   1.0000
     1.0000   1.0000   1.0000   1.0000   1.0000   0.0000   0.0000   0.0000
     0.0000   0.0000   0.0000   0.0000   0.0000   0.0000

          k = 0.0884 0.0884-0.0884 ( 40023 PWs)   bands (ev):

   -68.5019 -62.3060 -39.8393 -39.8393 -39.8393 -36.1844 -36.1844 -36.1844
   -29.1618 -16.2421 -16.0628 -16.0543 -16.0543 -16.0048 -16.0048 -12.6087
   -12.6087 -12.6083  -6.8447  -5.2577  -5.0468  -5.0468  -4.8996  -4.8996
    -4.3331  -3.1438  -3.1144  -3.1144  -2.5609  -2.5609  -2.3864  -2.3449
    -2.3449  -2.0646  -2.0646  -2.0070  -1.8992  -1.8703  -1.8703  -1.5388
    -1.4911  -1.4911   1.2381   1.2417   1.2417   3.9568   3.9789   3.9789
     5.2879   5.5625   5.5625   5.7460   5.7945   5.7945

     occupation numbers 
     1.0000   1.0000   1.0000   1.0000   1.0000   1.0000   1.0000   1.0000
     1.0000   1.0000   1.0000   1.0000   1.0000   1.0000   1.0000   1.0000
     1.0000   1.0000   1.0000   1.0000   1.0000   1.0000   1.0000   1.0000
     1.0000   1.0000   1.0000   1.0000   1.0000   1.0000   1.0000   1.0000
     1.0000   1.0000   1.0000   1.0000   1.0000   1.0000   1.0000   1.0000
     1.0000   1.0000   1.0000   1.0000   1.0000   0.0000   0.0000   0.0000
     0.0000   0.0000   0.0000   0.0000   0.0000   0.0000

          k = 0.1768 0.1768-0.1768 ( 40014 PWs)   bands (ev):

   -68.5019 -62.3060 -39.8393 -39.8393 -39.8393 -36.1844 -36.1844 -36.1844
   -29.1618 -16.2259 -16.0807 -16.0487 -16.0487 -16.0107 -16.0107 -12.6083
   -12.6083 -12.6069  -6.7238  -5.6021  -5.0423  -5.0423  -4.8768  -4.8768
    -4.0168  -3.1775  -3.0581  -3.0581  -2.6532  -2.6532  -2.4185  -2.3672
    -2.3672  -2.1801  -2.1801  -1.9818  -1.9632  -1.8304  -1.8304  -1.5913
    -1.4456  -1.4456   1.3699   1.3795   1.3795   3.7925   3.8619   3.8619
     5.4958   5.6179   5.6179   5.8888   5.9938   5.9938

     occupation numbers 
     1.0000   1.0000   1.0000   1.0000   1.0000   1.0000   1.0000   1.0000
     1.0000   1.0000   1.0000   1.0000   1.0000   1.0000   1.0000   1.0000
     1.0000   1.0000   1.0000   1.0000   1.0000   1.0000   1.0000   1.0000
     1.0000   1.0000   1.0000   1.0000   1.0000   1.0000   1.0000   1.0000
     1.0000   1.0000   1.0000   1.0000   1.0000   1.0000   1.0000   1.0000
     1.0000   1.0000   1.0000   1.0000   1.0000   0.0000   0.0000   0.0000
     0.0000   0.0000   0.0000   0.0000   0.0000   0.0000

          k = 0.2652 0.2652-0.2652 ( 40026 PWs)   bands (ev):

   -68.5019 -62.3060 -39.8393 -39.8393 -39.8393 -36.1844 -36.1844 -36.1844
   -29.1618 -16.2042 -16.1041 -16.0404 -16.0404 -16.0192 -16.0192 -12.6079
   -12.6079 -12.6056  -6.5315  -5.9424  -5.0376  -5.0376  -4.8533  -4.8533
    -3.7302  -3.2564  -2.9955  -2.9955  -2.6965  -2.6965  -2.4431  -2.4399
    -2.4399  -2.3073  -2.3073  -2.0707  -1.9020  -1.7578  -1.7578  -1.6612
    -1.4238  -1.4238   1.5126   1.5236   1.5236   3.6248   3.7369   3.7369
     5.7359   5.7535   5.7535   6.0704   6.1472   6.1472

     occupation numbers 
     1.0000   1.0000   1.0000   1.0000   1.0000   1.0000   1.0000   1.0000
     1.0000   1.0000   1.0000   1.0000   1.0000   1.0000   1.0000   1.0000
     1.0000   1.0000   1.0000   1.0000   1.0000   1.0000   1.0000   1.0000
     1.0000   1.0000   1.0000   1.0000   1.0000   1.0000   1.0000   1.0000
     1.0000   1.0000   1.0000   1.0000   1.0000   1.0000   1.0000   1.0000
     1.0000   1.0000   1.0000   1.0000   1.0000   0.0000   0.0000   0.0000
     0.0000   0.0000   0.0000   0.0000   0.0000   0.0000

          k =-0.3536-0.3536 0.3536 ( 40094 PWs)   bands (ev):

   -68.5019 -62.3060 -39.8393 -39.8393 -39.8393 -36.1844 -36.1844 -36.1844
   -29.1617 -16.1915 -16.1176 -16.0327 -16.0327 -16.0269 -16.0269 -12.6078
   -12.6078 -12.6050  -6.3327  -6.1919  -5.0357  -5.0357  -4.8433  -4.8433
    -3.5709  -3.3401  -2.9709  -2.9709  -2.6861  -2.6861  -2.4977  -2.4977
    -2.4495  -2.3577  -2.3577  -2.1107  -1.8623  -1.7222  -1.7222  -1.7045
    -1.4213  -1.4213   1.5762   1.5859   1.5859   3.5525   3.6819   3.6819
     5.8392   5.8779   5.8779   6.0409   6.0409   6.1896

     occupation numbers 
     1.0000   1.0000   1.0000   1.0000   1.0000   1.0000   1.0000   1.0000
     1.0000   1.0000   1.0000   1.0000   1.0000   1.0000   1.0000   1.0000
     1.0000   1.0000   1.0000   1.0000   1.0000   1.0000   1.0000   1.0000
     1.0000   1.0000   1.0000   1.0000   1.0000   1.0000   1.0000   1.0000
     1.0000   1.0000   1.0000   1.0000   1.0000   1.0000   1.0000   1.0000
     1.0000   1.0000   1.0000   1.0000   1.0000   0.0000   0.0000   0.0000
     0.0000   0.0000   0.0000   0.0000   0.0000   0.0000

          k = 0.1768 0.0000 0.0000 ( 40009 PWs)   bands (ev):

   -68.5019 -62.3060 -39.8393 -39.8393 -39.8393 -36.1844 -36.1844 -36.1844
   -29.1618 -16.2403 -16.0591 -16.0566 -16.0566 -16.0084 -16.0027 -12.6085
   -12.6085 -12.6083  -6.8328  -5.3008  -5.0381  -5.0381  -4.9092  -4.9034
    -4.2885  -3.1411  -3.1094  -3.1094  -2.6448  -2.4925  -2.3726  -2.3726
    -2.3526  -2.0720  -2.0720  -2.0300  -1.9243  -1.9243  -1.7830  -1.5202
    -1.4932  -1.4932   1.1864   1.2905   1.2905   3.9327   3.9327   4.0273
     5.3117   5.5316   5.5774   5.7889   5.7889   5.8177

     occupation numbers 
     1.0000   1.0000   1.0000   1.0000   1.0000   1.0000   1.0000   1.0000
     1.0000   1.0000   1.0000   1.0000   1.0000   1.0000   1.0000   1.0000
     1.0000   1.0000   1.0000   1.0000   1.0000   1.0000   1.0000   1.0000
     1.0000   1.0000   1.0000   1.0000   1.0000   1.0000   1.0000   1.0000
     1.0000   1.0000   1.0000   1.0000   1.0000   1.0000   1.0000   1.0000
     1.0000   1.0000   1.0000   1.0000   1.0000   0.0000   0.0000   0.0000
     0.0000   0.0000   0.0000   0.0000   0.0000   0.0000

          k = 0.2652 0.0884-0.0884 ( 40035 PWs)   bands (ev):

   -68.5019 -62.3060 -39.8393 -39.8393 -39.8393 -36.1844 -36.1844 -36.1844
   -29.1618 -16.2277 -16.0726 -16.0548 -16.0500 -16.0156 -16.0046 -12.6082
   -12.6082 -12.6072  -6.7437  -5.5496  -5.0345  -5.0295  -4.8993  -4.8861
    -4.0541  -3.1581  -3.0682  -3.0669  -2.7473  -2.5494  -2.4078  -2.3845
    -2.3561  -2.1892  -2.1545  -1.9993  -1.9870  -1.9335  -1.6974  -1.5590
    -1.4626  -1.4419   1.2416   1.4140   1.4153   3.8233   3.8418   3.9786
     5.4619   5.5899   5.5902   5.8789   5.9303   5.9640

     occupation numbers 
     1.0000   1.0000   1.0000   1.0000   1.0000   1.0000   1.0000   1.0000
     1.0000   1.0000   1.0000   1.0000   1.0000   1.0000   1.0000   1.0000
     1.0000   1.0000   1.0000   1.0000   1.0000   1.0000   1.0000   1.0000
     1.0000   1.0000   1.0000   1.0000   1.0000   1.0000   1.0000   1.0000
     1.0000   1.0000   1.0000   1.0000   1.0000   1.0000   1.0000   1.0000
     1.0000   1.0000   1.0000   1.0000   1.0000   0.0000   0.0000   0.0000
     0.0000   0.0000   0.0000   0.0000   0.0000   0.0000

          k = 0.3536 0.1768-0.1768 ( 40059 PWs)   bands (ev):

   -68.5019 -62.3060 -39.8393 -39.8393 -39.8393 -36.1844 -36.1844 -36.1844
   -29.1618 -16.2079 -16.0944 -16.0493 -16.0404 -16.0251 -16.0103 -12.6078
   -12.6078 -12.6059  -6.5840  -5.8538  -5.0299  -5.0265  -4.8743  -4.8619
    -3.7895  -3.2136  -3.0206  -3.0068  -2.7953  -2.6151  -2.4759  -2.4119
    -2.4109  -2.3172  -2.2607  -2.0823  -1.9375  -1.8707  -1.6343  -1.6302
    -1.4302  -1.3984   1.3772   1.5437   1.5468   3.6902   3.7515   3.8557
     5.6577   5.6619   5.7791   6.0143   6.0865   6.1181

     occupation numbers 
     1.0000   1.0000   1.0000   1.0000   1.0000   1.0000   1.0000   1.0000
     1.0000   1.0000   1.0000   1.0000   1.0000   1.0000   1.0000   1.0000
     1.0000   1.0000   1.0000   1.0000   1.0000   1.0000   1.0000   1.0000
     1.0000   1.0000   1.0000   1.0000   1.0000   1.0000   1.0000   1.0000
     1.0000   1.0000   1.0000   1.0000   1.0000   1.0000   1.0000   1.0000
     1.0000   1.0000   1.0000   1.0000   1.0000   0.0000   0.0000   0.0000
     0.0000   0.0000   0.0000   0.0000   0.0000   0.0000

          k =-0.2652-0.4419 0.4419 ( 40040 PWs)   bands (ev):

   -68.5019 -62.3060 -39.8393 -39.8393 -39.8393 -36.1844 -36.1844 -36.1844
   -29.1617 -16.1905 -16.1132 -16.0409 -16.0374 -16.0279 -16.0188 -12.6076
   -12.6075 -12.6052  -6.3767  -6.1350  -5.0295  -5.0220  -4.8544  -4.8502
    -3.5858  -3.3079  -3.0096  -2.9627  -2.7459  -2.6597  -2.5242  -2.5132
    -2.4213  -2.3496  -2.3393  -2.1625  -1.8765  -1.7861  -1.6951  -1.6412
    -1.3947  -1.3922   1.5201   1.5993   1.6049   3.6108   3.7196   3.7325
     5.7901   5.8303   5.8755   6.0137   6.0979   6.1729

     occupation numbers 
     1.0000   1.0000   1.0000   1.0000   1.0000   1.0000   1.0000   1.0000
     1.0000   1.0000   1.0000   1.0000   1.0000   1.0000   1.0000   1.0000
     1.0000   1.0000   1.0000   1.0000   1.0000   1.0000   1.0000   1.0000
     1.0000   1.0000   1.0000   1.0000   1.0000   1.0000   1.0000   1.0000
     1.0000   1.0000   1.0000   1.0000   1.0000   1.0000   1.0000   1.0000
     1.0000   1.0000   1.0000   1.0000   1.0000   0.0000   0.0000   0.0000
     0.0000   0.0000   0.0000   0.0000   0.0000   0.0000

          k =-0.1768-0.3536 0.3536 ( 40010 PWs)   bands (ev):

   -68.5019 -62.3060 -39.8393 -39.8393 -39.8393 -36.1844 -36.1844 -36.1844
   -29.1617 -16.1947 -16.1090 -16.0466 -16.0327 -16.0269 -16.0183 -12.6078
   -12.6074 -12.6053  -6.4397  -6.0597  -5.0364  -5.0154  -4.8695  -4.8421
    -3.6355  -3.2761  -3.0285  -2.9554  -2.7442  -2.6812  -2.4932  -2.4930
    -2.4204  -2.3530  -2.2986  -2.1653  -1.8883  -1.7347  -1.7105  -1.6814
    -1.4229  -1.3698   1.5396   1.5511   1.5832   3.6107   3.7131   3.7736
     5.7308   5.8341   5.8457   6.0122   6.1098   6.1637

     occupation numbers 
     1.0000   1.0000   1.0000   1.0000   1.0000   1.0000   1.0000   1.0000
     1.0000   1.0000   1.0000   1.0000   1.0000   1.0000   1.0000   1.0000
     1.0000   1.0000   1.0000   1.0000   1.0000   1.0000   1.0000   1.0000
     1.0000   1.0000   1.0000   1.0000   1.0000   1.0000   1.0000   1.0000
     1.0000   1.0000   1.0000   1.0000   1.0000   1.0000   1.0000   1.0000
     1.0000   1.0000   1.0000   1.0000   1.0000   0.0000   0.0000   0.0000
     0.0000   0.0000   0.0000   0.0000   0.0000   0.0000

          k =-0.0884-0.2652 0.2652 ( 40013 PWs)   bands (ev):

   -68.5019 -62.3060 -39.8393 -39.8393 -39.8393 -36.1844 -36.1844 -36.1844
   -29.1618 -16.2148 -16.0882 -16.0540 -16.0399 -16.0195 -16.0103 -12.6081
   -12.6077 -12.6064  -6.6392  -5.7642  -5.0444  -5.0149  -4.8958  -4.8538
    -3.8695  -3.1867  -3.0614  -3.0082  -2.7467  -2.6474  -2.4284  -2.4050
    -2.3837  -2.2980  -2.1870  -2.0952  -1.9508  -1.7939  -1.7466  -1.6159
    -1.4556  -1.3890   1.4089   1.4218   1.5195   3.6913   3.8051   3.8755
     5.5920   5.6701   5.6802   5.9529   6.0872   6.0893

     occupation numbers 
     1.0000   1.0000   1.0000   1.0000   1.0000   1.0000   1.0000   1.0000
     1.0000   1.0000   1.0000   1.0000   1.0000   1.0000   1.0000   1.0000
     1.0000   1.0000   1.0000   1.0000   1.0000   1.0000   1.0000   1.0000
     1.0000   1.0000   1.0000   1.0000   1.0000   1.0000   1.0000   1.0000
     1.0000   1.0000   1.0000   1.0000   1.0000   1.0000   1.0000   1.0000
     1.0000   1.0000   1.0000   1.0000   1.0000   0.0000   0.0000   0.0000
     0.0000   0.0000   0.0000   0.0000   0.0000   0.0000

          k = 0.0000-0.1768 0.1768 ( 40006 PWs)   bands (ev):

   -68.5019 -62.3060 -39.8393 -39.8393 -39.8393 -36.1844 -36.1844 -36.1844
   -29.1618 -16.2329 -16.0701 -16.0568 -16.0485 -16.0108 -16.0055 -12.6085
   -12.6082 -12.6076  -6.7788  -5.4669  -5.0490  -5.0276  -4.9082  -4.8773
    -4.1359  -3.1515  -3.0944  -3.0772  -2.6672  -2.5853  -2.3765  -2.3619
    -2.3617  -2.1620  -2.0915  -1.9961  -1.9952  -1.8498  -1.8096  -1.5590
    -1.4819  -1.4426   1.2867   1.2954   1.3758   3.8364   3.9112   3.9582
     5.4067   5.5714   5.5830   5.8301   5.8955   5.9236

     occupation numbers 
     1.0000   1.0000   1.0000   1.0000   1.0000   1.0000   1.0000   1.0000
     1.0000   1.0000   1.0000   1.0000   1.0000   1.0000   1.0000   1.0000
     1.0000   1.0000   1.0000   1.0000   1.0000   1.0000   1.0000   1.0000
     1.0000   1.0000   1.0000   1.0000   1.0000   1.0000   1.0000   1.0000
     1.0000   1.0000   1.0000   1.0000   1.0000   1.0000   1.0000   1.0000
     1.0000   1.0000   1.0000   1.0000   1.0000   0.0000   0.0000   0.0000
     0.0000   0.0000   0.0000   0.0000   0.0000   0.0000

          k = 0.3536 0.0000 0.0000 ( 40046 PWs)   bands (ev):

   -68.5019 -62.3060 -39.8393 -39.8393 -39.8393 -36.1844 -36.1844 -36.1844
   -29.1618 -16.2199 -16.0657 -16.0572 -16.0572 -16.0241 -16.0023 -12.6078
   -12.6078 -12.6069  -6.6979  -5.6344  -5.0120  -5.0120  -4.9100  -4.9010
    -3.9585  -3.1596  -3.0375  -3.0375  -2.8693  -2.4908  -2.4818  -2.3807
    -2.3807  -2.2368  -2.2368  -2.0480  -1.9879  -1.9879  -1.5449  -1.5213
    -1.4491  -1.4491   1.1882   1.5093   1.5093   3.8210   3.8210   4.0315
     5.4889   5.5807   5.6649   5.9423   5.9423   5.9860

     occupation numbers 
     1.0000   1.0000   1.0000   1.0000   1.0000   1.0000   1.0000   1.0000
     1.0000   1.0000   1.0000   1.0000   1.0000   1.0000   1.0000   1.0000
     1.0000   1.0000   1.0000   1.0000   1.0000   1.0000   1.0000   1.0000
     1.0000   1.0000   1.0000   1.0000   1.0000   1.0000   1.0000   1.0000
     1.0000   1.0000   1.0000   1.0000   1.0000   1.0000   1.0000   1.0000
     1.0000   1.0000   1.0000   1.0000   1.0000   0.0000   0.0000   0.0000
     0.0000   0.0000   0.0000   0.0000   0.0000   0.0000

          k = 0.4419 0.0884-0.0884 ( 40048 PWs)   bands (ev):

   -68.5019 -62.3060 -39.8393 -39.8393 -39.8393 -36.1844 -36.1844 -36.1844
   -29.1617 -16.2045 -16.0813 -16.0555 -16.0482 -16.0345 -16.0042 -12.6075
   -12.6074 -12.6060  -6.5912  -5.8197  -5.0049  -5.0030  -4.8976  -4.8872
    -3.7877  -3.1871  -3.0299  -2.9847  -2.9127  -2.5613  -2.5283  -2.4221
    -2.4065  -2.3303  -2.3165  -2.0421  -2.0109  -1.9766  -1.5718  -1.4760
    -1.4002  -1.3931   1.2434   1.6064   1.6072   3.7877   3.8071   3.9823
     5.5897   5.6023   5.8636   5.9840   6.0094   6.0434

     occupation numbers 
     1.0000   1.0000   1.0000   1.0000   1.0000   1.0000   1.0000   1.0000
     1.0000   1.0000   1.0000   1.0000   1.0000   1.0000   1.0000   1.0000
     1.0000   1.0000   1.0000   1.0000   1.0000   1.0000   1.0000   1.0000
     1.0000   1.0000   1.0000   1.0000   1.0000   1.0000   1.0000   1.0000
     1.0000   1.0000   1.0000   1.0000   1.0000   1.0000   1.0000   1.0000
     1.0000   1.0000   1.0000   1.0000   1.0000   0.0000   0.0000   0.0000
     0.0000   0.0000   0.0000   0.0000   0.0000   0.0000

          k =-0.1768-0.5303 0.5303 ( 40037 PWs)   bands (ev):

   -68.5019 -62.3060 -39.8393 -39.8393 -39.8393 -36.1844 -36.1844 -36.1844
   -29.1617 -16.1879 -16.1010 -16.0499 -16.0467 -16.0342 -16.0099 -12.6073
   -12.6068 -12.6054  -6.4376  -6.0405  -5.0120  -4.9902  -4.8809  -4.8693
    -3.6133  -3.2536  -3.0712  -2.9361  -2.8429  -2.5990  -2.5987  -2.5281
    -2.4261  -2.3570  -2.3551  -2.1414  -1.9306  -1.9007  -1.6578  -1.5177
    -1.3659  -1.3138   1.3785   1.6464   1.6505   3.7499   3.8143   3.8568
     5.6770   5.7778   5.8391   6.0025   6.0987   6.1581

     occupation numbers 
     1.0000   1.0000   1.0000   1.0000   1.0000   1.0000   1.0000   1.0000
     1.0000   1.0000   1.0000   1.0000   1.0000   1.0000   1.0000   1.0000
     1.0000   1.0000   1.0000   1.0000   1.0000   1.0000   1.0000   1.0000
     1.0000   1.0000   1.0000   1.0000   1.0000   1.0000   1.0000   1.0000
     1.0000   1.0000   1.0000   1.0000   1.0000   1.0000   1.0000   1.0000
     1.0000   1.0000   1.0000   1.0000   1.0000   0.0000   0.0000   0.0000
     0.0000   0.0000   0.0000   0.0000   0.0000   0.0000

          k =-0.0884-0.4419 0.4419 ( 40068 PWs)   bands (ev):

   -68.5019 -62.3060 -39.8393 -39.8393 -39.8393 -36.1844 -36.1844 -36.1844
   -29.1617 -16.1838 -16.1083 -16.0547 -16.0413 -16.0231 -16.0184 -12.6074
   -12.6065 -12.6055  -6.3441  -6.1578  -5.0248  -4.9719  -4.9008  -4.8462
    -3.5574  -3.2696  -3.1033  -2.9095  -2.7549  -2.7366  -2.5743  -2.5274
    -2.3935  -2.3700  -2.3214  -2.2336  -1.8819  -1.8063  -1.7082  -1.6019
    -1.3783  -1.2890   1.5205   1.6026   1.6126   3.6931   3.7688   3.8434
     5.7238   5.7959   5.9199   5.9451   6.0536   6.2062

     occupation numbers 
     1.0000   1.0000   1.0000   1.0000   1.0000   1.0000   1.0000   1.0000
     1.0000   1.0000   1.0000   1.0000   1.0000   1.0000   1.0000   1.0000
     1.0000   1.0000   1.0000   1.0000   1.0000   1.0000   1.0000   1.0000
     1.0000   1.0000   1.0000   1.0000   1.0000   1.0000   1.0000   1.0000
     1.0000   1.0000   1.0000   1.0000   1.0000   1.0000   1.0000   1.0000
     1.0000   1.0000   1.0000   1.0000   1.0000   0.0000   0.0000   0.0000
     0.0000   0.0000   0.0000   0.0000   0.0000   0.0000

          k = 0.0000-0.3536 0.3536 ( 40038 PWs)   bands (ev):

   -68.5019 -62.3060 -39.8393 -39.8393 -39.8393 -36.1844 -36.1844 -36.1844
   -29.1617 -16.1977 -16.0987 -16.0578 -16.0328 -16.0269 -16.0146 -12.6078
   -12.6069 -12.6059  -6.4983  -5.9751  -5.0372  -4.9749  -4.9166  -4.8409
    -3.6886  -3.1951  -3.1096  -2.9322  -2.7997  -2.6827  -2.4914  -2.4842
    -2.3881  -2.3470  -2.2425  -2.2206  -1.9179  -1.7393  -1.7017  -1.6671
    -1.4246  -1.3223   1.5025   1.5177   1.5830   3.6360   3.7804   3.8706
     5.6435   5.7607   5.8479   5.9893   6.0296   6.1970

     occupation numbers 
     1.0000   1.0000   1.0000   1.0000   1.0000   1.0000   1.0000   1.0000
     1.0000   1.0000   1.0000   1.0000   1.0000   1.0000   1.0000   1.0000
     1.0000   1.0000   1.0000   1.0000   1.0000   1.0000   1.0000   1.0000
     1.0000   1.0000   1.0000   1.0000   1.0000   1.0000   1.0000   1.0000
     1.0000   1.0000   1.0000   1.0000   1.0000   1.0000   1.0000   1.0000
     1.0000   1.0000   1.0000   1.0000   1.0000   0.0000   0.0000   0.0000
     0.0000   0.0000   0.0000   0.0000   0.0000   0.0000

          k = 0.5303 0.0000 0.0000 ( 40022 PWs)   bands (ev):

   -68.5019 -62.3060 -39.8393 -39.8393 -39.8393 -36.1844 -36.1844 -36.1844
   -29.1617 -16.1955 -16.0709 -16.0579 -16.0579 -16.0454 -16.0020 -12.6071
   -12.6071 -12.6056  -6.5540  -5.8573  -4.9846  -4.9846  -4.9108  -4.8966
    -3.7291  -3.2116  -3.0382  -2.9391  -2.9391  -2.6479  -2.4890  -2.4801
    -2.4801  -2.3361  -2.3361  -2.0661  -2.0254  -2.0254  -1.5224  -1.4161
    -1.4161  -1.2986   1.1900   1.6690   1.6690   3.8741   3.8741   4.0359
     5.5776   5.5836   5.8726   6.0186   6.0186   6.0573

     occupation numbers 
     1.0000   1.0000   1.0000   1.0000   1.0000   1.0000   1.0000   1.0000
     1.0000   1.0000   1.0000   1.0000   1.0000   1.0000   1.0000   1.0000
     1.0000   1.0000   1.0000   1.0000   1.0000   1.0000   1.0000   1.0000
     1.0000   1.0000   1.0000   1.0000   1.0000   1.0000   1.0000   1.0000
     1.0000   1.0000   1.0000   1.0000   1.0000   1.0000   1.0000   1.0000
     1.0000   1.0000   1.0000   1.0000   1.0000   0.0000   0.0000   0.0000
     0.0000   0.0000   0.0000   0.0000   0.0000   0.0000

          k =-0.0884-0.6187 0.6187 ( 40061 PWs)   bands (ev):

   -68.5019 -62.3060 -39.8393 -39.8393 -39.8393 -36.1844 -36.1844 -36.1844
   -29.1617 -16.1848 -16.0842 -16.0560 -16.0552 -16.0462 -16.0040 -12.6070
   -12.6067 -12.6052  -6.4790  -5.9618  -4.9880  -4.9703  -4.8969  -4.8951
    -3.6381  -3.2513  -3.0779  -2.8970  -2.8870  -2.6818  -2.5718  -2.5268
    -2.5026  -2.3612  -2.3436  -2.0707  -2.0204  -1.9988  -1.5789  -1.4339
    -1.3769  -1.2297   1.2447   1.6944   1.6958   3.8956   3.9155   3.9835
     5.6066   5.6781   5.7970   6.0092   6.0394   6.1202

     occupation numbers 
     1.0000   1.0000   1.0000   1.0000   1.0000   1.0000   1.0000   1.0000
     1.0000   1.0000   1.0000   1.0000   1.0000   1.0000   1.0000   1.0000
     1.0000   1.0000   1.0000   1.0000   1.0000   1.0000   1.0000   1.0000
     1.0000   1.0000   1.0000   1.0000   1.0000   1.0000   1.0000   1.0000
     1.0000   1.0000   1.0000   1.0000   1.0000   1.0000   1.0000   1.0000
     1.0000   1.0000   1.0000   1.0000   1.0000   0.0000   0.0000   0.0000
     0.0000   0.0000   0.0000   0.0000   0.0000   0.0000

          k = 0.0000-0.5303 0.5303 ( 40054 PWs)   bands (ev):

   -68.5019 -62.3060 -39.8393 -39.8393 -39.8393 -36.1844 -36.1844 -36.1844
   -29.1617 -16.1791 -16.0999 -16.0586 -16.0502 -16.0330 -16.0098 -12.6071
   -12.6062 -12.6055  -6.3822  -6.0965  -5.0065  -4.9454  -4.9178  -4.8664
    -3.5582  -3.2706  -3.1104  -2.8866  -2.8413  -2.6680  -2.6435  -2.5237
    -2.4861  -2.3631  -2.3495  -2.1612  -1.9317  -1.9100  -1.6685  -1.5018
    -1.3543  -1.2297   1.3790   1.6665   1.6723   3.8457   3.8473   3.9037
     5.6805   5.7437   5.8581   5.9805   5.9924   6.1425

     occupation numbers 
     1.0000   1.0000   1.0000   1.0000   1.0000   1.0000   1.0000   1.0000
     1.0000   1.0000   1.0000   1.0000   1.0000   1.0000   1.0000   1.0000
     1.0000   1.0000   1.0000   1.0000   1.0000   1.0000   1.0000   1.0000
     1.0000   1.0000   1.0000   1.0000   1.0000   1.0000   1.0000   1.0000
     1.0000   1.0000   1.0000   1.0000   1.0000   1.0000   1.0000   1.0000
     1.0000   1.0000   1.0000   1.0000   1.0000   0.0000   0.0000   0.0000
     0.0000   0.0000   0.0000   0.0000   0.0000   0.0000

          k =-0.7071 0.0000 0.0000 ( 40170 PWs)   bands (ev):

   -68.5019 -62.3060 -39.8393 -39.8393 -39.8393 -36.1844 -36.1844 -36.1844
   -29.1617 -16.1833 -16.0704 -16.0588 -16.0581 -16.0581 -16.0019 -12.6068
   -12.6068 -12.6050  -6.4934  -5.9305  -4.9728  -4.9728  -4.9111  -4.8935
    -3.6493  -3.2635  -3.0748  -2.8750  -2.8750  -2.7230  -2.5768  -2.5768
    -2.4882  -2.3410  -2.3410  -2.0736  -2.0399  -2.0399  -1.5229  -1.4042
    -1.4042  -1.1950   1.1907   1.7146   1.7146   3.9597   3.9597   4.0377
     5.5846   5.6239   5.7808   6.0070   6.0070   6.1075

     occupation numbers 
     1.0000   1.0000   1.0000   1.0000   1.0000   1.0000   1.0000   1.0000
     1.0000   1.0000   1.0000   1.0000   1.0000   1.0000   1.0000   1.0000
     1.0000   1.0000   1.0000   1.0000   1.0000   1.0000   1.0000   1.0000
     1.0000   1.0000   1.0000   1.0000   1.0000   1.0000   1.0000   1.0000
     1.0000   1.0000   1.0000   1.0000   1.0000   1.0000   1.0000   1.0000
     1.0000   1.0000   1.0000   1.0000   1.0000   0.0000   0.0000   0.0000
     0.0000   0.0000   0.0000   0.0000   0.0000   0.0000

          k = 0.3536 0.1768 0.0000 ( 40042 PWs)   bands (ev):

   -68.5019 -62.3060 -39.8393 -39.8393 -39.8393 -36.1844 -36.1844 -36.1844
   -29.1618 -16.2135 -16.0822 -16.0574 -16.0429 -16.0247 -16.0063 -12.6079
   -12.6075 -12.6065  -6.6414  -5.7503  -5.0335  -5.0014  -4.9097  -4.8658
    -3.8681  -3.1699  -3.0645  -3.0036  -2.8317  -2.5795  -2.4769  -2.3918
    -2.3742  -2.3068  -2.2356  -2.0607  -1.9802  -1.9115  -1.6043  -1.5885
    -1.4470  -1.3884   1.2923   1.5097   1.5449   3.7253   3.8144   3.9472
     5.5690   5.6171   5.7306   5.9471   6.0548   6.0655

     occupation numbers 
     1.0000   1.0000   1.0000   1.0000   1.0000   1.0000   1.0000   1.0000
     1.0000   1.0000   1.0000   1.0000   1.0000   1.0000   1.0000   1.0000
     1.0000   1.0000   1.0000   1.0000   1.0000   1.0000   1.0000   1.0000
     1.0000   1.0000   1.0000   1.0000   1.0000   1.0000   1.0000   1.0000
     1.0000   1.0000   1.0000   1.0000   1.0000   1.0000   1.0000   1.0000
     1.0000   1.0000   1.0000   1.0000   1.0000   0.0000   0.0000   0.0000
     0.0000   0.0000   0.0000   0.0000   0.0000   0.0000

          k =-0.2652-0.4419 0.6187 ( 40028 PWs)   bands (ev):

   -68.5019 -62.3060 -39.8393 -39.8393 -39.8393 -36.1844 -36.1844 -36.1844
   -29.1617 -16.1949 -16.0997 -16.0544 -16.0374 -16.0303 -16.0120 -12.6076
   -12.6070 -12.6057  -6.4823  -5.9921  -5.0273  -4.9897  -4.8974  -4.8506
    -3.6667  -3.2242  -3.0743  -2.9439  -2.8318  -2.6280  -2.5346  -2.4942
    -2.3966  -2.3558  -2.3136  -2.1513  -1.9224  -1.8504  -1.6632  -1.5863
    -1.3912  -1.3414   1.4162   1.6013   1.6078   3.6734   3.7826   3.8648
     5.6603   5.7492   5.8858   5.9700   6.0626   6.1787

     occupation numbers 
     1.0000   1.0000   1.0000   1.0000   1.0000   1.0000   1.0000   1.0000
     1.0000   1.0000   1.0000   1.0000   1.0000   1.0000   1.0000   1.0000
     1.0000   1.0000   1.0000   1.0000   1.0000   1.0000   1.0000   1.0000
     1.0000   1.0000   1.0000   1.0000   1.0000   1.0000   1.0000   1.0000
     1.0000   1.0000   1.0000   1.0000   1.0000   1.0000   1.0000   1.0000
     1.0000   1.0000   1.0000   1.0000   1.0000   0.0000   0.0000   0.0000
     0.0000   0.0000   0.0000   0.0000   0.0000   0.0000

          k =-0.1768-0.3536 0.5303 ( 40076 PWs)   bands (ev):

   -68.5019 -62.3060 -39.8393 -39.8393 -39.8393 -36.1844 -36.1844 -36.1844
   -29.1617 -16.1844 -16.1103 -16.0473 -16.0460 -16.0214 -16.0200 -12.6074
   -12.6069 -12.6053  -6.3359  -6.1696  -5.0222  -4.9918  -4.8813  -4.8499
    -3.5533  -3.2909  -3.0705  -2.9358  -2.7641  -2.6855  -2.5626  -2.5479
    -2.3979  -2.3783  -2.3267  -2.2082  -1.8776  -1.8121  -1.7106  -1.6028
    -1.3511  -1.3335   1.5408   1.5512   1.6486   3.6859   3.7533   3.8105
     5.7613   5.7901   5.8904   6.0096   6.0460   6.2090

     occupation numbers 
     1.0000   1.0000   1.0000   1.0000   1.0000   1.0000   1.0000   1.0000
     1.0000   1.0000   1.0000   1.0000   1.0000   1.0000   1.0000   1.0000
     1.0000   1.0000   1.0000   1.0000   1.0000   1.0000   1.0000   1.0000
     1.0000   1.0000   1.0000   1.0000   1.0000   1.0000   1.0000   1.0000
     1.0000   1.0000   1.0000   1.0000   1.0000   1.0000   1.0000   1.0000
     1.0000   1.0000   1.0000   1.0000   1.0000   0.0000   0.0000   0.0000
     0.0000   0.0000   0.0000   0.0000   0.0000   0.0000

          k =-0.1768-0.5303 0.7071 ( 40038 PWs)   bands (ev):

   -68.5019 -62.3060 -39.8393 -39.8393 -39.8393 -36.1844 -36.1844 -36.1844
   -29.1617 -16.1909 -16.0892 -16.0580 -16.0468 -16.0386 -16.0061 -12.6072
   -12.6068 -12.6056  -6.4957  -5.9537  -5.0043  -4.9738  -4.9094  -4.8732
    -3.6659  -3.2197  -3.0755  -2.9361  -2.8883  -2.6234  -2.5461  -2.5099
    -2.4621  -2.3659  -2.3339  -2.0844  -1.9792  -1.9636  -1.6118  -1.4853
    -1.3520  -1.3054   1.2938   1.6484   1.6692   3.7867   3.8668   3.9502
     5.6186   5.6838   5.8561   5.9985   6.0457   6.1578

     occupation numbers 
     1.0000   1.0000   1.0000   1.0000   1.0000   1.0000   1.0000   1.0000
     1.0000   1.0000   1.0000   1.0000   1.0000   1.0000   1.0000   1.0000
     1.0000   1.0000   1.0000   1.0000   1.0000   1.0000   1.0000   1.0000
     1.0000   1.0000   1.0000   1.0000   1.0000   1.0000   1.0000   1.0000
     1.0000   1.0000   1.0000   1.0000   1.0000   1.0000   1.0000   1.0000
     1.0000   1.0000   1.0000   1.0000   1.0000   0.0000   0.0000   0.0000
     0.0000   0.0000   0.0000   0.0000   0.0000   0.0000

          k =-0.0884-0.4419 0.6187 ( 40051 PWs)   bands (ev):

   -68.5019 -62.3060 -39.8393 -39.8393 -39.8393 -36.1844 -36.1844 -36.1844
   -29.1617 -16.1800 -16.1008 -16.0553 -16.0544 -16.0277 -16.0120 -12.6070
   -12.6063 -12.6056  -6.3764  -6.1066  -5.0038  -4.9580  -4.9110  -4.8645
    -3.5597  -3.2637  -3.1002  -2.9372  -2.8078  -2.6485  -2.6217  -2.5585
    -2.4827  -2.3618  -2.3359  -2.1614  -1.9144  -1.8954  -1.6888  -1.5370
    -1.3169  -1.2599   1.4171   1.6077   1.6952   3.7957   3.8407   3.9139
     5.6773   5.7621   5.8431   5.9837   6.0227   6.1425

     occupation numbers 
     1.0000   1.0000   1.0000   1.0000   1.0000   1.0000   1.0000   1.0000
     1.0000   1.0000   1.0000   1.0000   1.0000   1.0000   1.0000   1.0000
     1.0000   1.0000   1.0000   1.0000   1.0000   1.0000   1.0000   1.0000
     1.0000   1.0000   1.0000   1.0000   1.0000   1.0000   1.0000   1.0000
     1.0000   1.0000   1.0000   1.0000   1.0000   1.0000   1.0000   1.0000
     1.0000   1.0000   1.0000   1.0000   1.0000   0.0000   0.0000   0.0000
     0.0000   0.0000   0.0000   0.0000   0.0000   0.0000

          k =-0.0000-0.3536 0.5303 ( 40063 PWs)   bands (ev):

   -68.5019 -62.3060 -39.8393 -39.8393 -39.8393 -36.1844 -36.1844 -36.1844
   -29.1617 -16.1820 -16.1040 -16.0583 -16.0467 -16.0212 -16.0178 -12.6072
   -12.6062 -12.6058  -6.3615  -6.1314  -5.0158  -4.9472  -4.9256  -4.8518
    -3.5613  -3.2488  -3.1185  -2.9223  -2.7959  -2.6896  -2.5792  -2.5581
    -2.4403  -2.3609  -2.3220  -2.2023  -1.8906  -1.8394  -1.7138  -1.5813
    -1.3326  -1.2780   1.5098   1.5472   1.6694   3.7299   3.8084   3.8940
     5.6869   5.7875   5.8604   5.9760   6.0317   6.1934

     occupation numbers 
     1.0000   1.0000   1.0000   1.0000   1.0000   1.0000   1.0000   1.0000
     1.0000   1.0000   1.0000   1.0000   1.0000   1.0000   1.0000   1.0000
     1.0000   1.0000   1.0000   1.0000   1.0000   1.0000   1.0000   1.0000
     1.0000   1.0000   1.0000   1.0000   1.0000   1.0000   1.0000   1.0000
     1.0000   1.0000   1.0000   1.0000   1.0000   1.0000   1.0000   1.0000
     1.0000   1.0000   1.0000   1.0000   1.0000   0.0000   0.0000   0.0000
     0.0000   0.0000   0.0000   0.0000   0.0000   0.0000

          k =-0.7071 0.1768 0.0000 ( 40038 PWs)   bands (ev):

   -68.5019 -62.3060 -39.8393 -39.8393 -39.8393 -36.1844 -36.1844 -36.1844
   -29.1617 -16.1801 -16.0892 -16.0588 -16.0581 -16.0383 -16.0060 -12.6068
   -12.6065 -12.6053  -6.4359  -6.0197  -4.9865  -4.9620  -4.9057  -4.8853
    -3.5957  -3.2658  -3.0847  -2.9278  -2.8314  -2.6811  -2.5855  -2.5807
    -2.5054  -2.3755  -2.3374  -2.0928  -1.9813  -1.9813  -1.6191  -1.4707
    -1.3385  -1.2126   1.2945   1.6695   1.7146   3.8748   3.9434   3.9597
     5.6227   5.7418   5.7632   5.9946   6.0062   6.0914

     occupation numbers 
     1.0000   1.0000   1.0000   1.0000   1.0000   1.0000   1.0000   1.0000
     1.0000   1.0000   1.0000   1.0000   1.0000   1.0000   1.0000   1.0000
     1.0000   1.0000   1.0000   1.0000   1.0000   1.0000   1.0000   1.0000
     1.0000   1.0000   1.0000   1.0000   1.0000   1.0000   1.0000   1.0000
     1.0000   1.0000   1.0000   1.0000   1.0000   1.0000   1.0000   1.0000
     1.0000   1.0000   1.0000   1.0000   1.0000   0.0000   0.0000   0.0000
     0.0000   0.0000   0.0000   0.0000   0.0000   0.0000

          k =-0.7071 0.3536 0.0000 ( 39932 PWs)   bands (ev):

   -68.5019 -62.3060 -39.8393 -39.8393 -39.8393 -36.1844 -36.1844 -36.1844
   -29.1617 -16.1765 -16.1002 -16.0588 -16.0581 -16.0194 -16.0175 -12.6068
   -12.6060 -12.6058  -6.3390  -6.1464  -4.9939  -4.9385  -4.9308  -4.8673
    -3.5375  -3.2680  -3.0930  -2.9763  -2.7643  -2.6382  -2.6247  -2.6184
    -2.5203  -2.3383  -2.3349  -2.1721  -1.9028  -1.8746  -1.7232  -1.5577
    -1.2686  -1.2573   1.5045   1.5179   1.7145   3.8259   3.8274   3.9597
     5.6809   5.7257   5.8858   5.9303   6.0059   6.0814

     occupation numbers 
     1.0000   1.0000   1.0000   1.0000   1.0000   1.0000   1.0000   1.0000
     1.0000   1.0000   1.0000   1.0000   1.0000   1.0000   1.0000   1.0000
     1.0000   1.0000   1.0000   1.0000   1.0000   1.0000   1.0000   1.0000
     1.0000   1.0000   1.0000   1.0000   1.0000   1.0000   1.0000   1.0000
     1.0000   1.0000   1.0000   1.0000   1.0000   1.0000   1.0000   1.0000
     1.0000   1.0000   1.0000   1.0000   1.0000   0.0000   0.0000   0.0000
     0.0000   0.0000   0.0000   0.0000   0.0000   0.0000

     the Fermi energy is     3.2176 ev
     (compare with:     3.1931 eV, computed in scf)

     Writing all to output data dir /tmp/scratch/KVCr_U2_4_LCM/KVCr_U2_4_LCM.save/ :
     XML data file, pseudopotentials, collected wavefunctions

     init_run     :      3.54s CPU      3.93s WALL (       1 calls)
     electrons    :    290.90s CPU    317.24s WALL (       1 calls)

     Called by init_run:
     wfcinit      :      0.80s CPU      0.91s WALL (       1 calls)
     wfcinit:atom :      0.06s CPU      0.07s WALL (       4 calls)
     wfcinit:wfcr :      8.17s CPU      9.13s WALL (       4 calls)
     potinit      :      1.28s CPU      1.47s WALL (       1 calls)
     hinit0       :      1.06s CPU      1.11s WALL (       1 calls)

     Called by electrons:
     c_bands      :    290.83s CPU    317.14s WALL (       1 calls)
     v_of_rho     :      1.06s CPU      1.19s WALL (       1 calls)
     v_h          :      0.08s CPU      0.10s WALL (       1 calls)
     v_xc         :      0.98s CPU      1.09s WALL (       1 calls)

     Called by c_bands:
     init_us_2    :      0.23s CPU      0.28s WALL (       8 calls)
     cegterg      :    205.49s CPU    228.40s WALL (      14 calls)

     Called by sum_band:

     Called by *egterg:
     cdiaghg      :      0.91s CPU      0.96s WALL (     253 calls)
     cegterg:over :     10.25s CPU     10.61s WALL (     249 calls)
     cegterg:upda :      6.03s CPU      6.28s WALL (     249 calls)
     cegterg:last :     10.31s CPU     10.50s WALL (     148 calls)
     h_psi        :    181.32s CPU    204.16s WALL (     267 calls)
     g_psi        :      0.93s CPU      0.93s WALL (     249 calls)

     Called by h_psi:
     h_psi:calbec :      8.86s CPU      9.08s WALL (     267 calls)
     vloc_psi     :    160.86s CPU    183.28s WALL (     267 calls)
                                        0.00s GPU  (     267 calls)
     add_vuspsi   :      7.65s CPU      7.83s WALL (     267 calls)
     vhpsi        :      2.97s CPU      3.05s WALL (     267 calls)

     General routines
     calbec       :     11.02s CPU     11.34s WALL (     538 calls)
     fft          :      0.90s CPU      0.96s WALL (      19 calls)
     fftw         :    133.79s CPU    155.18s WALL (   15402 calls)

     Parallel routines

     Hubbard U routines
     vhpsi        :      2.97s CPU      3.05s WALL (     267 calls)

     PWSCF        :   4m55.13s CPU   5m22.41s WALL


   This run was terminated on:  11:41:34   3Oct2026            

=------------------------------------------------------------------------------=
   JOB DONE.
=------------------------------------------------------------------------------=
