
     Program PWSCF v.7.5 starts on  2Oct2026 at  7:51:34 

     This program is part of the open-source Quantum ESPRESSO suite
     for quantum simulation of materials; please cite
         "P. Giannozzi et al., J. Phys.:Condens. Matter 21 395502 (2009);
         "P. Giannozzi et al., J. Phys.:Condens. Matter 29 465901 (2017);
         "P. Giannozzi et al., J. Chem. Phys. 152 154105 (2020);
          URL http://www.quantum-espresso.org", 
     in publications or presentations arising from this work. More details at
     http://www.quantum-espresso.org/quote

     Parallel version (MPI & OpenMP), running on      32 processor cores
     Number of MPI processes:                32
     Threads/MPI process:                     1

     MPI processes distributed on     1 nodes
     695533 MiB available memory on the printing compute node when the environment starts

     Reading input from single.in

     Current dimensions of program PWSCF are:
     Max number of different atomic species (ntypx) = 10
     Max number of k-points (npk) =  40000
     Max angular momentum in pseudopotentials (lmaxx) =  4
     Message from routine setup:
     using ibrav=0 with symmetry is DISCOURAGED, use correct ibrav instead

     K-points division:     npool     =      16
     R & G space division:  proc/nbgrp/npool/nimage =       2
     Subspace diagonalization in iterative solution of the eigenvalue problem:
     a serial algorithm will be used


     Parallelization info
     --------------------
     sticks:   dense  smooth     PW     G-vecs:    dense   smooth      PW
     Min        3286    3286    870               192065   192065   25904
     Max        3287    3287    871               192066   192066   25905
     Sum        6573    6573   1741               384131   384131   51809

     Using Slab Decomposition



     bravais-lattice index     =            0
     lattice parameter (alat)  =      15.1393  a.u.
     unit-cell volume          =    3330.2042 (a.u.)^3
     number of atoms/cell      =           36
     number of atomic types    =            7
     number of electrons       =       328.00
     number of Kohn-Sham states=          197
     kinetic-energy cutoff     =      90.0000  Ry
     charge density cutoff     =     360.0000  Ry
     scf convergence threshold =      3.6E-07
     mixing beta               =       0.3000
     number of iterations used =            8  local-TF  mixing
     Exchange-correlation= PBE
                           (   1   4   3   4   0   0   0)
     Hubbard projectors: ortho-atomic
     Hubbard parameters of DFT+U (Dudarev formulation) in eV:
     U(Mn-3d) =  4.0000
     U(Mn1-3d) =  4.0000
     U(Fe-3d) =  4.0000
     U(Fe1-3d) =  4.0000

     Internal variables: lda_plus_u =T, lda_plus_u_kind = 0

     Internal variables: orbital_resolved =F, hub_pot_fix =F, apply_U = F

     celldm(1)=  15.139331  celldm(2)=   0.000000  celldm(3)=   0.000000
     celldm(4)=   0.000000  celldm(5)=   0.000000  celldm(6)=   0.000000

     crystal axes: (cart. coord. in units of alat)
               a(1) = (   0.707107   0.707107   0.000000 )  
               a(2) = (  -0.707107   0.707107   0.000000 )  
               a(3) = (   0.000000   0.000000   0.959734 )  

     reciprocal axes: (cart. coord. in units 2 pi/alat)
               b(1) = (  0.707107  0.707107 -0.000000 )  
               b(2) = ( -0.707107  0.707107  0.000000 )  
               b(3) = (  0.000000 -0.000000  1.041956 )  


     PseudoPot. # 1 for Ba read from file:
     /data/pseudo/dojo_sr/Ba.upf
     MD5 check sum: d1993ebf099ea5c29fdb9ecc5bd2bc91
     Pseudo is Norm-conserving + core correction, Zval = 10.0
     Generated using ONCVPSP code by D. R. Hamann
     Using radial grid of 1958 points,  6 beta functions with: 
                l(1) =   0
                l(2) =   0
                l(3) =   1
                l(4) =   1
                l(5) =   2
                l(6) =   2

     PseudoPot. # 2 for Y  read from file:
     /data/pseudo/dojo_sr/Y.upf
     MD5 check sum: 28b7a77fe5d3539441de961898735449
     Pseudo is Norm-conserving + core correction, Zval = 11.0
     Generated using ONCVPSP code by D. R. Hamann
     Using radial grid of 1766 points,  6 beta functions with: 
                l(1) =   0
                l(2) =   0
                l(3) =   1
                l(4) =   1
                l(5) =   2
                l(6) =   2

     PseudoPot. # 3 for Mn read from file:
     /data/pseudo/dojo_sr/Mn.upf
     MD5 check sum: ae71e1481ef25a952ba54bed1e0db183
     Pseudo is Norm-conserving + core correction, Zval = 15.0
     Generated using ONCVPSP code by D. R. Hamann
     Using radial grid of 1464 points,  6 beta functions with: 
                l(1) =   0
                l(2) =   0
                l(3) =   1
                l(4) =   1
                l(5) =   2
                l(6) =   2

     PseudoPot. # 4 for Mn read from file:
     /data/pseudo/dojo_sr/Mn.upf
     MD5 check sum: ae71e1481ef25a952ba54bed1e0db183
     Pseudo is Norm-conserving + core correction, Zval = 15.0
     Generated using ONCVPSP code by D. R. Hamann
     Using radial grid of 1464 points,  6 beta functions with: 
                l(1) =   0
                l(2) =   0
                l(3) =   1
                l(4) =   1
                l(5) =   2
                l(6) =   2

     PseudoPot. # 5 for Fe read from file:
     /data/pseudo/dojo_sr/Fe.upf
     MD5 check sum: a5f07f5dca5be6cacb81ceb54992e4ae
     Pseudo is Norm-conserving + core correction, Zval = 16.0
     Generated using ONCVPSP code by D. R. Hamann
     Using radial grid of 1426 points,  6 beta functions with: 
                l(1) =   0
                l(2) =   0
                l(3) =   1
                l(4) =   1
                l(5) =   2
                l(6) =   2

     PseudoPot. # 6 for Fe read from file:
     /data/pseudo/dojo_sr/Fe.upf
     MD5 check sum: a5f07f5dca5be6cacb81ceb54992e4ae
     Pseudo is Norm-conserving + core correction, Zval = 16.0
     Generated using ONCVPSP code by D. R. Hamann
     Using radial grid of 1426 points,  6 beta functions with: 
                l(1) =   0
                l(2) =   0
                l(3) =   1
                l(4) =   1
                l(5) =   2
                l(6) =   2

     PseudoPot. # 7 for O  read from file:
     /data/pseudo/dojo_sr/O.upf
     MD5 check sum: 3e3f909f7470e8921608ab6b1f57bbae
     Pseudo is Norm-conserving + core correction, Zval =  6.0
     Generated using ONCVPSP code by D. R. Hamann
     Using radial grid of  936 points,  5 beta functions with: 
                l(1) =   0
                l(2) =   0
                l(3) =   1
                l(4) =   1
                l(5) =   2

     atomic species   valence    mass     pseudopotential
     Ba               10.00   137.32700     Ba( 1.00)
     Y                11.00    88.90580     Y ( 1.00)
     Mn               15.00    54.93800     Mn( 1.00)
     Mn1              15.00    54.93800     Mn( 1.00)
     Fe               16.00    55.84500     Fe( 1.00)
     Fe1              16.00    55.84500     Fe( 1.00)
     O                 6.00    15.99900     O ( 1.00)

     Starting magnetic structure 
     atomic species   magnetization
     Ba              0.000
     Y               0.000
     Mn              0.300
     Mn1            -0.300
     Fe              0.263
     Fe1            -0.263
     O               0.000

      4 Sym. Ops., with inversion, found ( 3 have fractional translation)


                                    s                        frac. trans.

      isym =  1     identity                                     

 cryst.   s( 1) = (     1          0          0      )
                  (     0          1          0      )
                  (     0          0          1      )

 cart.    s( 1) = (  1.0000000  0.0000000  0.0000000 )
                  (  0.0000000  1.0000000  0.0000000 )
                  (  0.0000000  0.0000000  1.0000000 )


      isym =  2     180 deg rotation - cart. axis [0,0,1]        

 cryst.   s( 2) = (    -1          0          0      )    f =(  0.5000000 )
                  (     0         -1          0      )       (  0.5000000 )
                  (     0          0          1      )       (  0.0000000 )

 cart.    s( 2) = ( -1.0000000  0.0000000  0.0000000 )    f =(  0.0000000 )
                  (  0.0000000 -1.0000000  0.0000000 )       (  0.7071068 )
                  (  0.0000000  0.0000000  1.0000000 )       (  0.0000000 )


      isym =  3     inversion                                    

 cryst.   s( 3) = (    -1          0          0      )    f =(  0.5000000 )
                  (     0         -1          0      )       (  0.0000000 )
                  (     0          0         -1      )       (  0.0000000 )

 cart.    s( 3) = ( -1.0000000  0.0000000  0.0000000 )    f =(  0.3535534 )
                  (  0.0000000 -1.0000000  0.0000000 )       (  0.3535534 )
                  (  0.0000000  0.0000000 -1.0000000 )       (  0.0000000 )


      isym =  4     inv. 180 deg rotation - cart. axis [0,0,1]   

 cryst.   s( 4) = (     1          0          0      )    f =(  0.0000000 )
                  (     0          1          0      )       ( -0.5000000 )
                  (     0          0         -1      )       (  0.0000000 )

 cart.    s( 4) = (  1.0000000  0.0000000  0.0000000 )    f =(  0.3535534 )
                  (  0.0000000  1.0000000  0.0000000 )       ( -0.3535534 )
                  (  0.0000000  0.0000000 -1.0000000 )       (  0.0000000 )


   Cartesian axes

     site n.     atom                  positions (alat units)
         1        Ba     tau(   1) = (   0.0000000   0.0000000   0.0000000  )
         2        Ba     tau(   2) = (   0.0000000   0.7071068   0.0000000  )
         3        Ba     tau(   3) = (   0.3535534   0.3535534   0.0000000  )
         4        Ba     tau(   4) = (   0.3535534   1.0606602   0.0000000  )
         5        Y      tau(   5) = (   0.0000000   0.0000000   0.4798669  )
         6        Y      tau(   6) = (   0.0000000   0.7071068   0.4798669  )
         7        Y      tau(   7) = (   0.3535534   0.3535534   0.4798669  )
         8        Y      tau(   8) = (   0.3535534   1.0606602   0.4798669  )
         9        Mn     tau(   9) = (   0.0000000   0.3535534   0.2504216  )
        10        Mn1    tau(  10) = (   0.0000000   1.0606602   0.2504216  )
        11        Mn     tau(  11) = (  -0.3535534   0.7071068   0.7093122  )
        12        Mn1    tau(  12) = (   0.3535534   0.7071068   0.7093122  )
        13        Fe     tau(  13) = (  -0.3535534   0.7071068   0.2478801  )
        14        Fe1    tau(  14) = (   0.3535534   0.7071068   0.2478801  )
        15        Fe     tau(  15) = (   0.0000000   0.3535534   0.7118537  )
        16        Fe1    tau(  16) = (   0.0000000   1.0606602   0.7118537  )
        17        O      tau(  17) = (  -0.3535534   0.7071068   0.0084138  )
        18        O      tau(  18) = (   0.3535534   0.7071068   0.0084138  )
        19        O      tau(  19) = (   0.0000000   0.3535534   0.9513200  )
        20        O      tau(  20) = (   0.0000000   1.0606602   0.9513200  )
        21        O      tau(  21) = (   0.1516381   0.1617502   0.6581728  )
        22        O      tau(  22) = (   0.1516381   0.8688570   0.6581728  )
        23        O      tau(  23) = (  -0.1516381   1.2524634   0.6581728  )
        24        O      tau(  24) = (  -0.1516381   0.5453566   0.6581728  )
        25        O      tau(  25) = (   0.1918032   0.5051915   0.6581728  )
        26        O      tau(  26) = (   0.1918032   1.2122983   0.6581728  )
        27        O      tau(  27) = (  -0.1918032   0.9090221   0.6581728  )
        28        O      tau(  28) = (  -0.1918032   0.2019153   0.6581728  )
        29        O      tau(  29) = (  -0.5051915   0.8989100   0.3015610  )
        30        O      tau(  30) = (   0.2019153   0.8989100   0.3015610  )
        31        O      tau(  31) = (   0.5051915   0.5153036   0.3015610  )
        32        O      tau(  32) = (  -0.2019153   0.5153036   0.3015610  )
        33        O      tau(  33) = (   0.1617502   0.5554687   0.3015610  )
        34        O      tau(  34) = (  -0.5453566   0.5554687   0.3015610  )
        35        O      tau(  35) = (  -0.1617502   0.8587449   0.3015610  )
        36        O      tau(  36) = (   0.5453566   0.8587449   0.3015610  )

   Crystallographic axes

     site n.     atom                  positions (cryst. coord.)
         1        Ba     tau(   1) = (  0.0000000  0.0000000  0.0000000  )
         2        Ba     tau(   2) = (  0.5000000  0.5000000  0.0000000  )
         3        Ba     tau(   3) = (  0.5000000  0.0000000  0.0000000  )
         4        Ba     tau(   4) = (  1.0000000  0.5000000  0.0000000  )
         5        Y      tau(   5) = (  0.0000000  0.0000000  0.5000000  )
         6        Y      tau(   6) = (  0.5000000  0.5000000  0.5000000  )
         7        Y      tau(   7) = (  0.5000000  0.0000000  0.5000000  )
         8        Y      tau(   8) = (  1.0000000  0.5000000  0.5000000  )
         9        Mn     tau(   9) = (  0.2500000  0.2500000  0.2609282  )
        10        Mn1    tau(  10) = (  0.7500000  0.7500000  0.2609282  )
        11        Mn     tau(  11) = (  0.2500000  0.7500000  0.7390718  )
        12        Mn1    tau(  12) = (  0.7500000  0.2500000  0.7390718  )
        13        Fe     tau(  13) = (  0.2500000  0.7500000  0.2582801  )
        14        Fe1    tau(  14) = (  0.7500000  0.2500000  0.2582801  )
        15        Fe     tau(  15) = (  0.2500000  0.2500000  0.7417199  )
        16        Fe1    tau(  16) = (  0.7500000  0.7500000  0.7417199  )
        17        O      tau(  17) = (  0.2500000  0.7500000  0.0087668  )
        18        O      tau(  18) = (  0.7500000  0.2500000  0.0087668  )
        19        O      tau(  19) = (  0.2500000  0.2500000  0.9912332  )
        20        O      tau(  20) = (  0.7500000  0.7500000  0.9912332  )
        21        O      tau(  21) = (  0.2215990  0.0071503  0.6857869  )
        22        O      tau(  22) = (  0.7215990  0.5071503  0.6857869  )
        23        O      tau(  23) = (  0.7784010  0.9928497  0.6857869  )
        24        O      tau(  24) = (  0.2784010  0.4928497  0.6857869  )
        25        O      tau(  25) = (  0.4928497  0.2215990  0.6857869  )
        26        O      tau(  26) = (  0.9928497  0.7215990  0.6857869  )
        27        O      tau(  27) = (  0.5071503  0.7784010  0.6857869  )
        28        O      tau(  28) = (  0.0071503  0.2784010  0.6857869  )
        29        O      tau(  29) = (  0.2784010  0.9928497  0.3142131  )
        30        O      tau(  30) = (  0.7784010  0.4928497  0.3142131  )
        31        O      tau(  31) = (  0.7215990  0.0071503  0.3142131  )
        32        O      tau(  32) = (  0.2215990  0.5071503  0.3142131  )
        33        O      tau(  33) = (  0.5071503  0.2784010  0.3142131  )
        34        O      tau(  34) = (  0.0071503  0.7784010  0.3142131  )
        35        O      tau(  35) = (  0.4928497  0.7215990  0.3142131  )
        36        O      tau(  36) = (  0.9928497  0.2215990  0.3142131  )

     number of k points=    10  Gaussian smearing, width (Ry)=  0.0050
                       cart. coord. in units 2pi/alat
        k(    1) = (   0.0000000   0.0000000   0.0000000), wk =   0.0370370
        k(    2) = (   0.0000000   0.0000000   0.3473185), wk =   0.0740741
        k(    3) = (  -0.2357023   0.2357023   0.0000000), wk =   0.0740741
        k(    4) = (  -0.2357023   0.2357023   0.3473185), wk =   0.1481481
        k(    5) = (   0.0000000   0.4714045   0.0000000), wk =   0.0740741
        k(    6) = (   0.0000000   0.4714045   0.3473185), wk =   0.1481481
        k(    7) = (   0.2357023   0.2357023   0.0000000), wk =   0.0740741
        k(    8) = (   0.2357023   0.2357023   0.3473185), wk =   0.1481481
        k(    9) = (   0.4714045   0.0000000   0.0000000), wk =   0.0740741
        k(   10) = (   0.4714045   0.0000000  -0.3473185), wk =   0.1481481

                       cryst. coord.
        k(    1) = (   0.0000000   0.0000000   0.0000000), wk =   0.0370370
        k(    2) = (   0.0000000   0.0000000   0.3333333), wk =   0.0740741
        k(    3) = (   0.0000000   0.3333333   0.0000000), wk =   0.0740741
        k(    4) = (   0.0000000   0.3333333   0.3333333), wk =   0.1481481
        k(    5) = (   0.3333333   0.3333333   0.0000000), wk =   0.0740741
        k(    6) = (   0.3333333   0.3333333   0.3333333), wk =   0.1481481
        k(    7) = (   0.3333333   0.0000000   0.0000000), wk =   0.0740741
        k(    8) = (   0.3333333   0.0000000   0.3333333), wk =   0.1481481
        k(    9) = (   0.3333333  -0.3333333   0.0000000), wk =   0.0740741
        k(   10) = (   0.3333333  -0.3333333  -0.3333333), wk =   0.1481481

     Dense  grid:   384131 G-vectors     FFT dimensions: (  96,  96,  90)

     Dynamical RAM for                 wfc:      72.17 MB

     Dynamical RAM for     wfc (w. buffer):     216.50 MB

     Dynamical RAM for             U proj.:      14.65 MB

     Dynamical RAM for  U proj. (w. buff.):      43.96 MB

     Dynamical RAM for           str. fact:      20.51 MB

     Dynamical RAM for           local pot:       0.00 MB

     Dynamical RAM for          nlocal pot:     200.75 MB

     Dynamical RAM for                qrad:      10.66 MB

     Dynamical RAM for          rho,v,vnew:      36.57 MB

     Dynamical RAM for               rhoin:      12.19 MB

     Dynamical RAM for            rho*nmix:      93.78 MB

     Dynamical RAM for           G-vectors:      12.46 MB

     Dynamical RAM for          h,s,v(r/c):       7.11 MB

     Dynamical RAM for          <psi|beta>:       1.65 MB

     Dynamical RAM for                 psi:     144.34 MB

     Dynamical RAM for                hpsi:     144.34 MB

     Dynamical RAM for      wfcinit/wfcrot:     145.22 MB

     Estimated static dynamical RAM per process >     596.03 MB

     Estimated max dynamical RAM per process >     987.24 MB

     Estimated total dynamical RAM >      28.10 GB
     Generating pointlists ...
     new r_m :   0.1459 (alat units)  2.2086 (a.u.) for type    1
     new r_m :   0.1174 (alat units)  1.7768 (a.u.) for type    2
     new r_m :   0.1068 (alat units)  1.6164 (a.u.) for type    3
     new r_m :   0.1068 (alat units)  1.6164 (a.u.) for type    4
     new r_m :   0.0988 (alat units)  1.4955 (a.u.) for type    5
     new r_m :   0.0988 (alat units)  1.4955 (a.u.) for type    6
     new r_m :   0.0988 (alat units)  1.4955 (a.u.) for type    7

     Initial potential from superposition of free atoms

     starting charge     327.9122, renormalised to     328.0000

     HUBBARD ENERGY =    0.4704  (Ry)

     STARTING HUBBARD OCCUPATIONS:

     =================== HUBBARD OCCUPATIONS ===================
     ------------------------ ATOM    9 ------------------------
     Tr[ns(  9)] (up, down, total) =   5.00000  0.00000  5.00000
     Atomic magnetic moment for atom   9 =   5.00000
     SPIN  1
     eigenvalues:
       1.000  1.000  1.000  1.000  1.000
     eigenvectors (columns):
       1.000  0.000  0.000  0.000  0.000
       0.000  1.000  0.000  0.000  0.000
       0.000  0.000  1.000  0.000  0.000
       0.000  0.000  0.000  1.000  0.000
       0.000  0.000  0.000  0.000  1.000
     occupation matrix ns (before diag.):
       1.000  0.000  0.000  0.000  0.000
       0.000  1.000  0.000  0.000  0.000
       0.000  0.000  1.000  0.000  0.000
       0.000  0.000  0.000  1.000  0.000
       0.000  0.000  0.000  0.000  1.000
     SPIN  2
     eigenvalues:
       0.000  0.000  0.000  0.000  0.000
     eigenvectors (columns):
       1.000  0.000  0.000  0.000  0.000
       0.000  1.000  0.000  0.000  0.000
       0.000  0.000  1.000  0.000  0.000
       0.000  0.000  0.000  1.000  0.000
       0.000  0.000  0.000  0.000  1.000
     occupation matrix ns (before diag.):
       0.000  0.000  0.000  0.000  0.000
       0.000  0.000  0.000  0.000  0.000
       0.000  0.000  0.000  0.000  0.000
       0.000  0.000  0.000  0.000  0.000
       0.000  0.000  0.000  0.000  0.000
     ------------------------ ATOM   10 ------------------------
     Tr[ns( 10)] (up, down, total) =   0.00000  5.00000  5.00000
     Atomic magnetic moment for atom  10 =  -5.00000
     SPIN  1
     eigenvalues:
       0.000  0.000  0.000  0.000  0.000
     eigenvectors (columns):
       1.000  0.000  0.000  0.000  0.000
       0.000  1.000  0.000  0.000  0.000
       0.000  0.000  1.000  0.000  0.000
       0.000  0.000  0.000  1.000  0.000
       0.000  0.000  0.000  0.000  1.000
     occupation matrix ns (before diag.):
       0.000  0.000  0.000  0.000  0.000
       0.000  0.000  0.000  0.000  0.000
       0.000  0.000  0.000  0.000  0.000
       0.000  0.000  0.000  0.000  0.000
       0.000  0.000  0.000  0.000  0.000
     SPIN  2
     eigenvalues:
       1.000  1.000  1.000  1.000  1.000
     eigenvectors (columns):
       1.000  0.000  0.000  0.000  0.000
       0.000  1.000  0.000  0.000  0.000
       0.000  0.000  1.000  0.000  0.000
       0.000  0.000  0.000  1.000  0.000
       0.000  0.000  0.000  0.000  1.000
     occupation matrix ns (before diag.):
       1.000  0.000  0.000  0.000  0.000
       0.000  1.000  0.000  0.000  0.000
       0.000  0.000  1.000  0.000  0.000
       0.000  0.000  0.000  1.000  0.000
       0.000  0.000  0.000  0.000  1.000
     ------------------------ ATOM   11 ------------------------
     Tr[ns( 11)] (up, down, total) =   5.00000  0.00000  5.00000
     Atomic magnetic moment for atom  11 =   5.00000
     SPIN  1
     eigenvalues:
       1.000  1.000  1.000  1.000  1.000
     eigenvectors (columns):
       1.000  0.000  0.000  0.000  0.000
       0.000  1.000  0.000  0.000  0.000
       0.000  0.000  1.000  0.000  0.000
       0.000  0.000  0.000  1.000  0.000
       0.000  0.000  0.000  0.000  1.000
     occupation matrix ns (before diag.):
       1.000  0.000  0.000  0.000  0.000
       0.000  1.000  0.000  0.000  0.000
       0.000  0.000  1.000  0.000  0.000
       0.000  0.000  0.000  1.000  0.000
       0.000  0.000  0.000  0.000  1.000
     SPIN  2
     eigenvalues:
       0.000  0.000  0.000  0.000  0.000
     eigenvectors (columns):
       1.000  0.000  0.000  0.000  0.000
       0.000  1.000  0.000  0.000  0.000
       0.000  0.000  1.000  0.000  0.000
       0.000  0.000  0.000  1.000  0.000
       0.000  0.000  0.000  0.000  1.000
     occupation matrix ns (before diag.):
       0.000  0.000  0.000  0.000  0.000
       0.000  0.000  0.000  0.000  0.000
       0.000  0.000  0.000  0.000  0.000
       0.000  0.000  0.000  0.000  0.000
       0.000  0.000  0.000  0.000  0.000
     ------------------------ ATOM   12 ------------------------
     Tr[ns( 12)] (up, down, total) =   0.00000  5.00000  5.00000
     Atomic magnetic moment for atom  12 =  -5.00000
     SPIN  1
     eigenvalues:
       0.000  0.000  0.000  0.000  0.000
     eigenvectors (columns):
       1.000  0.000  0.000  0.000  0.000
       0.000  1.000  0.000  0.000  0.000
       0.000  0.000  1.000  0.000  0.000
       0.000  0.000  0.000  1.000  0.000
       0.000  0.000  0.000  0.000  1.000
     occupation matrix ns (before diag.):
       0.000  0.000  0.000  0.000  0.000
       0.000  0.000  0.000  0.000  0.000
       0.000  0.000  0.000  0.000  0.000
       0.000  0.000  0.000  0.000  0.000
       0.000  0.000  0.000  0.000  0.000
     SPIN  2
     eigenvalues:
       1.000  1.000  1.000  1.000  1.000
     eigenvectors (columns):
       1.000  0.000  0.000  0.000  0.000
       0.000  1.000  0.000  0.000  0.000
       0.000  0.000  1.000  0.000  0.000
       0.000  0.000  0.000  1.000  0.000
       0.000  0.000  0.000  0.000  1.000
     occupation matrix ns (before diag.):
       1.000  0.000  0.000  0.000  0.000
       0.000  1.000  0.000  0.000  0.000
       0.000  0.000  1.000  0.000  0.000
       0.000  0.000  0.000  1.000  0.000
       0.000  0.000  0.000  0.000  1.000
     ------------------------ ATOM   13 ------------------------
     Tr[ns( 13)] (up, down, total) =   5.00000  1.00000  6.00000
     Atomic magnetic moment for atom  13 =   4.00000
     SPIN  1
     eigenvalues:
       1.000  1.000  1.000  1.000  1.000
     eigenvectors (columns):
       1.000  0.000  0.000  0.000  0.000
       0.000  1.000  0.000  0.000  0.000
       0.000  0.000  1.000  0.000  0.000
       0.000  0.000  0.000  1.000  0.000
       0.000  0.000  0.000  0.000  1.000
     occupation matrix ns (before diag.):
       1.000  0.000  0.000  0.000  0.000
       0.000  1.000  0.000  0.000  0.000
       0.000  0.000  1.000  0.000  0.000
       0.000  0.000  0.000  1.000  0.000
       0.000  0.000  0.000  0.000  1.000
     SPIN  2
     eigenvalues:
       0.200  0.200  0.200  0.200  0.200
     eigenvectors (columns):
       1.000  0.000  0.000  0.000  0.000
       0.000  1.000  0.000  0.000  0.000
       0.000  0.000  1.000  0.000  0.000
       0.000  0.000  0.000  1.000  0.000
       0.000  0.000  0.000  0.000  1.000
     occupation matrix ns (before diag.):
       0.200  0.000  0.000  0.000  0.000
       0.000  0.200  0.000  0.000  0.000
       0.000  0.000  0.200  0.000  0.000
       0.000  0.000  0.000  0.200  0.000
       0.000  0.000  0.000  0.000  0.200
     ------------------------ ATOM   14 ------------------------
     Tr[ns( 14)] (up, down, total) =   1.00000  5.00000  6.00000
     Atomic magnetic moment for atom  14 =  -4.00000
     SPIN  1
     eigenvalues:
       0.200  0.200  0.200  0.200  0.200
     eigenvectors (columns):
       1.000  0.000  0.000  0.000  0.000
       0.000  1.000  0.000  0.000  0.000
       0.000  0.000  1.000  0.000  0.000
       0.000  0.000  0.000  1.000  0.000
       0.000  0.000  0.000  0.000  1.000
     occupation matrix ns (before diag.):
       0.200  0.000  0.000  0.000  0.000
       0.000  0.200  0.000  0.000  0.000
       0.000  0.000  0.200  0.000  0.000
       0.000  0.000  0.000  0.200  0.000
       0.000  0.000  0.000  0.000  0.200
     SPIN  2
     eigenvalues:
       1.000  1.000  1.000  1.000  1.000
     eigenvectors (columns):
       1.000  0.000  0.000  0.000  0.000
       0.000  1.000  0.000  0.000  0.000
       0.000  0.000  1.000  0.000  0.000
       0.000  0.000  0.000  1.000  0.000
       0.000  0.000  0.000  0.000  1.000
     occupation matrix ns (before diag.):
       1.000  0.000  0.000  0.000  0.000
       0.000  1.000  0.000  0.000  0.000
       0.000  0.000  1.000  0.000  0.000
       0.000  0.000  0.000  1.000  0.000
       0.000  0.000  0.000  0.000  1.000
     ------------------------ ATOM   15 ------------------------
     Tr[ns( 15)] (up, down, total) =   5.00000  1.00000  6.00000
     Atomic magnetic moment for atom  15 =   4.00000
     SPIN  1
     eigenvalues:
       1.000  1.000  1.000  1.000  1.000
     eigenvectors (columns):
       1.000  0.000  0.000  0.000  0.000
       0.000  1.000  0.000  0.000  0.000
       0.000  0.000  1.000  0.000  0.000
       0.000  0.000  0.000  1.000  0.000
       0.000  0.000  0.000  0.000  1.000
     occupation matrix ns (before diag.):
       1.000  0.000  0.000  0.000  0.000
       0.000  1.000  0.000  0.000  0.000
       0.000  0.000  1.000  0.000  0.000
       0.000  0.000  0.000  1.000  0.000
       0.000  0.000  0.000  0.000  1.000
     SPIN  2
     eigenvalues:
       0.200  0.200  0.200  0.200  0.200
     eigenvectors (columns):
       1.000  0.000  0.000  0.000  0.000
       0.000  1.000  0.000  0.000  0.000
       0.000  0.000  1.000  0.000  0.000
       0.000  0.000  0.000  1.000  0.000
       0.000  0.000  0.000  0.000  1.000
     occupation matrix ns (before diag.):
       0.200  0.000  0.000  0.000  0.000
       0.000  0.200  0.000  0.000  0.000
       0.000  0.000  0.200  0.000  0.000
       0.000  0.000  0.000  0.200  0.000
       0.000  0.000  0.000  0.000  0.200
     ------------------------ ATOM   16 ------------------------
     Tr[ns( 16)] (up, down, total) =   1.00000  5.00000  6.00000
     Atomic magnetic moment for atom  16 =  -4.00000
     SPIN  1
     eigenvalues:
       0.200  0.200  0.200  0.200  0.200
     eigenvectors (columns):
       1.000  0.000  0.000  0.000  0.000
       0.000  1.000  0.000  0.000  0.000
       0.000  0.000  1.000  0.000  0.000
       0.000  0.000  0.000  1.000  0.000
       0.000  0.000  0.000  0.000  1.000
     occupation matrix ns (before diag.):
       0.200  0.000  0.000  0.000  0.000
       0.000  0.200  0.000  0.000  0.000
       0.000  0.000  0.200  0.000  0.000
       0.000  0.000  0.000  0.200  0.000
       0.000  0.000  0.000  0.000  0.200
     SPIN  2
     eigenvalues:
       1.000  1.000  1.000  1.000  1.000
     eigenvectors (columns):
       1.000  0.000  0.000  0.000  0.000
       0.000  1.000  0.000  0.000  0.000
       0.000  0.000  1.000  0.000  0.000
       0.000  0.000  0.000  1.000  0.000
       0.000  0.000  0.000  0.000  1.000
     occupation matrix ns (before diag.):
       1.000  0.000  0.000  0.000  0.000
       0.000  1.000  0.000  0.000  0.000
       0.000  0.000  1.000  0.000  0.000
       0.000  0.000  0.000  1.000  0.000
       0.000  0.000  0.000  0.000  1.000

     Number of occupied Hubbard levels =   44.0000

     Atomic wfc used for Hubbard projectors are orthogonalized

     Starting wfcs are  220 randomized atomic wfcs

     total cpu time spent up to now is       15.0 secs

     per-process dynamical memory:   620.3 Mb

     Self-consistent Calculation

     iteration #  1     ecut=    90.00 Ry     beta= 0.30
     Davidson diagonalization with overlap

---- Real-time Memory Report at c_bands before calling an iterative solver
           895 MiB given to the printing process from OS
           605 MiB allocation reported by mallinfo(arena+hblkhd)
        678109 MiB available memory on the node where the printing process lives
------------------
     ethr =  1.00E-02,  avg # of iterations =  3.9

     =================== HUBBARD OCCUPATIONS ===================
     ------------------------ ATOM    9 ------------------------
     Tr[ns(  9)] (up, down, total) =   4.96348  0.20245  5.16593
     Atomic magnetic moment for atom   9 =   4.76103
     SPIN  1
     eigenvalues:
       0.983  0.993  0.995  0.996  0.996
     eigenvectors (columns):
       0.997  0.078  0.000 -0.000  0.012
       0.000 -0.000  0.581  0.814 -0.000
       0.000 -0.000  0.814 -0.581 -0.000
       0.022 -0.132 -0.000  0.000 -0.991
      -0.075  0.988  0.000 -0.000 -0.133
     occupation matrix ns (before diag.):
       0.983 -0.000 -0.000 -0.000  0.001
      -0.000  0.996 -0.000  0.000  0.000
      -0.000 -0.000  0.995  0.000  0.000
      -0.000  0.000  0.000  0.996  0.000
       0.001  0.000  0.000  0.000  0.993
     SPIN  2
     eigenvalues:
       0.024  0.025  0.027  0.048  0.078
     eigenvectors (columns):
      -0.000 -0.007 -0.000  1.000 -0.027
       0.803 -0.000 -0.597 -0.000  0.000
      -0.597 -0.000 -0.803 -0.000  0.000
       0.000  0.977 -0.000  0.001 -0.215
       0.000  0.215 -0.000  0.028  0.976
     occupation matrix ns (before diag.):
       0.048 -0.000 -0.000  0.000 -0.001
      -0.000  0.025  0.001  0.000  0.000
      -0.000  0.001  0.026  0.000  0.000
       0.000  0.000  0.000  0.027 -0.011
      -0.001  0.000  0.000 -0.011  0.075
     ------------------------ ATOM   10 ------------------------
     Tr[ns( 10)] (up, down, total) =   0.20244  4.96346  5.16589
     Atomic magnetic moment for atom  10 =  -4.76102
     SPIN  1
     eigenvalues:
       0.024  0.025  0.027  0.048  0.078
     eigenvectors (columns):
      -0.000 -0.007 -0.000  1.000 -0.027
       0.802 -0.000 -0.597 -0.000  0.000
      -0.597 -0.000 -0.802 -0.000  0.000
       0.000  0.977 -0.000  0.001 -0.215
       0.000  0.215 -0.000  0.028  0.976
     occupation matrix ns (before diag.):
       0.048 -0.000 -0.000  0.000 -0.001
      -0.000  0.025  0.001  0.000  0.000
      -0.000  0.001  0.026  0.000  0.000
       0.000  0.000  0.000  0.027 -0.011
      -0.001  0.000  0.000 -0.011  0.075
     SPIN  2
     eigenvalues:
       0.983  0.993  0.995  0.996  0.996
     eigenvectors (columns):
       0.997  0.077  0.000 -0.000  0.012
       0.000 -0.000  0.582  0.813 -0.000
       0.000 -0.000  0.813 -0.582 -0.000
       0.022 -0.132 -0.000  0.000 -0.991
      -0.075  0.988  0.000 -0.000 -0.133
     occupation matrix ns (before diag.):
       0.983 -0.000 -0.000 -0.000  0.001
      -0.000  0.996 -0.000  0.000  0.000
      -0.000 -0.000  0.995  0.000  0.000
      -0.000  0.000  0.000  0.996  0.000
       0.001  0.000  0.000  0.000  0.993
     ------------------------ ATOM   11 ------------------------
     Tr[ns( 11)] (up, down, total) =   4.96348  0.20245  5.16593
     Atomic magnetic moment for atom  11 =   4.76103
     SPIN  1
     eigenvalues:
       0.983  0.993  0.995  0.996  0.996
     eigenvectors (columns):
       0.997  0.078  0.000 -0.000  0.012
       0.000 -0.000  0.581  0.814 -0.000
       0.000 -0.000  0.814 -0.581 -0.000
       0.022 -0.132 -0.000  0.000 -0.991
      -0.075  0.988  0.000 -0.000 -0.133
     occupation matrix ns (before diag.):
       0.983 -0.000 -0.000 -0.000  0.001
      -0.000  0.996 -0.000  0.000  0.000
      -0.000 -0.000  0.995  0.000  0.000
      -0.000  0.000  0.000  0.996  0.000
       0.001  0.000  0.000  0.000  0.993
     SPIN  2
     eigenvalues:
       0.024  0.025  0.027  0.048  0.078
     eigenvectors (columns):
      -0.000 -0.007 -0.000  1.000 -0.027
       0.803 -0.000 -0.597 -0.000  0.000
      -0.597 -0.000 -0.803 -0.000  0.000
       0.000  0.977 -0.000  0.001 -0.215
       0.000  0.215 -0.000  0.028  0.976
     occupation matrix ns (before diag.):
       0.048 -0.000 -0.000  0.000 -0.001
      -0.000  0.025  0.001  0.000  0.000
      -0.000  0.001  0.026  0.000  0.000
       0.000  0.000  0.000  0.027 -0.011
      -0.001  0.000  0.000 -0.011  0.075
     ------------------------ ATOM   12 ------------------------
     Tr[ns( 12)] (up, down, total) =   0.20244  4.96346  5.16589
     Atomic magnetic moment for atom  12 =  -4.76102
     SPIN  1
     eigenvalues:
       0.024  0.025  0.027  0.048  0.078
     eigenvectors (columns):
      -0.000 -0.007 -0.000  1.000 -0.027
       0.802 -0.000 -0.597 -0.000  0.000
      -0.597 -0.000 -0.802 -0.000  0.000
       0.000  0.977 -0.000  0.001 -0.215
       0.000  0.215 -0.000  0.028  0.976
     occupation matrix ns (before diag.):
       0.048 -0.000 -0.000  0.000 -0.001
      -0.000  0.025  0.001  0.000  0.000
      -0.000  0.001  0.026  0.000  0.000
       0.000  0.000  0.000  0.027 -0.011
      -0.001  0.000  0.000 -0.011  0.075
     SPIN  2
     eigenvalues:
       0.983  0.993  0.995  0.996  0.996
     eigenvectors (columns):
       0.997  0.077 -0.000 -0.000  0.012
       0.000 -0.000  0.582  0.813 -0.000
       0.000 -0.000  0.813 -0.582 -0.000
       0.022 -0.132 -0.000  0.000 -0.991
      -0.075  0.988  0.000 -0.000 -0.133
     occupation matrix ns (before diag.):
       0.983 -0.000 -0.000 -0.000  0.001
      -0.000  0.996 -0.000  0.000  0.000
      -0.000 -0.000  0.995  0.000  0.000
      -0.000  0.000  0.000  0.996  0.000
       0.001  0.000  0.000  0.000  0.993
     ------------------------ ATOM   13 ------------------------
     Tr[ns( 13)] (up, down, total) =   4.97025  0.33460  5.30485
     Atomic magnetic moment for atom  13 =   4.63564
     SPIN  1
     eigenvalues:
       0.985  0.993  0.997  0.997  0.998
     eigenvectors (columns):
      -0.999  0.046 -0.000 -0.000 -0.005
      -0.000 -0.000  0.818 -0.576 -0.000
      -0.000 -0.000  0.576  0.818 -0.000
       0.013  0.176 -0.000 -0.000 -0.984
       0.044  0.983  0.000  0.000  0.176
     occupation matrix ns (before diag.):
       0.985 -0.000 -0.000  0.000  0.000
      -0.000  0.997 -0.000  0.000  0.000
      -0.000 -0.000  0.997  0.000  0.000
       0.000  0.000  0.000  0.998 -0.001
       0.000  0.000  0.000 -0.001  0.994
     SPIN  2
     eigenvalues:
       0.040  0.045  0.050  0.081  0.118
     eigenvectors (columns):
       0.005  0.000 -0.000 -1.000 -0.028
      -0.000 -0.595 -0.803  0.000  0.000
      -0.000  0.803 -0.595  0.000  0.000
       0.972  0.000 -0.000 -0.001  0.234
      -0.234 -0.000  0.000 -0.029  0.972
     occupation matrix ns (before diag.):
       0.081 -0.000 -0.000 -0.000 -0.001
      -0.000  0.049  0.003  0.000  0.000
      -0.000  0.003  0.047  0.000  0.000
      -0.000  0.000  0.000  0.044  0.018
      -0.001  0.000  0.000  0.018  0.114
     ------------------------ ATOM   14 ------------------------
     Tr[ns( 14)] (up, down, total) =   0.33459  4.97023  5.30483
     Atomic magnetic moment for atom  14 =  -4.63564
     SPIN  1
     eigenvalues:
       0.040  0.045  0.050  0.081  0.118
     eigenvectors (columns):
      -0.005  0.000 -0.000  1.000 -0.028
       0.000 -0.595 -0.804 -0.000  0.000
       0.000  0.804 -0.595 -0.000  0.000
      -0.972  0.000 -0.000  0.002  0.234
       0.234 -0.000  0.000  0.029  0.972
     occupation matrix ns (before diag.):
       0.081 -0.000 -0.000 -0.000 -0.001
      -0.000  0.049  0.003  0.000  0.000
      -0.000  0.003  0.047  0.000  0.000
      -0.000  0.000  0.000  0.044  0.018
      -0.001  0.000  0.000  0.018  0.114
     SPIN  2
     eigenvalues:
       0.985  0.993  0.997  0.997  0.998
     eigenvectors (columns):
      -0.999  0.046 -0.000 -0.000 -0.005
      -0.000 -0.000  0.821 -0.570 -0.000
      -0.000 -0.000  0.570  0.821 -0.000
       0.013  0.175 -0.000 -0.000 -0.984
       0.045  0.983  0.000  0.000  0.176
     occupation matrix ns (before diag.):
       0.985 -0.000 -0.000  0.000  0.000
      -0.000  0.997 -0.000  0.000  0.000
      -0.000 -0.000  0.997  0.000  0.000
       0.000  0.000  0.000  0.998 -0.001
       0.000  0.000  0.000 -0.001  0.994
     ------------------------ ATOM   15 ------------------------
     Tr[ns( 15)] (up, down, total) =   4.97025  0.33460  5.30485
     Atomic magnetic moment for atom  15 =   4.63564
     SPIN  1
     eigenvalues:
       0.985  0.993  0.997  0.997  0.998
     eigenvectors (columns):
      -0.999  0.046 -0.000 -0.000 -0.005
      -0.000 -0.000  0.818 -0.576 -0.000
      -0.000 -0.000  0.576  0.818 -0.000
       0.013  0.176 -0.000 -0.000 -0.984
       0.044  0.983  0.000  0.000  0.176
     occupation matrix ns (before diag.):
       0.985 -0.000 -0.000  0.000  0.000
      -0.000  0.997 -0.000  0.000  0.000
      -0.000 -0.000  0.997  0.000  0.000
       0.000  0.000  0.000  0.998 -0.001
       0.000  0.000  0.000 -0.001  0.994
     SPIN  2
     eigenvalues:
       0.040  0.045  0.050  0.081  0.118
     eigenvectors (columns):
       0.005  0.000 -0.000 -1.000 -0.028
      -0.000 -0.595 -0.803  0.000  0.000
      -0.000  0.803 -0.595  0.000  0.000
       0.972  0.000 -0.000 -0.001  0.234
      -0.234 -0.000  0.000 -0.029  0.972
     occupation matrix ns (before diag.):
       0.081 -0.000 -0.000 -0.000 -0.001
      -0.000  0.049  0.003  0.000  0.000
      -0.000  0.003  0.047  0.000  0.000
      -0.000  0.000  0.000  0.044  0.018
      -0.001  0.000  0.000  0.018  0.114
     ------------------------ ATOM   16 ------------------------
     Tr[ns( 16)] (up, down, total) =   0.33459  4.97023  5.30483
     Atomic magnetic moment for atom  16 =  -4.63564
     SPIN  1
     eigenvalues:
       0.040  0.045  0.050  0.081  0.118
     eigenvectors (columns):
      -0.005  0.000 -0.000  1.000 -0.028
       0.000 -0.595 -0.804 -0.000  0.000
       0.000  0.804 -0.595 -0.000  0.000
      -0.972  0.000 -0.000  0.002  0.234
       0.234 -0.000  0.000  0.029  0.972
     occupation matrix ns (before diag.):
       0.081 -0.000 -0.000 -0.000 -0.001
      -0.000  0.049  0.003  0.000  0.000
      -0.000  0.003  0.047  0.000  0.000
      -0.000  0.000  0.000  0.044  0.018
      -0.001  0.000  0.000  0.018  0.114
     SPIN  2
     eigenvalues:
       0.985  0.993  0.997  0.997  0.998
     eigenvectors (columns):
      -0.999  0.046 -0.000 -0.000 -0.005
      -0.000 -0.000  0.821 -0.570 -0.000
      -0.000 -0.000  0.570  0.821 -0.000
       0.013  0.175 -0.000 -0.000 -0.984
       0.045  0.983  0.000  0.000  0.176
     occupation matrix ns (before diag.):
       0.985 -0.000 -0.000  0.000  0.000
      -0.000  0.997 -0.000  0.000  0.000
      -0.000 -0.000  0.997  0.000  0.000
       0.000  0.000  0.000  0.998 -0.001
       0.000  0.000  0.000 -0.001  0.994

     Number of occupied Hubbard levels =   41.8830

     HUBBARD ENERGY =    0.3326  (Ry)

     total cpu time spent up to now is       44.3 secs

     total energy              =   -3089.23045196 Ry
     estimated scf accuracy    <      11.71293576 Ry

     total magnetization       =    -0.00 Bohr mag/cell
     absolute magnetization    =    39.20 Bohr mag/cell

     iteration #  2     ecut=    90.00 Ry     beta= 0.30
     Davidson diagonalization with overlap

---- Real-time Memory Report at c_bands before calling an iterative solver
          1116 MiB given to the printing process from OS
           728 MiB allocation reported by mallinfo(arena+hblkhd)
        675312 MiB available memory on the node where the printing process lives
------------------
     ethr =  3.57E-03,  avg # of iterations =  1.0

     =================== HUBBARD OCCUPATIONS ===================
     ------------------------ ATOM    9 ------------------------
     Tr[ns(  9)] (up, down, total) =   4.95769  0.25228  5.20997
     Atomic magnetic moment for atom   9 =   4.70541
     SPIN  1
     eigenvalues:
       0.980  0.991  0.995  0.996  0.996
     eigenvectors (columns):
       0.996  0.092 -0.000 -0.000  0.010
       0.000 -0.000  0.584  0.812 -0.000
       0.000 -0.000  0.812 -0.584 -0.000
       0.026 -0.174 -0.000  0.000 -0.984
      -0.089  0.980  0.000  0.000 -0.176
     occupation matrix ns (before diag.):
       0.981 -0.000 -0.000 -0.000  0.001
      -0.000  0.995 -0.000  0.000  0.000
      -0.000 -0.000  0.995  0.000  0.000
      -0.000  0.000  0.000  0.996  0.001
       0.001  0.000  0.000  0.001  0.991
     SPIN  2
     eigenvalues:
       0.031  0.032  0.035  0.058  0.095
     eigenvectors (columns):
      -0.000 -0.008 -0.000  1.000 -0.028
       0.799 -0.000 -0.601 -0.000  0.000
      -0.601 -0.000 -0.799 -0.000  0.000
       0.000  0.977 -0.000  0.002 -0.211
       0.000  0.211 -0.000  0.029  0.977
     occupation matrix ns (before diag.):
       0.059 -0.000 -0.000  0.000 -0.001
      -0.000  0.033  0.002  0.000  0.000
      -0.000  0.002  0.034  0.000  0.000
       0.000  0.000  0.000  0.035 -0.013
      -0.001  0.000  0.000 -0.013  0.092
     ------------------------ ATOM   10 ------------------------
     Tr[ns( 10)] (up, down, total) =   0.25228  4.95769  5.20997
     Atomic magnetic moment for atom  10 =  -4.70541
     SPIN  1
     eigenvalues:
       0.031  0.032  0.035  0.058  0.095
     eigenvectors (columns):
      -0.000 -0.008 -0.000  1.000 -0.028
       0.799 -0.000 -0.602 -0.000  0.000
      -0.602 -0.000 -0.799 -0.000  0.000
       0.000  0.977 -0.000  0.002 -0.211
       0.000  0.211 -0.000  0.029  0.977
     occupation matrix ns (before diag.):
       0.059 -0.000 -0.000  0.000 -0.001
      -0.000  0.033  0.002  0.000  0.000
      -0.000  0.002  0.034  0.000  0.000
       0.000  0.000  0.000  0.035 -0.013
      -0.001  0.000  0.000 -0.013  0.092
     SPIN  2
     eigenvalues:
       0.980  0.991  0.995  0.996  0.996
     eigenvectors (columns):
       0.996  0.091  0.000 -0.000  0.010
       0.000 -0.000  0.584  0.812 -0.000
       0.000 -0.000  0.812 -0.584 -0.000
       0.026 -0.174 -0.000  0.000 -0.984
      -0.088  0.980  0.000 -0.000 -0.176
     occupation matrix ns (before diag.):
       0.981 -0.000 -0.000 -0.000  0.001
      -0.000  0.995 -0.000  0.000  0.000
      -0.000 -0.000  0.995  0.000  0.000
      -0.000  0.000  0.000  0.996  0.001
       0.001  0.000  0.000  0.001  0.991
     ------------------------ ATOM   11 ------------------------
     Tr[ns( 11)] (up, down, total) =   4.95769  0.25228  5.20997
     Atomic magnetic moment for atom  11 =   4.70541
     SPIN  1
     eigenvalues:
       0.980  0.991  0.995  0.996  0.996
     eigenvectors (columns):
       0.996  0.092 -0.000 -0.000  0.010
       0.000 -0.000  0.584  0.812 -0.000
       0.000 -0.000  0.812 -0.584 -0.000
       0.026 -0.174 -0.000  0.000 -0.984
      -0.089  0.980  0.000  0.000 -0.176
     occupation matrix ns (before diag.):
       0.981 -0.000 -0.000 -0.000  0.001
      -0.000  0.995 -0.000  0.000  0.000
      -0.000 -0.000  0.995  0.000  0.000
      -0.000  0.000  0.000  0.996  0.001
       0.001  0.000  0.000  0.001  0.991
     SPIN  2
     eigenvalues:
       0.031  0.032  0.035  0.058  0.095
     eigenvectors (columns):
      -0.000 -0.008 -0.000  1.000 -0.028
       0.799 -0.000 -0.601 -0.000  0.000
      -0.601 -0.000 -0.799 -0.000  0.000
       0.000  0.977 -0.000  0.002 -0.211
       0.000  0.211 -0.000  0.029  0.977
     occupation matrix ns (before diag.):
       0.059 -0.000 -0.000  0.000 -0.001
      -0.000  0.033  0.002  0.000  0.000
      -0.000  0.002  0.034  0.000  0.000
       0.000  0.000  0.000  0.035 -0.013
      -0.001  0.000  0.000 -0.013  0.092
     ------------------------ ATOM   12 ------------------------
     Tr[ns( 12)] (up, down, total) =   0.25228  4.95769  5.20997
     Atomic magnetic moment for atom  12 =  -4.70541
     SPIN  1
     eigenvalues:
       0.031  0.032  0.035  0.058  0.095
     eigenvectors (columns):
      -0.000 -0.008 -0.000  1.000 -0.028
       0.799 -0.000 -0.602 -0.000  0.000
      -0.602 -0.000 -0.799 -0.000  0.000
       0.000  0.977 -0.000  0.002 -0.211
       0.000  0.211 -0.000  0.029  0.977
     occupation matrix ns (before diag.):
       0.059 -0.000 -0.000  0.000 -0.001
      -0.000  0.033  0.002  0.000  0.000
      -0.000  0.002  0.034  0.000  0.000
       0.000  0.000  0.000  0.035 -0.013
      -0.001  0.000  0.000 -0.013  0.092
     SPIN  2
     eigenvalues:
       0.980  0.991  0.995  0.996  0.996
     eigenvectors (columns):
       0.996  0.091 -0.000 -0.000  0.010
       0.000 -0.000  0.584  0.812 -0.000
       0.000 -0.000  0.812 -0.584 -0.000
       0.026 -0.174 -0.000  0.000 -0.984
      -0.088  0.980  0.000  0.000 -0.176
     occupation matrix ns (before diag.):
       0.981 -0.000 -0.000 -0.000  0.001
      -0.000  0.995 -0.000  0.000  0.000
      -0.000 -0.000  0.995  0.000  0.000
      -0.000  0.000  0.000  0.996  0.001
       0.001  0.000  0.000  0.001  0.991
     ------------------------ ATOM   13 ------------------------
     Tr[ns( 13)] (up, down, total) =   4.97236  0.42691  5.39927
     Atomic magnetic moment for atom  13 =   4.54545
     SPIN  1
     eigenvalues:
       0.987  0.993  0.997  0.997  0.998
     eigenvectors (columns):
      -0.998  0.061 -0.000 -0.000 -0.004
      -0.000 -0.000  0.811 -0.585 -0.000
      -0.000 -0.000  0.585  0.811 -0.000
       0.016  0.192 -0.000 -0.000 -0.981
       0.059  0.979  0.000  0.000  0.193
     occupation matrix ns (before diag.):
       0.987 -0.000 -0.000  0.000  0.000
      -0.000  0.997 -0.000  0.000  0.000
      -0.000 -0.000  0.997  0.000  0.000
       0.000  0.000  0.000  0.998 -0.001
       0.000  0.000  0.000 -0.001  0.993
     SPIN  2
     eigenvalues:
       0.050  0.058  0.067  0.102  0.150
     eigenvectors (columns):
       0.006  0.000 -0.000 -1.000 -0.031
      -0.000 -0.601 -0.799  0.000  0.000
      -0.000  0.799 -0.601  0.000  0.000
       0.972  0.000 -0.000 -0.002  0.234
      -0.234 -0.000  0.000 -0.031  0.972
     occupation matrix ns (before diag.):
       0.102 -0.000 -0.000 -0.001 -0.001
      -0.000  0.064  0.004  0.000  0.000
      -0.000  0.004  0.061  0.000  0.000
      -0.001  0.000  0.000  0.056  0.023
      -0.001  0.000  0.000  0.023  0.145
     ------------------------ ATOM   14 ------------------------
     Tr[ns( 14)] (up, down, total) =   0.42691  4.97236  5.39927
     Atomic magnetic moment for atom  14 =  -4.54545
     SPIN  1
     eigenvalues:
       0.050  0.058  0.067  0.102  0.150
     eigenvectors (columns):
       0.006  0.000 -0.000 -1.000 -0.031
      -0.000 -0.601 -0.799  0.000  0.000
      -0.000  0.799 -0.601  0.000  0.000
       0.972  0.000 -0.000 -0.002  0.234
      -0.234 -0.000  0.000 -0.031  0.972
     occupation matrix ns (before diag.):
       0.102 -0.000 -0.000 -0.001 -0.001
      -0.000  0.064  0.004  0.000  0.000
      -0.000  0.004  0.061  0.000  0.000
      -0.001  0.000  0.000  0.056  0.023
      -0.001  0.000  0.000  0.023  0.145
     SPIN  2
     eigenvalues:
       0.987  0.993  0.997  0.997  0.998
     eigenvectors (columns):
      -0.998  0.061 -0.000 -0.000 -0.004
      -0.000 -0.000  0.810 -0.587 -0.000
      -0.000 -0.000  0.587  0.810 -0.000
       0.015  0.192 -0.000 -0.000 -0.981
       0.059  0.979  0.000  0.000  0.193
     occupation matrix ns (before diag.):
       0.987 -0.000 -0.000  0.000  0.000
      -0.000  0.997 -0.000  0.000  0.000
      -0.000 -0.000  0.997  0.000  0.000
       0.000  0.000  0.000  0.998 -0.001
       0.000  0.000  0.000 -0.001  0.993
     ------------------------ ATOM   15 ------------------------
     Tr[ns( 15)] (up, down, total) =   4.97236  0.42691  5.39927
     Atomic magnetic moment for atom  15 =   4.54545
     SPIN  1
     eigenvalues:
       0.987  0.993  0.997  0.997  0.998
     eigenvectors (columns):
      -0.998  0.061 -0.000 -0.000 -0.004
      -0.000 -0.000  0.811 -0.585 -0.000
      -0.000 -0.000  0.585  0.811 -0.000
       0.016  0.192 -0.000 -0.000 -0.981
       0.059  0.979  0.000  0.000  0.193
     occupation matrix ns (before diag.):
       0.987 -0.000 -0.000  0.000  0.000
      -0.000  0.997 -0.000  0.000  0.000
      -0.000 -0.000  0.997  0.000  0.000
       0.000  0.000  0.000  0.998 -0.001
       0.000  0.000  0.000 -0.001  0.993
     SPIN  2
     eigenvalues:
       0.050  0.058  0.067  0.102  0.150
     eigenvectors (columns):
       0.006  0.000 -0.000 -1.000 -0.031
      -0.000 -0.601 -0.799  0.000  0.000
      -0.000  0.799 -0.601  0.000  0.000
       0.972  0.000 -0.000 -0.002  0.234
      -0.234 -0.000  0.000 -0.031  0.972
     occupation matrix ns (before diag.):
       0.102 -0.000 -0.000 -0.001 -0.001
      -0.000  0.064  0.004  0.000  0.000
      -0.000  0.004  0.061  0.000  0.000
      -0.001  0.000  0.000  0.056  0.023
      -0.001  0.000  0.000  0.023  0.145
     ------------------------ ATOM   16 ------------------------
     Tr[ns( 16)] (up, down, total) =   0.42691  4.97236  5.39927
     Atomic magnetic moment for atom  16 =  -4.54545
     SPIN  1
     eigenvalues:
       0.050  0.058  0.067  0.102  0.150
     eigenvectors (columns):
       0.006  0.000 -0.000  1.000 -0.031
      -0.000 -0.601 -0.799 -0.000  0.000
      -0.000  0.799 -0.601 -0.000  0.000
       0.972  0.000 -0.000  0.002  0.234
      -0.234 -0.000  0.000  0.031  0.972
     occupation matrix ns (before diag.):
       0.102 -0.000 -0.000 -0.001 -0.001
      -0.000  0.064  0.004  0.000  0.000
      -0.000  0.004  0.061  0.000  0.000
      -0.001  0.000  0.000  0.056  0.023
      -0.001  0.000  0.000  0.023  0.145
     SPIN  2
     eigenvalues:
       0.987  0.993  0.997  0.997  0.998
     eigenvectors (columns):
      -0.998  0.061 -0.000 -0.000 -0.004
      -0.000 -0.000  0.810 -0.587 -0.000
      -0.000 -0.000  0.587  0.810 -0.000
       0.015  0.192 -0.000 -0.000 -0.981
       0.059  0.979  0.000  0.000  0.193
     occupation matrix ns (before diag.):
       0.987 -0.000 -0.000  0.000  0.000
      -0.000  0.997 -0.000  0.000  0.000
      -0.000 -0.000  0.997  0.000  0.000
       0.000  0.000  0.000  0.998 -0.001
       0.000  0.000  0.000 -0.001  0.993

     Number of occupied Hubbard levels =   42.4370

     HUBBARD ENERGY =    0.3883  (Ry)

     total cpu time spent up to now is       67.9 secs

     total energy              =   -3087.87047161 Ry
     estimated scf accuracy    <       4.76969107 Ry

     total magnetization       =    -0.00 Bohr mag/cell
     absolute magnetization    =    39.01 Bohr mag/cell

     iteration #  3     ecut=    90.00 Ry     beta= 0.30
     Davidson diagonalization with overlap

---- Real-time Memory Report at c_bands before calling an iterative solver
          1227 MiB given to the printing process from OS
           740 MiB allocation reported by mallinfo(arena+hblkhd)
        675465 MiB available memory on the node where the printing process lives
------------------
     ethr =  1.45E-03,  avg # of iterations =  2.0

     =================== HUBBARD OCCUPATIONS ===================
     ------------------------ ATOM    9 ------------------------
     Tr[ns(  9)] (up, down, total) =   4.93910  0.32552  5.26462
     Atomic magnetic moment for atom   9 =   4.61358
     SPIN  1
     eigenvalues:
       0.973  0.981  0.994  0.996  0.996
     eigenvectors (columns):
       0.821  0.571 -0.000  0.013  0.000
       0.000 -0.000  0.589 -0.000  0.808
       0.000 -0.000  0.808  0.000 -0.589
       0.139 -0.179 -0.000 -0.974 -0.000
      -0.554  0.801 -0.000 -0.226 -0.000
     occupation matrix ns (before diag.):
       0.976 -0.000 -0.000 -0.001  0.003
      -0.000  0.995 -0.001  0.000  0.000
      -0.000 -0.001  0.994  0.000  0.000
      -0.001  0.000  0.000  0.995  0.004
       0.003  0.000  0.000  0.004  0.979
     SPIN  2
     eigenvalues:
       0.043  0.045  0.049  0.072  0.116
     eigenvectors (columns):
       0.000  0.014 -0.000 -0.999 -0.036
      -0.787  0.000 -0.616  0.000  0.000
       0.616  0.000 -0.787  0.000  0.000
      -0.000 -0.981 -0.000 -0.006 -0.196
      -0.000 -0.195 -0.000 -0.038  0.980
     occupation matrix ns (before diag.):
       0.072 -0.000 -0.000  0.001 -0.001
      -0.000  0.046  0.003  0.000  0.000
      -0.000  0.003  0.047  0.000  0.000
       0.001  0.000  0.000  0.047 -0.014
      -0.001  0.000  0.000 -0.014  0.113
     ------------------------ ATOM   10 ------------------------
     Tr[ns( 10)] (up, down, total) =   0.32552  4.93910  5.26462
     Atomic magnetic moment for atom  10 =  -4.61358
     SPIN  1
     eigenvalues:
       0.043  0.045  0.049  0.072  0.116
     eigenvectors (columns):
       0.000  0.014 -0.000 -0.999 -0.036
      -0.787  0.000 -0.617  0.000  0.000
       0.617  0.000 -0.787  0.000  0.000
      -0.000 -0.981 -0.000 -0.006 -0.196
      -0.000 -0.195 -0.000 -0.038  0.980
     occupation matrix ns (before diag.):
       0.072 -0.000 -0.000  0.001 -0.001
      -0.000  0.046  0.003  0.000  0.000
      -0.000  0.003  0.047  0.000  0.000
       0.001  0.000  0.000  0.047 -0.014
      -0.001  0.000  0.000 -0.014  0.113
     SPIN  2
     eigenvalues:
       0.973  0.981  0.994  0.996  0.996
     eigenvectors (columns):
       0.821  0.571 -0.000  0.012  0.000
       0.000 -0.000  0.589 -0.000  0.808
       0.000 -0.000  0.808  0.000 -0.589
       0.139 -0.179 -0.000 -0.974 -0.000
      -0.554  0.801 -0.000 -0.226 -0.000
     occupation matrix ns (before diag.):
       0.976 -0.000 -0.000 -0.001  0.003
      -0.000  0.995 -0.001  0.000  0.000
      -0.000 -0.001  0.994  0.000  0.000
      -0.001  0.000  0.000  0.995  0.004
       0.003  0.000  0.000  0.004  0.979
     ------------------------ ATOM   11 ------------------------
     Tr[ns( 11)] (up, down, total) =   4.93910  0.32552  5.26462
     Atomic magnetic moment for atom  11 =   4.61358
     SPIN  1
     eigenvalues:
       0.973  0.981  0.994  0.996  0.996
     eigenvectors (columns):
       0.821  0.571 -0.000  0.013  0.000
       0.000 -0.000  0.589 -0.000  0.808
       0.000 -0.000  0.808  0.000 -0.589
       0.139 -0.179 -0.000 -0.974 -0.000
      -0.554  0.801 -0.000 -0.226 -0.000
     occupation matrix ns (before diag.):
       0.976 -0.000 -0.000 -0.001  0.003
      -0.000  0.995 -0.001  0.000  0.000
      -0.000 -0.001  0.994  0.000  0.000
      -0.001  0.000  0.000  0.995  0.004
       0.003  0.000  0.000  0.004  0.979
     SPIN  2
     eigenvalues:
       0.043  0.045  0.049  0.072  0.116
     eigenvectors (columns):
       0.000  0.014 -0.000 -0.999 -0.036
      -0.787  0.000 -0.616  0.000  0.000
       0.616  0.000 -0.787  0.000  0.000
      -0.000 -0.981 -0.000 -0.006 -0.196
      -0.000 -0.195 -0.000 -0.038  0.980
     occupation matrix ns (before diag.):
       0.072 -0.000 -0.000  0.001 -0.001
      -0.000  0.046  0.003  0.000  0.000
      -0.000  0.003  0.047  0.000  0.000
       0.001  0.000  0.000  0.047 -0.014
      -0.001  0.000  0.000 -0.014  0.113
     ------------------------ ATOM   12 ------------------------
     Tr[ns( 12)] (up, down, total) =   0.32552  4.93910  5.26462
     Atomic magnetic moment for atom  12 =  -4.61358
     SPIN  1
     eigenvalues:
       0.043  0.045  0.049  0.072  0.116
     eigenvectors (columns):
       0.000  0.014 -0.000 -0.999 -0.036
      -0.787  0.000 -0.617  0.000  0.000
       0.617  0.000 -0.787  0.000  0.000
      -0.000 -0.981 -0.000 -0.006 -0.196
      -0.000 -0.195 -0.000 -0.038  0.980
     occupation matrix ns (before diag.):
       0.072 -0.000 -0.000  0.001 -0.001
      -0.000  0.046  0.003  0.000  0.000
      -0.000  0.003  0.047  0.000  0.000
       0.001  0.000  0.000  0.047 -0.014
      -0.001  0.000  0.000 -0.014  0.113
     SPIN  2
     eigenvalues:
       0.973  0.981  0.994  0.996  0.996
     eigenvectors (columns):
       0.821  0.571 -0.000  0.012  0.000
       0.000 -0.000  0.589 -0.000  0.808
       0.000 -0.000  0.808  0.000 -0.589
       0.139 -0.179 -0.000 -0.974 -0.000
      -0.554  0.801 -0.000 -0.226 -0.000
     occupation matrix ns (before diag.):
       0.976 -0.000 -0.000 -0.001  0.003
      -0.000  0.995 -0.001  0.000  0.000
      -0.000 -0.001  0.994  0.000  0.000
      -0.001  0.000  0.000  0.995  0.004
       0.003  0.000  0.000  0.004  0.979
     ------------------------ ATOM   13 ------------------------
     Tr[ns( 13)] (up, down, total) =   4.97352  0.86750  5.84102
     Atomic magnetic moment for atom  13 =   4.10602
     SPIN  1
     eigenvalues:
       0.990  0.992  0.997  0.997  0.998
     eigenvectors (columns):
      -0.990  0.141 -0.000 -0.000  0.003
      -0.000 -0.000  0.816 -0.578  0.000
      -0.000 -0.000  0.578  0.816  0.000
       0.031  0.200 -0.000 -0.000  0.979
       0.138  0.970  0.000  0.000 -0.202
     occupation matrix ns (before diag.):
       0.990 -0.000 -0.000  0.000  0.000
      -0.000  0.997 -0.000  0.000  0.000
      -0.000 -0.000  0.997  0.000  0.000
       0.000  0.000  0.000  0.998 -0.001
       0.000  0.000  0.000 -0.001  0.992
     SPIN  2
     eigenvalues:
       0.105  0.128  0.167  0.195  0.272
     eigenvectors (columns):
       0.009  0.000 -0.000  0.999 -0.043
      -0.000 -0.621 -0.784 -0.000  0.000
      -0.000  0.784 -0.621 -0.000  0.000
       0.968  0.000 -0.000  0.002  0.251
      -0.251 -0.000  0.000  0.044  0.967
     occupation matrix ns (before diag.):
       0.195 -0.000 -0.000 -0.002 -0.003
      -0.000  0.152  0.019  0.000  0.000
      -0.000  0.019  0.143  0.000  0.000
      -0.002  0.000  0.000  0.116  0.041
      -0.003  0.000  0.000  0.041  0.261
     ------------------------ ATOM   14 ------------------------
     Tr[ns( 14)] (up, down, total) =   0.86734  4.97352  5.84087
     Atomic magnetic moment for atom  14 =  -4.10618
     SPIN  1
     eigenvalues:
       0.105  0.128  0.167  0.195  0.272
     eigenvectors (columns):
       0.009  0.000 -0.000  0.999 -0.043
      -0.000 -0.621 -0.784 -0.000  0.000
      -0.000  0.784 -0.621 -0.000  0.000
       0.968  0.000 -0.000  0.002  0.251
      -0.251 -0.000  0.000  0.044  0.967
     occupation matrix ns (before diag.):
       0.195 -0.000 -0.000 -0.002 -0.003
      -0.000  0.152  0.019  0.000  0.000
      -0.000  0.019  0.143  0.000  0.000
      -0.002  0.000  0.000  0.116  0.041
      -0.003  0.000  0.000  0.041  0.261
     SPIN  2
     eigenvalues:
       0.990  0.992  0.997  0.997  0.998
     eigenvectors (columns):
      -0.990  0.141 -0.000 -0.000  0.003
      -0.000 -0.000  0.810 -0.587  0.000
      -0.000 -0.000  0.587  0.810  0.000
       0.031  0.200 -0.000 -0.000  0.979
       0.137  0.970  0.000  0.000 -0.203
     occupation matrix ns (before diag.):
       0.990 -0.000 -0.000  0.000  0.000
      -0.000  0.997 -0.000  0.000  0.000
      -0.000 -0.000  0.997  0.000  0.000
       0.000  0.000  0.000  0.998 -0.001
       0.000  0.000  0.000 -0.001  0.992
     ------------------------ ATOM   15 ------------------------
     Tr[ns( 15)] (up, down, total) =   4.97352  0.86750  5.84102
     Atomic magnetic moment for atom  15 =   4.10602
     SPIN  1
     eigenvalues:
       0.990  0.992  0.997  0.997  0.998
     eigenvectors (columns):
      -0.990  0.141 -0.000 -0.000  0.003
      -0.000 -0.000  0.816 -0.578  0.000
      -0.000 -0.000  0.578  0.816  0.000
       0.031  0.200 -0.000 -0.000  0.979
       0.138  0.970  0.000  0.000 -0.202
     occupation matrix ns (before diag.):
       0.990 -0.000 -0.000  0.000  0.000
      -0.000  0.997 -0.000  0.000  0.000
      -0.000 -0.000  0.997  0.000  0.000
       0.000  0.000  0.000  0.998 -0.001
       0.000  0.000  0.000 -0.001  0.992
     SPIN  2
     eigenvalues:
       0.105  0.128  0.167  0.195  0.272
     eigenvectors (columns):
       0.009  0.000 -0.000  0.999 -0.043
      -0.000 -0.621 -0.784 -0.000  0.000
      -0.000  0.784 -0.621 -0.000  0.000
       0.968  0.000 -0.000  0.002  0.251
      -0.251 -0.000  0.000  0.044  0.967
     occupation matrix ns (before diag.):
       0.195 -0.000 -0.000 -0.002 -0.003
      -0.000  0.152  0.019  0.000  0.000
      -0.000  0.019  0.143  0.000  0.000
      -0.002  0.000  0.000  0.116  0.041
      -0.003  0.000  0.000  0.041  0.261
     ------------------------ ATOM   16 ------------------------
     Tr[ns( 16)] (up, down, total) =   0.86734  4.97352  5.84087
     Atomic magnetic moment for atom  16 =  -4.10618
     SPIN  1
     eigenvalues:
       0.105  0.128  0.167  0.195  0.272
     eigenvectors (columns):
       0.009  0.000 -0.000  0.999 -0.043
      -0.000 -0.621 -0.784 -0.000  0.000
      -0.000  0.784 -0.621 -0.000  0.000
       0.968  0.000 -0.000  0.002  0.251
      -0.251 -0.000  0.000  0.044  0.967
     occupation matrix ns (before diag.):
       0.195 -0.000 -0.000 -0.002 -0.003
      -0.000  0.152  0.019  0.000  0.000
      -0.000  0.019  0.143  0.000  0.000
      -0.002  0.000  0.000  0.116  0.041
      -0.003  0.000  0.000  0.041  0.261
     SPIN  2
     eigenvalues:
       0.990  0.992  0.997  0.997  0.998
     eigenvectors (columns):
      -0.990  0.141 -0.000 -0.000  0.003
      -0.000 -0.000  0.810 -0.587  0.000
      -0.000 -0.000  0.587  0.810  0.000
       0.031  0.200 -0.000 -0.000  0.979
       0.137  0.970  0.000  0.000 -0.203
     occupation matrix ns (before diag.):
       0.990 -0.000 -0.000  0.000  0.000
      -0.000  0.997 -0.000  0.000  0.000
      -0.000 -0.000  0.997  0.000  0.000
       0.000  0.000  0.000  0.998 -0.001
       0.000  0.000  0.000 -0.001  0.992

     Number of occupied Hubbard levels =   44.4223

     HUBBARD ENERGY =    0.4997  (Ry)

     total cpu time spent up to now is       96.8 secs

     total energy              =   -3088.75830875 Ry
     estimated scf accuracy    <       0.31290169 Ry

     total magnetization       =    -0.00 Bohr mag/cell
     absolute magnetization    =    38.37 Bohr mag/cell

     iteration #  4     ecut=    90.00 Ry     beta= 0.30
     Davidson diagonalization with overlap

---- Real-time Memory Report at c_bands before calling an iterative solver
          1238 MiB given to the printing process from OS
           752 MiB allocation reported by mallinfo(arena+hblkhd)
        675498 MiB available memory on the node where the printing process lives
------------------
     ethr =  9.54E-05,  avg # of iterations =  9.1

     =================== HUBBARD OCCUPATIONS ===================
     ------------------------ ATOM    9 ------------------------
     Tr[ns(  9)] (up, down, total) =   4.93786  0.30988  5.24774
     Atomic magnetic moment for atom   9 =   4.62799
     SPIN  1
     eigenvalues:
       0.973  0.980  0.993  0.996  0.996
     eigenvectors (columns):
      -0.846  0.533 -0.000 -0.000  0.011
      -0.000 -0.000  0.589  0.808  0.000
      -0.000 -0.000  0.808 -0.589 -0.000
      -0.133 -0.190 -0.000  0.000 -0.973
       0.516  0.825 -0.000  0.000 -0.231
     occupation matrix ns (before diag.):
       0.975 -0.000 -0.000 -0.001  0.003
      -0.000  0.995 -0.001  0.000  0.000
      -0.000 -0.001  0.994  0.000  0.000
      -0.001  0.000  0.000  0.995  0.004
       0.003  0.000  0.000  0.004  0.979
     SPIN  2
     eigenvalues:
       0.040  0.041  0.046  0.069  0.113
     eigenvectors (columns):
       0.000  0.012 -0.000 -0.999 -0.032
      -0.792  0.000 -0.610  0.000  0.000
       0.610  0.000 -0.792  0.000  0.000
      -0.000 -0.981 -0.000 -0.006 -0.195
      -0.000 -0.194 -0.000 -0.034  0.980
     occupation matrix ns (before diag.):
       0.070 -0.000 -0.000  0.001 -0.001
      -0.000  0.042  0.003  0.000  0.000
      -0.000  0.003  0.044  0.000  0.000
       0.001  0.000  0.000  0.044 -0.014
      -0.001  0.000  0.000 -0.014  0.110
     ------------------------ ATOM   10 ------------------------
     Tr[ns( 10)] (up, down, total) =   0.30987  4.93786  5.24774
     Atomic magnetic moment for atom  10 =  -4.62799
     SPIN  1
     eigenvalues:
       0.040  0.041  0.046  0.069  0.113
     eigenvectors (columns):
       0.000  0.013 -0.000 -0.999 -0.032
      -0.792  0.000 -0.611  0.000  0.000
       0.611  0.000 -0.792  0.000  0.000
      -0.000 -0.981 -0.000 -0.006 -0.195
      -0.000 -0.194 -0.000 -0.034  0.980
     occupation matrix ns (before diag.):
       0.070 -0.000 -0.000  0.001 -0.001
      -0.000  0.042  0.003  0.000  0.000
      -0.000  0.003  0.044  0.000  0.000
       0.001  0.000  0.000  0.044 -0.014
      -0.001  0.000  0.000 -0.014  0.110
     SPIN  2
     eigenvalues:
       0.973  0.980  0.993  0.996  0.996
     eigenvectors (columns):
      -0.846  0.533 -0.000 -0.000  0.011
      -0.000 -0.000  0.589  0.808  0.000
      -0.000 -0.000  0.808 -0.589 -0.000
      -0.133 -0.190 -0.000  0.000 -0.973
       0.516  0.825 -0.000  0.000 -0.231
     occupation matrix ns (before diag.):
       0.975 -0.000 -0.000 -0.001  0.003
      -0.000  0.995 -0.001  0.000  0.000
      -0.000 -0.001  0.994  0.000  0.000
      -0.001  0.000  0.000  0.995  0.004
       0.003  0.000  0.000  0.004  0.979
     ------------------------ ATOM   11 ------------------------
     Tr[ns( 11)] (up, down, total) =   4.93786  0.30988  5.24774
     Atomic magnetic moment for atom  11 =   4.62799
     SPIN  1
     eigenvalues:
       0.973  0.980  0.993  0.996  0.996
     eigenvectors (columns):
      -0.846  0.533 -0.000 -0.000  0.011
      -0.000 -0.000  0.589  0.808  0.000
      -0.000 -0.000  0.808 -0.589 -0.000
      -0.133 -0.190 -0.000  0.000 -0.973
       0.516  0.825 -0.000  0.000 -0.231
     occupation matrix ns (before diag.):
       0.975 -0.000 -0.000 -0.001  0.003
      -0.000  0.995 -0.001  0.000  0.000
      -0.000 -0.001  0.994  0.000  0.000
      -0.001  0.000  0.000  0.995  0.004
       0.003  0.000  0.000  0.004  0.979
     SPIN  2
     eigenvalues:
       0.040  0.041  0.046  0.069  0.113
     eigenvectors (columns):
       0.000  0.012 -0.000 -0.999 -0.032
      -0.792  0.000 -0.610  0.000  0.000
       0.610  0.000 -0.792  0.000  0.000
      -0.000 -0.981 -0.000 -0.006 -0.195
      -0.000 -0.194 -0.000 -0.034  0.980
     occupation matrix ns (before diag.):
       0.070 -0.000 -0.000  0.001 -0.001
      -0.000  0.042  0.003  0.000  0.000
      -0.000  0.003  0.044  0.000  0.000
       0.001  0.000  0.000  0.044 -0.014
      -0.001  0.000  0.000 -0.014  0.110
     ------------------------ ATOM   12 ------------------------
     Tr[ns( 12)] (up, down, total) =   0.30987  4.93786  5.24774
     Atomic magnetic moment for atom  12 =  -4.62799
     SPIN  1
     eigenvalues:
       0.040  0.041  0.046  0.069  0.113
     eigenvectors (columns):
       0.000  0.013 -0.000 -0.999 -0.032
      -0.792  0.000 -0.611  0.000  0.000
       0.611  0.000 -0.792  0.000  0.000
      -0.000 -0.981 -0.000 -0.006 -0.195
      -0.000 -0.194 -0.000 -0.034  0.980
     occupation matrix ns (before diag.):
       0.070 -0.000 -0.000  0.001 -0.001
      -0.000  0.042  0.003  0.000  0.000
      -0.000  0.003  0.044  0.000  0.000
       0.001  0.000  0.000  0.044 -0.014
      -0.001  0.000  0.000 -0.014  0.110
     SPIN  2
     eigenvalues:
       0.973  0.980  0.993  0.996  0.996
     eigenvectors (columns):
      -0.846  0.533 -0.000 -0.000  0.011
      -0.000 -0.000  0.589  0.808  0.000
      -0.000 -0.000  0.808 -0.589 -0.000
      -0.133 -0.190 -0.000  0.000 -0.973
       0.516  0.825 -0.000  0.000 -0.231
     occupation matrix ns (before diag.):
       0.975 -0.000 -0.000 -0.001  0.003
      -0.000  0.995 -0.001  0.000  0.000
      -0.000 -0.001  0.994  0.000  0.000
      -0.001  0.000  0.000  0.995  0.004
       0.003  0.000  0.000  0.004  0.979
     ------------------------ ATOM   13 ------------------------
     Tr[ns( 13)] (up, down, total) =   4.97331  0.83417  5.80748
     Atomic magnetic moment for atom  13 =   4.13914
     SPIN  1
     eigenvalues:
       0.989  0.992  0.997  0.997  0.998
     eigenvectors (columns):
       0.993  0.119 -0.000 -0.000 -0.003
       0.000 -0.000  0.820 -0.573 -0.000
       0.000 -0.000  0.573  0.820 -0.000
      -0.027  0.202 -0.000 -0.000 -0.979
      -0.116  0.972  0.000  0.000  0.204
     occupation matrix ns (before diag.):
       0.989 -0.000 -0.000  0.000  0.000
      -0.000  0.997 -0.000  0.000  0.000
      -0.000 -0.000  0.997  0.000  0.000
       0.000  0.000  0.000  0.998 -0.001
       0.000  0.000  0.000 -0.001  0.992
     SPIN  2
     eigenvalues:
       0.097  0.120  0.160  0.189  0.268
     eigenvectors (columns):
       0.009  0.000 -0.000  0.999 -0.038
      -0.000 -0.619 -0.786 -0.000  0.000
      -0.000  0.786 -0.619 -0.000  0.000
       0.968  0.000 -0.000  0.001  0.250
      -0.250 -0.000  0.000  0.039  0.967
     occupation matrix ns (before diag.):
       0.189 -0.000 -0.000 -0.002 -0.003
      -0.000  0.145  0.019  0.000  0.000
      -0.000  0.019  0.135  0.000  0.000
      -0.002  0.000  0.000  0.108  0.041
      -0.003  0.000  0.000  0.041  0.257
     ------------------------ ATOM   14 ------------------------
     Tr[ns( 14)] (up, down, total) =   0.83406  4.97331  5.80736
     Atomic magnetic moment for atom  14 =  -4.13925
     SPIN  1
     eigenvalues:
       0.097  0.120  0.160  0.189  0.268
     eigenvectors (columns):
       0.009  0.000 -0.000  0.999 -0.038
      -0.000 -0.619 -0.786 -0.000  0.000
      -0.000  0.786 -0.619 -0.000  0.000
       0.968  0.000 -0.000  0.001  0.250
      -0.250 -0.000  0.000  0.039  0.967
     occupation matrix ns (before diag.):
       0.189 -0.000 -0.000 -0.002 -0.003
      -0.000  0.145  0.019  0.000  0.000
      -0.000  0.019  0.135  0.000  0.000
      -0.002  0.000  0.000  0.108  0.041
      -0.003  0.000  0.000  0.041  0.257
     SPIN  2
     eigenvalues:
       0.989  0.992  0.997  0.997  0.998
     eigenvectors (columns):
       0.993  0.119 -0.000 -0.000 -0.003
       0.000 -0.000  0.818 -0.575 -0.000
       0.000 -0.000  0.575  0.818 -0.000
      -0.027  0.202 -0.000 -0.000 -0.979
      -0.116  0.972  0.000  0.000  0.204
     occupation matrix ns (before diag.):
       0.989 -0.000 -0.000  0.000  0.000
      -0.000  0.997 -0.000  0.000  0.000
      -0.000 -0.000  0.997  0.000  0.000
       0.000  0.000  0.000  0.998 -0.001
       0.000  0.000  0.000 -0.001  0.992
     ------------------------ ATOM   15 ------------------------
     Tr[ns( 15)] (up, down, total) =   4.97331  0.83417  5.80748
     Atomic magnetic moment for atom  15 =   4.13914
     SPIN  1
     eigenvalues:
       0.989  0.992  0.997  0.997  0.998
     eigenvectors (columns):
       0.993  0.119 -0.000 -0.000 -0.003
       0.000 -0.000  0.820 -0.573 -0.000
       0.000 -0.000  0.573  0.820 -0.000
      -0.027  0.202 -0.000 -0.000 -0.979
      -0.116  0.972  0.000  0.000  0.204
     occupation matrix ns (before diag.):
       0.989 -0.000 -0.000  0.000  0.000
      -0.000  0.997 -0.000  0.000  0.000
      -0.000 -0.000  0.997  0.000  0.000
       0.000  0.000  0.000  0.998 -0.001
       0.000  0.000  0.000 -0.001  0.992
     SPIN  2
     eigenvalues:
       0.097  0.120  0.160  0.189  0.268
     eigenvectors (columns):
       0.009  0.000 -0.000  0.999 -0.038
      -0.000 -0.619 -0.786 -0.000  0.000
      -0.000  0.786 -0.619 -0.000  0.000
       0.968  0.000 -0.000  0.001  0.250
      -0.250 -0.000  0.000  0.039  0.967
     occupation matrix ns (before diag.):
       0.189 -0.000 -0.000 -0.002 -0.003
      -0.000  0.145  0.019  0.000  0.000
      -0.000  0.019  0.135  0.000  0.000
      -0.002  0.000  0.000  0.108  0.041
      -0.003  0.000  0.000  0.041  0.257
     ------------------------ ATOM   16 ------------------------
     Tr[ns( 16)] (up, down, total) =   0.83406  4.97331  5.80736
     Atomic magnetic moment for atom  16 =  -4.13925
     SPIN  1
     eigenvalues:
       0.097  0.120  0.160  0.189  0.268
     eigenvectors (columns):
       0.009  0.000 -0.000  0.999 -0.038
      -0.000 -0.619 -0.786 -0.000  0.000
      -0.000  0.786 -0.619 -0.000  0.000
       0.968  0.000 -0.000  0.001  0.250
      -0.250 -0.000  0.000  0.039  0.967
     occupation matrix ns (before diag.):
       0.189 -0.000 -0.000 -0.002 -0.003
      -0.000  0.145  0.019  0.000  0.000
      -0.000  0.019  0.135  0.000  0.000
      -0.002  0.000  0.000  0.108  0.041
      -0.003  0.000  0.000  0.041  0.257
     SPIN  2
     eigenvalues:
       0.989  0.992  0.997  0.997  0.998
     eigenvectors (columns):
       0.993  0.119 -0.000 -0.000 -0.003
       0.000 -0.000  0.818 -0.575 -0.000
       0.000 -0.000  0.575  0.818 -0.000
      -0.027  0.202 -0.000 -0.000 -0.979
      -0.116  0.972  0.000  0.000  0.204
     occupation matrix ns (before diag.):
       0.989 -0.000 -0.000  0.000  0.000
      -0.000  0.997 -0.000  0.000  0.000
      -0.000 -0.000  0.997  0.000  0.000
       0.000  0.000  0.000  0.998 -0.001
       0.000  0.000  0.000 -0.001  0.992

     Number of occupied Hubbard levels =   44.2206

     HUBBARD ENERGY =    0.6616  (Ry)

     total cpu time spent up to now is      129.7 secs

     total energy              =   -3088.77090275 Ry
     estimated scf accuracy    <       0.13240277 Ry

     total magnetization       =     0.00 Bohr mag/cell
     absolute magnetization    =    38.49 Bohr mag/cell

     iteration #  5     ecut=    90.00 Ry     beta= 0.30
     Davidson diagonalization with overlap

---- Real-time Memory Report at c_bands before calling an iterative solver
          1250 MiB given to the printing process from OS
           764 MiB allocation reported by mallinfo(arena+hblkhd)
        675505 MiB available memory on the node where the printing process lives
------------------
     ethr =  4.04E-05,  avg # of iterations =  2.2

     =================== HUBBARD OCCUPATIONS ===================
     ------------------------ ATOM    9 ------------------------
     Tr[ns(  9)] (up, down, total) =   4.93093  0.30136  5.23229
     Atomic magnetic moment for atom   9 =   4.62958
     SPIN  1
     eigenvalues:
       0.969  0.977  0.993  0.996  0.996
     eigenvectors (columns):
      -0.711 -0.703 -0.000  0.010  0.000
      -0.000  0.000  0.591 -0.000  0.807
      -0.000  0.000  0.807  0.000 -0.591
      -0.177  0.165 -0.000 -0.970 -0.000
       0.680 -0.692 -0.000 -0.242 -0.000
     occupation matrix ns (before diag.):
       0.973 -0.000 -0.000 -0.001  0.004
      -0.000  0.995 -0.001  0.000  0.000
      -0.000 -0.001  0.994  0.000  0.000
      -0.001  0.000  0.000  0.994  0.005
       0.004  0.000  0.000  0.005  0.974
     SPIN  2
     eigenvalues:
       0.039  0.039  0.044  0.068  0.111
     eigenvectors (columns):
       0.000  0.013 -0.000 -0.999 -0.036
      -0.794  0.000 -0.608  0.000  0.000
       0.608 -0.000 -0.794  0.000  0.000
      -0.000 -0.982 -0.000 -0.006 -0.191
      -0.000 -0.191 -0.000 -0.038  0.981
     occupation matrix ns (before diag.):
       0.068 -0.000 -0.000  0.001 -0.001
      -0.000  0.041  0.003  0.000  0.000
      -0.000  0.003  0.042  0.000  0.000
       0.001  0.000  0.000  0.042 -0.013
      -0.001  0.000  0.000 -0.013  0.108
     ------------------------ ATOM   10 ------------------------
     Tr[ns( 10)] (up, down, total) =   0.30137  4.93094  5.23231
     Atomic magnetic moment for atom  10 =  -4.62957
     SPIN  1
     eigenvalues:
       0.039  0.039  0.044  0.068  0.111
     eigenvectors (columns):
       0.000  0.013 -0.000 -0.999 -0.036
      -0.794  0.000 -0.608  0.000  0.000
       0.608 -0.000 -0.794  0.000  0.000
      -0.000 -0.982 -0.000 -0.006 -0.191
      -0.000 -0.191 -0.000 -0.038  0.981
     occupation matrix ns (before diag.):
       0.068 -0.000 -0.000  0.001 -0.001
      -0.000  0.041  0.003  0.000  0.000
      -0.000  0.003  0.042  0.000  0.000
       0.001  0.000  0.000  0.042 -0.013
      -0.001  0.000  0.000 -0.013  0.108
     SPIN  2
     eigenvalues:
       0.969  0.977  0.993  0.996  0.996
     eigenvectors (columns):
      -0.712 -0.703 -0.000  0.010  0.000
      -0.000  0.000  0.591 -0.000  0.807
      -0.000  0.000  0.807  0.000 -0.591
      -0.177  0.165 -0.000 -0.970 -0.000
       0.680 -0.692 -0.000 -0.242 -0.000
     occupation matrix ns (before diag.):
       0.973 -0.000 -0.000 -0.001  0.004
      -0.000  0.995 -0.001  0.000  0.000
      -0.000 -0.001  0.994  0.000  0.000
      -0.001  0.000  0.000  0.994  0.005
       0.004  0.000  0.000  0.005  0.974
     ------------------------ ATOM   11 ------------------------
     Tr[ns( 11)] (up, down, total) =   4.93093  0.30136  5.23229
     Atomic magnetic moment for atom  11 =   4.62958
     SPIN  1
     eigenvalues:
       0.969  0.977  0.993  0.996  0.996
     eigenvectors (columns):
      -0.711 -0.703 -0.000  0.010  0.000
      -0.000  0.000  0.591 -0.000  0.807
      -0.000  0.000  0.807  0.000 -0.591
      -0.177  0.165 -0.000 -0.970 -0.000
       0.680 -0.692 -0.000 -0.242 -0.000
     occupation matrix ns (before diag.):
       0.973 -0.000 -0.000 -0.001  0.004
      -0.000  0.995 -0.001  0.000  0.000
      -0.000 -0.001  0.994  0.000  0.000
      -0.001  0.000  0.000  0.994  0.005
       0.004  0.000  0.000  0.005  0.974
     SPIN  2
     eigenvalues:
       0.039  0.039  0.044  0.068  0.111
     eigenvectors (columns):
       0.000  0.013 -0.000 -0.999 -0.036
      -0.794  0.000 -0.608  0.000  0.000
       0.608 -0.000 -0.794  0.000  0.000
      -0.000 -0.982 -0.000 -0.006 -0.191
      -0.000 -0.191 -0.000 -0.038  0.981
     occupation matrix ns (before diag.):
       0.068 -0.000 -0.000  0.001 -0.001
      -0.000  0.041  0.003  0.000  0.000
      -0.000  0.003  0.042  0.000  0.000
       0.001  0.000  0.000  0.042 -0.013
      -0.001  0.000  0.000 -0.013  0.108
     ------------------------ ATOM   12 ------------------------
     Tr[ns( 12)] (up, down, total) =   0.30137  4.93094  5.23231
     Atomic magnetic moment for atom  12 =  -4.62957
     SPIN  1
     eigenvalues:
       0.039  0.039  0.044  0.068  0.111
     eigenvectors (columns):
       0.000  0.013 -0.000 -0.999 -0.036
      -0.794  0.000 -0.608  0.000  0.000
       0.608 -0.000 -0.794  0.000  0.000
      -0.000 -0.982 -0.000 -0.006 -0.191
      -0.000 -0.191 -0.000 -0.038  0.981
     occupation matrix ns (before diag.):
       0.068 -0.000 -0.000  0.001 -0.001
      -0.000  0.041  0.003  0.000  0.000
      -0.000  0.003  0.042  0.000  0.000
       0.001  0.000  0.000  0.042 -0.013
      -0.001  0.000  0.000 -0.013  0.108
     SPIN  2
     eigenvalues:
       0.969  0.977  0.993  0.996  0.996
     eigenvectors (columns):
      -0.712 -0.703 -0.000  0.010  0.000
      -0.000  0.000  0.591 -0.000  0.807
      -0.000  0.000  0.807  0.000 -0.591
      -0.177  0.165 -0.000 -0.970 -0.000
       0.680 -0.692 -0.000 -0.242 -0.000
     occupation matrix ns (before diag.):
       0.973 -0.000 -0.000 -0.001  0.004
      -0.000  0.995 -0.001  0.000  0.000
      -0.000 -0.001  0.994  0.000  0.000
      -0.001  0.000  0.000  0.994  0.005
       0.004  0.000  0.000  0.005  0.974
     ------------------------ ATOM   13 ------------------------
     Tr[ns( 13)] (up, down, total) =   4.97297  0.90665  5.87962
     Atomic magnetic moment for atom  13 =   4.06631
     SPIN  1
     eigenvalues:
       0.989  0.991  0.997  0.997  0.998
     eigenvectors (columns):
       0.994  0.106 -0.000 -0.000 -0.003
       0.000 -0.000  0.832 -0.555 -0.000
       0.000 -0.000  0.555  0.832 -0.000
      -0.025  0.207 -0.000 -0.000 -0.978
      -0.103  0.973  0.000  0.000  0.209
     occupation matrix ns (before diag.):
       0.989 -0.000 -0.000  0.000  0.000
      -0.000  0.997 -0.000  0.000  0.000
      -0.000 -0.000  0.997  0.000  0.000
       0.000  0.000  0.000  0.998 -0.001
       0.000  0.000  0.000 -0.001  0.992
     SPIN  2
     eigenvalues:
       0.099  0.128  0.182  0.205  0.293
     eigenvectors (columns):
       0.009  0.000 -0.000  1.000 -0.029
      -0.000 -0.620 -0.785 -0.000  0.000
      -0.000  0.785 -0.620 -0.000  0.000
       0.967  0.000 -0.000 -0.001  0.254
      -0.254 -0.000  0.000  0.031  0.967
     occupation matrix ns (before diag.):
       0.205 -0.000 -0.000 -0.002 -0.002
      -0.000  0.161  0.026  0.000  0.000
      -0.000  0.026  0.149  0.000  0.000
      -0.002  0.000  0.000  0.112  0.048
      -0.002  0.000  0.000  0.048  0.280
     ------------------------ ATOM   14 ------------------------
     Tr[ns( 14)] (up, down, total) =   0.90669  4.97297  5.87966
     Atomic magnetic moment for atom  14 =  -4.06628
     SPIN  1
     eigenvalues:
       0.099  0.128  0.182  0.205  0.293
     eigenvectors (columns):
       0.009  0.000 -0.000  1.000 -0.029
      -0.000 -0.620 -0.785 -0.000  0.000
      -0.000  0.785 -0.620 -0.000  0.000
       0.967  0.000 -0.000 -0.001  0.254
      -0.254 -0.000  0.000  0.031  0.967
     occupation matrix ns (before diag.):
       0.205 -0.000 -0.000 -0.002 -0.002
      -0.000  0.161  0.026  0.000  0.000
      -0.000  0.026  0.149  0.000  0.000
      -0.002  0.000  0.000  0.112  0.048
      -0.002  0.000  0.000  0.048  0.280
     SPIN  2
     eigenvalues:
       0.989  0.991  0.997  0.997  0.998
     eigenvectors (columns):
       0.994  0.106 -0.000 -0.000 -0.003
       0.000 -0.000  0.831 -0.556 -0.000
       0.000 -0.000  0.556  0.831 -0.000
      -0.025  0.207 -0.000 -0.000 -0.978
      -0.103  0.973  0.000  0.000  0.209
     occupation matrix ns (before diag.):
       0.989 -0.000 -0.000  0.000  0.000
      -0.000  0.997 -0.000  0.000  0.000
      -0.000 -0.000  0.997  0.000  0.000
       0.000  0.000  0.000  0.998 -0.001
       0.000  0.000  0.000 -0.001  0.992
     ------------------------ ATOM   15 ------------------------
     Tr[ns( 15)] (up, down, total) =   4.97297  0.90665  5.87962
     Atomic magnetic moment for atom  15 =   4.06631
     SPIN  1
     eigenvalues:
       0.989  0.991  0.997  0.997  0.998
     eigenvectors (columns):
       0.994  0.106 -0.000 -0.000 -0.003
       0.000 -0.000  0.832 -0.555 -0.000
       0.000 -0.000  0.555  0.832 -0.000
      -0.025  0.207 -0.000 -0.000 -0.978
      -0.103  0.973  0.000  0.000  0.209
     occupation matrix ns (before diag.):
       0.989 -0.000 -0.000  0.000  0.000
      -0.000  0.997 -0.000  0.000  0.000
      -0.000 -0.000  0.997  0.000  0.000
       0.000  0.000  0.000  0.998 -0.001
       0.000  0.000  0.000 -0.001  0.992
     SPIN  2
     eigenvalues:
       0.099  0.128  0.182  0.205  0.293
     eigenvectors (columns):
       0.009  0.000 -0.000  1.000 -0.029
      -0.000 -0.620 -0.785 -0.000  0.000
      -0.000  0.785 -0.620 -0.000  0.000
       0.967  0.000 -0.000 -0.001  0.254
      -0.254 -0.000  0.000  0.031  0.967
     occupation matrix ns (before diag.):
       0.205 -0.000 -0.000 -0.002 -0.002
      -0.000  0.161  0.026  0.000  0.000
      -0.000  0.026  0.149  0.000  0.000
      -0.002  0.000  0.000  0.112  0.048
      -0.002  0.000  0.000  0.048  0.280
     ------------------------ ATOM   16 ------------------------
     Tr[ns( 16)] (up, down, total) =   0.90669  4.97297  5.87966
     Atomic magnetic moment for atom  16 =  -4.06628
     SPIN  1
     eigenvalues:
       0.099  0.128  0.182  0.205  0.293
     eigenvectors (columns):
       0.009  0.000 -0.000  1.000 -0.029
      -0.000 -0.620 -0.785 -0.000  0.000
      -0.000  0.785 -0.620 -0.000  0.000
       0.967  0.000 -0.000 -0.001  0.254
      -0.254 -0.000  0.000  0.031  0.967
     occupation matrix ns (before diag.):
       0.205 -0.000 -0.000 -0.002 -0.002
      -0.000  0.161  0.026  0.000  0.000
      -0.000  0.026  0.149  0.000  0.000
      -0.002  0.000  0.000  0.112  0.048
      -0.002  0.000  0.000  0.048  0.280
     SPIN  2
     eigenvalues:
       0.989  0.991  0.997  0.997  0.998
     eigenvectors (columns):
       0.994  0.106 -0.000 -0.000 -0.003
       0.000 -0.000  0.831 -0.556 -0.000
       0.000 -0.000  0.556  0.831 -0.000
      -0.025  0.207 -0.000 -0.000 -0.978
      -0.103  0.973  0.000  0.000  0.209
     occupation matrix ns (before diag.):
       0.989 -0.000 -0.000  0.000  0.000
      -0.000  0.997 -0.000  0.000  0.000
      -0.000 -0.000  0.997  0.000  0.000
       0.000  0.000  0.000  0.998 -0.001
       0.000  0.000  0.000 -0.001  0.992

     Number of occupied Hubbard levels =   44.4478

     HUBBARD ENERGY =    0.6652  (Ry)

     total cpu time spent up to now is      159.4 secs

     total energy              =   -3088.78017415 Ry
     estimated scf accuracy    <       0.03460319 Ry

     total magnetization       =    -0.00 Bohr mag/cell
     absolute magnetization    =    38.52 Bohr mag/cell

     iteration #  6     ecut=    90.00 Ry     beta= 0.30
     Davidson diagonalization with overlap

---- Real-time Memory Report at c_bands before calling an iterative solver
          1262 MiB given to the printing process from OS
           775 MiB allocation reported by mallinfo(arena+hblkhd)
        675515 MiB available memory on the node where the printing process lives
------------------
     ethr =  1.05E-05,  avg # of iterations =  2.0

     =================== HUBBARD OCCUPATIONS ===================
     ------------------------ ATOM    9 ------------------------
     Tr[ns(  9)] (up, down, total) =   4.92906  0.30452  5.23357
     Atomic magnetic moment for atom   9 =   4.62454
     SPIN  1
     eigenvalues:
       0.968  0.977  0.993  0.996  0.996
     eigenvectors (columns):
      -0.655 -0.755 -0.000  0.010  0.000
      -0.000  0.000  0.591 -0.000  0.807
      -0.000  0.000  0.807  0.000 -0.591
      -0.190  0.152 -0.000 -0.970 -0.000
       0.731 -0.638 -0.000 -0.243 -0.000
     occupation matrix ns (before diag.):
       0.973 -0.000 -0.000 -0.001  0.004
      -0.000  0.995 -0.001  0.000  0.000
      -0.000 -0.001  0.994  0.000  0.000
      -0.001  0.000  0.000  0.994  0.006
       0.004  0.000  0.000  0.006  0.973
     SPIN  2
     eigenvalues:
       0.040  0.040  0.045  0.068  0.111
     eigenvectors (columns):
       0.000  0.013 -0.000 -0.999 -0.036
      -0.793  0.000 -0.610  0.000  0.000
       0.610 -0.000 -0.793  0.000  0.000
      -0.000 -0.982 -0.000 -0.006 -0.190
      -0.000 -0.190 -0.000 -0.037  0.981
     occupation matrix ns (before diag.):
       0.068 -0.000 -0.000  0.001 -0.001
      -0.000  0.042  0.003  0.000  0.000
      -0.000  0.003  0.043  0.000  0.000
       0.001  0.000  0.000  0.043 -0.013
      -0.001  0.000  0.000 -0.013  0.108
     ------------------------ ATOM   10 ------------------------
     Tr[ns( 10)] (up, down, total) =   0.30452  4.92906  5.23358
     Atomic magnetic moment for atom  10 =  -4.62454
     SPIN  1
     eigenvalues:
       0.040  0.040  0.045  0.068  0.111
     eigenvectors (columns):
       0.000  0.013 -0.000 -0.999 -0.036
      -0.793  0.000 -0.610  0.000  0.000
       0.610 -0.000 -0.793  0.000  0.000
      -0.000 -0.982 -0.000 -0.006 -0.190
      -0.000 -0.190 -0.000 -0.037  0.981
     occupation matrix ns (before diag.):
       0.068 -0.000 -0.000  0.001 -0.001
      -0.000  0.042  0.003  0.000  0.000
      -0.000  0.003  0.043  0.000  0.000
       0.001  0.000  0.000  0.043 -0.013
      -0.001  0.000  0.000 -0.013  0.108
     SPIN  2
     eigenvalues:
       0.968  0.977  0.993  0.996  0.996
     eigenvectors (columns):
      -0.655 -0.755 -0.000  0.010  0.000
      -0.000  0.000  0.591 -0.000  0.807
      -0.000  0.000  0.807  0.000 -0.591
      -0.190  0.152 -0.000 -0.970 -0.000
       0.731 -0.638 -0.000 -0.243 -0.000
     occupation matrix ns (before diag.):
       0.973 -0.000 -0.000 -0.001  0.004
      -0.000  0.995 -0.001  0.000  0.000
      -0.000 -0.001  0.994  0.000  0.000
      -0.001  0.000  0.000  0.994  0.006
       0.004  0.000  0.000  0.006  0.973
     ------------------------ ATOM   11 ------------------------
     Tr[ns( 11)] (up, down, total) =   4.92906  0.30452  5.23357
     Atomic magnetic moment for atom  11 =   4.62454
     SPIN  1
     eigenvalues:
       0.968  0.977  0.993  0.996  0.996
     eigenvectors (columns):
      -0.655 -0.755 -0.000  0.010  0.000
      -0.000  0.000  0.591 -0.000  0.807
      -0.000  0.000  0.807  0.000 -0.591
      -0.190  0.152 -0.000 -0.970 -0.000
       0.731 -0.638 -0.000 -0.243 -0.000
     occupation matrix ns (before diag.):
       0.973 -0.000 -0.000 -0.001  0.004
      -0.000  0.995 -0.001  0.000  0.000
      -0.000 -0.001  0.994  0.000  0.000
      -0.001  0.000  0.000  0.994  0.006
       0.004  0.000  0.000  0.006  0.973
     SPIN  2
     eigenvalues:
       0.040  0.040  0.045  0.068  0.111
     eigenvectors (columns):
       0.000  0.013 -0.000 -0.999 -0.036
      -0.793  0.000 -0.610  0.000  0.000
       0.610 -0.000 -0.793  0.000  0.000
      -0.000 -0.982 -0.000 -0.006 -0.190
      -0.000 -0.190 -0.000 -0.037  0.981
     occupation matrix ns (before diag.):
       0.068 -0.000 -0.000  0.001 -0.001
      -0.000  0.042  0.003  0.000  0.000
      -0.000  0.003  0.043  0.000  0.000
       0.001  0.000  0.000  0.043 -0.013
      -0.001  0.000  0.000 -0.013  0.108
     ------------------------ ATOM   12 ------------------------
     Tr[ns( 12)] (up, down, total) =   0.30452  4.92906  5.23358
     Atomic magnetic moment for atom  12 =  -4.62454
     SPIN  1
     eigenvalues:
       0.040  0.040  0.045  0.068  0.111
     eigenvectors (columns):
       0.000  0.013 -0.000 -0.999 -0.036
      -0.793  0.000 -0.610  0.000  0.000
       0.610 -0.000 -0.793  0.000  0.000
      -0.000 -0.982 -0.000 -0.006 -0.190
      -0.000 -0.190 -0.000 -0.037  0.981
     occupation matrix ns (before diag.):
       0.068 -0.000 -0.000  0.001 -0.001
      -0.000  0.042  0.003  0.000  0.000
      -0.000  0.003  0.043  0.000  0.000
       0.001  0.000  0.000  0.043 -0.013
      -0.001  0.000  0.000 -0.013  0.108
     SPIN  2
     eigenvalues:
       0.968  0.977  0.993  0.996  0.996
     eigenvectors (columns):
      -0.655 -0.755 -0.000  0.010  0.000
      -0.000  0.000  0.591 -0.000  0.807
      -0.000  0.000  0.807  0.000 -0.591
      -0.190  0.152 -0.000 -0.970 -0.000
       0.731 -0.638 -0.000 -0.243 -0.000
     occupation matrix ns (before diag.):
       0.973 -0.000 -0.000 -0.001  0.004
      -0.000  0.995 -0.001  0.000  0.000
      -0.000 -0.001  0.994  0.000  0.000
      -0.001  0.000  0.000  0.994  0.006
       0.004  0.000  0.000  0.006  0.973
     ------------------------ ATOM   13 ------------------------
     Tr[ns( 13)] (up, down, total) =   4.97275  0.94782  5.92057
     Atomic magnetic moment for atom  13 =   4.02493
     SPIN  1
     eigenvalues:
       0.989  0.991  0.997  0.997  0.998
     eigenvectors (columns):
       0.994  0.110 -0.000 -0.000 -0.003
       0.000 -0.000  0.840 -0.542 -0.000
       0.000 -0.000  0.542  0.840 -0.000
      -0.026  0.208 -0.000 -0.000 -0.978
      -0.107  0.972  0.000  0.000  0.210
     occupation matrix ns (before diag.):
       0.989 -0.000 -0.000  0.000  0.000
      -0.000  0.997 -0.000  0.000  0.000
      -0.000 -0.000  0.997  0.000  0.000
       0.000  0.000  0.000  0.997 -0.001
       0.000  0.000  0.000 -0.001  0.992
     SPIN  2
     eigenvalues:
       0.103  0.134  0.193  0.214  0.304
     eigenvectors (columns):
       0.009 -0.000 -0.000  1.000 -0.028
      -0.000  0.621 -0.783 -0.000  0.000
      -0.000 -0.783 -0.621 -0.000  0.000
       0.967 -0.000 -0.000 -0.001  0.255
      -0.255  0.000  0.000  0.029  0.966
     occupation matrix ns (before diag.):
       0.214 -0.000 -0.000 -0.002 -0.002
      -0.000  0.170  0.029  0.000  0.000
      -0.000  0.029  0.157  0.000  0.000
      -0.002  0.000  0.000  0.116  0.050
      -0.002  0.000  0.000  0.050  0.291
     ------------------------ ATOM   14 ------------------------
     Tr[ns( 14)] (up, down, total) =   0.94786  4.97275  5.92061
     Atomic magnetic moment for atom  14 =  -4.02489
     SPIN  1
     eigenvalues:
       0.103  0.134  0.193  0.214  0.304
     eigenvectors (columns):
       0.009 -0.000 -0.000  1.000 -0.028
      -0.000  0.621 -0.783 -0.000  0.000
      -0.000 -0.783 -0.621 -0.000  0.000
       0.967 -0.000 -0.000 -0.001  0.255
      -0.255  0.000  0.000  0.029  0.966
     occupation matrix ns (before diag.):
       0.214 -0.000 -0.000 -0.002 -0.002
      -0.000  0.170  0.029  0.000  0.000
      -0.000  0.029  0.157  0.000  0.000
      -0.002  0.000  0.000  0.116  0.050
      -0.002  0.000  0.000  0.050  0.291
     SPIN  2
     eigenvalues:
       0.989  0.991  0.997  0.997  0.998
     eigenvectors (columns):
       0.994  0.111 -0.000 -0.000 -0.003
       0.000 -0.000  0.840 -0.542 -0.000
       0.000 -0.000  0.542  0.840 -0.000
      -0.026  0.208 -0.000 -0.000 -0.978
      -0.107  0.972  0.000  0.000  0.210
     occupation matrix ns (before diag.):
       0.989 -0.000 -0.000  0.000  0.000
      -0.000  0.997 -0.000  0.000  0.000
      -0.000 -0.000  0.997  0.000  0.000
       0.000  0.000  0.000  0.997 -0.001
       0.000  0.000  0.000 -0.001  0.992
     ------------------------ ATOM   15 ------------------------
     Tr[ns( 15)] (up, down, total) =   4.97275  0.94782  5.92057
     Atomic magnetic moment for atom  15 =   4.02493
     SPIN  1
     eigenvalues:
       0.989  0.991  0.997  0.997  0.998
     eigenvectors (columns):
       0.994  0.110 -0.000 -0.000 -0.003
       0.000 -0.000  0.840 -0.542 -0.000
       0.000 -0.000  0.542  0.840 -0.000
      -0.026  0.208 -0.000 -0.000 -0.978
      -0.107  0.972  0.000  0.000  0.210
     occupation matrix ns (before diag.):
       0.989 -0.000 -0.000  0.000  0.000
      -0.000  0.997 -0.000  0.000  0.000
      -0.000 -0.000  0.997  0.000  0.000
       0.000  0.000  0.000  0.997 -0.001
       0.000  0.000  0.000 -0.001  0.992
     SPIN  2
     eigenvalues:
       0.103  0.134  0.193  0.214  0.304
     eigenvectors (columns):
       0.009 -0.000 -0.000  1.000 -0.028
      -0.000  0.621 -0.783 -0.000  0.000
      -0.000 -0.783 -0.621 -0.000  0.000
       0.967 -0.000 -0.000 -0.001  0.255
      -0.255  0.000  0.000  0.029  0.966
     occupation matrix ns (before diag.):
       0.214 -0.000 -0.000 -0.002 -0.002
      -0.000  0.170  0.029  0.000  0.000
      -0.000  0.029  0.157  0.000  0.000
      -0.002  0.000  0.000  0.116  0.050
      -0.002  0.000  0.000  0.050  0.291
     ------------------------ ATOM   16 ------------------------
     Tr[ns( 16)] (up, down, total) =   0.94786  4.97275  5.92061
     Atomic magnetic moment for atom  16 =  -4.02489
     SPIN  1
     eigenvalues:
       0.103  0.134  0.193  0.214  0.304
     eigenvectors (columns):
       0.009 -0.000 -0.000  1.000 -0.028
      -0.000  0.621 -0.783 -0.000  0.000
      -0.000 -0.783 -0.621 -0.000  0.000
       0.967 -0.000 -0.000 -0.001  0.255
      -0.255  0.000  0.000  0.029  0.966
     occupation matrix ns (before diag.):
       0.214 -0.000 -0.000 -0.002 -0.002
      -0.000  0.170  0.029  0.000  0.000
      -0.000  0.029  0.157  0.000  0.000
      -0.002  0.000  0.000  0.116  0.050
      -0.002  0.000  0.000  0.050  0.291
     SPIN  2
     eigenvalues:
       0.989  0.991  0.997  0.997  0.998
     eigenvectors (columns):
       0.994  0.111 -0.000 -0.000 -0.003
       0.000 -0.000  0.840 -0.542 -0.000
       0.000 -0.000  0.542  0.840 -0.000
      -0.026  0.208 -0.000 -0.000 -0.978
      -0.107  0.972  0.000  0.000  0.210
     occupation matrix ns (before diag.):
       0.989 -0.000 -0.000  0.000  0.000
      -0.000  0.997 -0.000  0.000  0.000
      -0.000 -0.000  0.997  0.000  0.000
       0.000  0.000  0.000  0.997 -0.001
       0.000  0.000  0.000 -0.001  0.992

     Number of occupied Hubbard levels =   44.6167

     HUBBARD ENERGY =    0.6573  (Ry)

     total cpu time spent up to now is      186.6 secs

     total energy              =   -3088.77916959 Ry
     estimated scf accuracy    <       0.01701044 Ry

     total magnetization       =    -0.00 Bohr mag/cell
     absolute magnetization    =    38.49 Bohr mag/cell

     iteration #  7     ecut=    90.00 Ry     beta= 0.30
     Davidson diagonalization with overlap

---- Real-time Memory Report at c_bands before calling an iterative solver
          1274 MiB given to the printing process from OS
           787 MiB allocation reported by mallinfo(arena+hblkhd)
        675502 MiB available memory on the node where the printing process lives
------------------
     ethr =  5.19E-06,  avg # of iterations =  2.9

     =================== HUBBARD OCCUPATIONS ===================
     ------------------------ ATOM    9 ------------------------
     Tr[ns(  9)] (up, down, total) =   4.93327  0.31025  5.24351
     Atomic magnetic moment for atom   9 =   4.62302
     SPIN  1
     eigenvalues:
       0.970  0.978  0.994  0.996  0.996
     eigenvectors (columns):
      -0.753 -0.658 -0.000  0.010  0.000
      -0.000  0.000  0.589 -0.000  0.808
      -0.000  0.000  0.808  0.000 -0.589
      -0.166  0.176 -0.000 -0.970 -0.000
       0.636 -0.732 -0.000 -0.242 -0.000
     occupation matrix ns (before diag.):
       0.973 -0.000 -0.000 -0.001  0.004
      -0.000  0.995 -0.001  0.000  0.000
      -0.000 -0.001  0.994  0.000  0.000
      -0.001  0.000  0.000  0.995  0.005
       0.004  0.000  0.000  0.005  0.976
     SPIN  2
     eigenvalues:
       0.041  0.041  0.047  0.070  0.112
     eigenvectors (columns):
       0.000 -0.013 -0.000  0.999 -0.032
      -0.795 -0.000 -0.607 -0.000  0.000
       0.607  0.000 -0.795 -0.000  0.000
      -0.000  0.982 -0.000  0.006 -0.191
      -0.000  0.191 -0.000  0.034  0.981
     occupation matrix ns (before diag.):
       0.070 -0.000 -0.000  0.001 -0.001
      -0.000  0.043  0.003  0.000  0.000
      -0.000  0.003  0.044  0.000  0.000
       0.001  0.000  0.000  0.044 -0.013
      -0.001  0.000  0.000 -0.013  0.109
     ------------------------ ATOM   10 ------------------------
     Tr[ns( 10)] (up, down, total) =   0.31025  4.93327  5.24352
     Atomic magnetic moment for atom  10 =  -4.62302
     SPIN  1
     eigenvalues:
       0.041  0.041  0.047  0.070  0.112
     eigenvectors (columns):
       0.000  0.013 -0.000 -0.999 -0.032
      -0.795  0.000 -0.607  0.000  0.000
       0.607 -0.000 -0.795  0.000  0.000
      -0.000 -0.982 -0.000 -0.006 -0.191
      -0.000 -0.191 -0.000 -0.034  0.981
     occupation matrix ns (before diag.):
       0.070 -0.000 -0.000  0.001 -0.001
      -0.000  0.043  0.003  0.000  0.000
      -0.000  0.003  0.044  0.000  0.000
       0.001  0.000  0.000  0.044 -0.013
      -0.001  0.000  0.000 -0.013  0.109
     SPIN  2
     eigenvalues:
       0.970  0.978  0.994  0.996  0.996
     eigenvectors (columns):
      -0.753 -0.658 -0.000  0.010  0.000
      -0.000  0.000  0.589 -0.000  0.808
      -0.000  0.000  0.808  0.000 -0.589
      -0.166  0.176 -0.000 -0.970 -0.000
       0.636 -0.733 -0.000 -0.242 -0.000
     occupation matrix ns (before diag.):
       0.973 -0.000 -0.000 -0.001  0.004
      -0.000  0.995 -0.001  0.000  0.000
      -0.000 -0.001  0.994  0.000  0.000
      -0.001  0.000  0.000  0.995  0.005
       0.004  0.000  0.000  0.005  0.976
     ------------------------ ATOM   11 ------------------------
     Tr[ns( 11)] (up, down, total) =   4.93327  0.31025  5.24351
     Atomic magnetic moment for atom  11 =   4.62302
     SPIN  1
     eigenvalues:
       0.970  0.978  0.994  0.996  0.996
     eigenvectors (columns):
      -0.753 -0.658 -0.000  0.010  0.000
      -0.000  0.000  0.589 -0.000  0.808
      -0.000  0.000  0.808  0.000 -0.589
      -0.166  0.176 -0.000 -0.970 -0.000
       0.636 -0.732 -0.000 -0.242 -0.000
     occupation matrix ns (before diag.):
       0.973 -0.000 -0.000 -0.001  0.004
      -0.000  0.995 -0.001  0.000  0.000
      -0.000 -0.001  0.994  0.000  0.000
      -0.001  0.000  0.000  0.995  0.005
       0.004  0.000  0.000  0.005  0.976
     SPIN  2
     eigenvalues:
       0.041  0.041  0.047  0.070  0.112
     eigenvectors (columns):
       0.000 -0.013 -0.000  0.999 -0.032
      -0.795 -0.000 -0.607 -0.000  0.000
       0.607  0.000 -0.795 -0.000  0.000
      -0.000  0.982 -0.000  0.006 -0.191
      -0.000  0.191 -0.000  0.034  0.981
     occupation matrix ns (before diag.):
       0.070 -0.000 -0.000  0.001 -0.001
      -0.000  0.043  0.003  0.000  0.000
      -0.000  0.003  0.044  0.000  0.000
       0.001  0.000  0.000  0.044 -0.013
      -0.001  0.000  0.000 -0.013  0.109
     ------------------------ ATOM   12 ------------------------
     Tr[ns( 12)] (up, down, total) =   0.31025  4.93327  5.24352
     Atomic magnetic moment for atom  12 =  -4.62302
     SPIN  1
     eigenvalues:
       0.041  0.041  0.047  0.070  0.112
     eigenvectors (columns):
       0.000 -0.013 -0.000  0.999 -0.032
      -0.795 -0.000 -0.607 -0.000  0.000
       0.607  0.000 -0.795 -0.000  0.000
      -0.000  0.982 -0.000  0.006 -0.191
      -0.000  0.191 -0.000  0.034  0.981
     occupation matrix ns (before diag.):
       0.070 -0.000 -0.000  0.001 -0.001
      -0.000  0.043  0.003  0.000  0.000
      -0.000  0.003  0.044  0.000  0.000
       0.001  0.000  0.000  0.044 -0.013
      -0.001  0.000  0.000 -0.013  0.109
     SPIN  2
     eigenvalues:
       0.970  0.978  0.994  0.996  0.996
     eigenvectors (columns):
      -0.753 -0.658 -0.000  0.010  0.000
      -0.000  0.000  0.589 -0.000  0.808
      -0.000  0.000  0.808  0.000 -0.589
      -0.166  0.176 -0.000 -0.970 -0.000
       0.636 -0.733 -0.000 -0.242 -0.000
     occupation matrix ns (before diag.):
       0.973 -0.000 -0.000 -0.001  0.004
      -0.000  0.995 -0.001  0.000  0.000
      -0.000 -0.001  0.994  0.000  0.000
      -0.001  0.000  0.000  0.995  0.005
       0.004  0.000  0.000  0.005  0.976
     ------------------------ ATOM   13 ------------------------
     Tr[ns( 13)] (up, down, total) =   4.97223  0.91210  5.88433
     Atomic magnetic moment for atom  13 =   4.06014
     SPIN  1
     eigenvalues:
       0.988  0.991  0.997  0.997  0.998
     eigenvectors (columns):
       0.995  0.102 -0.000 -0.000 -0.003
       0.000 -0.000  0.833 -0.553 -0.000
       0.000 -0.000  0.553  0.833 -0.000
      -0.024  0.209 -0.000 -0.000 -0.978
      -0.099  0.973  0.000  0.000  0.211
     occupation matrix ns (before diag.):
       0.988 -0.000 -0.000  0.000  0.000
      -0.000  0.997 -0.000  0.000  0.000
      -0.000 -0.000  0.997  0.000  0.000
       0.000  0.000  0.000  0.998 -0.001
       0.000  0.000  0.000 -0.001  0.991
     SPIN  2
     eigenvalues:
       0.097  0.128  0.184  0.207  0.295
     eigenvectors (columns):
       0.008  0.000 -0.000  1.000 -0.018
      -0.000 -0.621 -0.784 -0.000  0.000
      -0.000  0.784 -0.621 -0.000  0.000
       0.967  0.000 -0.000 -0.003  0.253
      -0.253 -0.000  0.000  0.020  0.967
     occupation matrix ns (before diag.):
       0.207 -0.000 -0.000 -0.001 -0.001
      -0.000  0.163  0.027  0.000  0.000
      -0.000  0.027  0.150  0.000  0.000
      -0.001  0.000  0.000  0.110  0.048
      -0.001  0.000  0.000  0.048  0.283
     ------------------------ ATOM   14 ------------------------
     Tr[ns( 14)] (up, down, total) =   0.91212  4.97223  5.88435
     Atomic magnetic moment for atom  14 =  -4.06011
     SPIN  1
     eigenvalues:
       0.097  0.128  0.184  0.207  0.295
     eigenvectors (columns):
       0.008  0.000 -0.000  1.000 -0.018
      -0.000 -0.621 -0.784 -0.000  0.000
      -0.000  0.784 -0.621 -0.000  0.000
       0.967  0.000 -0.000 -0.003  0.253
      -0.253 -0.000  0.000  0.020  0.967
     occupation matrix ns (before diag.):
       0.207 -0.000 -0.000 -0.001 -0.001
      -0.000  0.163  0.027  0.000  0.000
      -0.000  0.027  0.150  0.000  0.000
      -0.001  0.000  0.000  0.110  0.048
      -0.001  0.000  0.000  0.048  0.283
     SPIN  2
     eigenvalues:
       0.988  0.991  0.997  0.997  0.998
     eigenvectors (columns):
       0.995  0.102 -0.000 -0.000 -0.003
       0.000 -0.000  0.833 -0.553 -0.000
       0.000 -0.000  0.553  0.833 -0.000
      -0.024  0.209 -0.000 -0.000 -0.978
      -0.099  0.973  0.000  0.000  0.211
     occupation matrix ns (before diag.):
       0.988 -0.000 -0.000  0.000  0.000
      -0.000  0.997 -0.000  0.000  0.000
      -0.000 -0.000  0.997  0.000  0.000
       0.000  0.000  0.000  0.998 -0.001
       0.000  0.000  0.000 -0.001  0.991
     ------------------------ ATOM   15 ------------------------
     Tr[ns( 15)] (up, down, total) =   4.97223  0.91210  5.88433
     Atomic magnetic moment for atom  15 =   4.06014
     SPIN  1
     eigenvalues:
       0.988  0.991  0.997  0.997  0.998
     eigenvectors (columns):
       0.995  0.102 -0.000 -0.000 -0.003
       0.000 -0.000  0.833 -0.553 -0.000
       0.000 -0.000  0.553  0.833 -0.000
      -0.024  0.209 -0.000 -0.000 -0.978
      -0.099  0.973  0.000  0.000  0.211
     occupation matrix ns (before diag.):
       0.988 -0.000 -0.000  0.000  0.000
      -0.000  0.997 -0.000  0.000  0.000
      -0.000 -0.000  0.997  0.000  0.000
       0.000  0.000  0.000  0.998 -0.001
       0.000  0.000  0.000 -0.001  0.991
     SPIN  2
     eigenvalues:
       0.097  0.128  0.184  0.207  0.295
     eigenvectors (columns):
       0.008  0.000 -0.000  1.000 -0.018
      -0.000 -0.621 -0.784 -0.000  0.000
      -0.000  0.784 -0.621 -0.000  0.000
       0.967  0.000 -0.000 -0.003  0.253
      -0.253 -0.000  0.000  0.020  0.967
     occupation matrix ns (before diag.):
       0.207 -0.000 -0.000 -0.001 -0.001
      -0.000  0.163  0.027  0.000  0.000
      -0.000  0.027  0.150  0.000  0.000
      -0.001  0.000  0.000  0.110  0.048
      -0.001  0.000  0.000  0.048  0.283
     ------------------------ ATOM   16 ------------------------
     Tr[ns( 16)] (up, down, total) =   0.91212  4.97223  5.88435
     Atomic magnetic moment for atom  16 =  -4.06011
     SPIN  1
     eigenvalues:
       0.097  0.128  0.184  0.207  0.295
     eigenvectors (columns):
       0.008  0.000 -0.000  1.000 -0.018
      -0.000 -0.621 -0.784 -0.000  0.000
      -0.000  0.784 -0.621 -0.000  0.000
       0.967  0.000 -0.000 -0.003  0.253
      -0.253 -0.000  0.000  0.020  0.967
     occupation matrix ns (before diag.):
       0.207 -0.000 -0.000 -0.001 -0.001
      -0.000  0.163  0.027  0.000  0.000
      -0.000  0.027  0.150  0.000  0.000
      -0.001  0.000  0.000  0.110  0.048
      -0.001  0.000  0.000  0.048  0.283
     SPIN  2
     eigenvalues:
       0.988  0.991  0.997  0.997  0.998
     eigenvectors (columns):
       0.995  0.102 -0.000 -0.000 -0.003
       0.000 -0.000  0.833 -0.553 -0.000
       0.000 -0.000  0.553  0.833 -0.000
      -0.024  0.209 -0.000 -0.000 -0.978
      -0.099  0.973  0.000  0.000  0.211
     occupation matrix ns (before diag.):
       0.988 -0.000 -0.000  0.000  0.000
      -0.000  0.997 -0.000  0.000  0.000
      -0.000 -0.000  0.997  0.000  0.000
       0.000  0.000  0.000  0.998 -0.001
       0.000  0.000  0.000 -0.001  0.991

     Number of occupied Hubbard levels =   44.5114

     HUBBARD ENERGY =    0.6550  (Ry)

     total cpu time spent up to now is      215.6 secs

     total energy              =   -3088.78177074 Ry
     estimated scf accuracy    <       0.00105440 Ry

     total magnetization       =     0.00 Bohr mag/cell
     absolute magnetization    =    38.57 Bohr mag/cell

     iteration #  8     ecut=    90.00 Ry     beta= 0.30
     Davidson diagonalization with overlap

---- Real-time Memory Report at c_bands before calling an iterative solver
          1285 MiB given to the printing process from OS
           799 MiB allocation reported by mallinfo(arena+hblkhd)
        675510 MiB available memory on the node where the printing process lives
------------------
     ethr =  3.21E-07,  avg # of iterations =  5.0

     =================== HUBBARD OCCUPATIONS ===================
     ------------------------ ATOM    9 ------------------------
     Tr[ns(  9)] (up, down, total) =   4.93400  0.31050  5.24449
     Atomic magnetic moment for atom   9 =   4.62350
     SPIN  1
     eigenvalues:
       0.970  0.978  0.994  0.996  0.996
     eigenvectors (columns):
       0.777  0.629 -0.000 -0.000  0.010
       0.000 -0.000  0.589  0.808  0.000
       0.000 -0.000  0.808 -0.589 -0.000
       0.159 -0.182 -0.000  0.000 -0.970
      -0.609  0.756 -0.000  0.000 -0.242
     occupation matrix ns (before diag.):
       0.973 -0.000 -0.000 -0.001  0.004
      -0.000  0.995 -0.001  0.000  0.000
      -0.000 -0.001  0.994  0.000  0.000
      -0.001  0.000  0.000  0.995  0.005
       0.004  0.000  0.000  0.005  0.976
     SPIN  2
     eigenvalues:
       0.041  0.041  0.046  0.070  0.112
     eigenvectors (columns):
       0.000 -0.012 -0.000  0.999 -0.030
      -0.795 -0.000 -0.607 -0.000  0.000
       0.607  0.000 -0.795 -0.000  0.000
      -0.000  0.982 -0.000  0.006 -0.191
      -0.000  0.191 -0.000  0.032  0.981
     occupation matrix ns (before diag.):
       0.070 -0.000 -0.000  0.001 -0.001
      -0.000  0.043  0.003  0.000  0.000
      -0.000  0.003  0.044  0.000  0.000
       0.001  0.000  0.000  0.044 -0.013
      -0.001  0.000  0.000 -0.013  0.110
     ------------------------ ATOM   10 ------------------------
     Tr[ns( 10)] (up, down, total) =   0.31050  4.93400  5.24450
     Atomic magnetic moment for atom  10 =  -4.62350
     SPIN  1
     eigenvalues:
       0.041  0.041  0.046  0.070  0.112
     eigenvectors (columns):
       0.000 -0.012 -0.000  0.999 -0.030
      -0.795 -0.000 -0.607 -0.000  0.000
       0.607  0.000 -0.795 -0.000  0.000
      -0.000  0.982 -0.000  0.006 -0.191
      -0.000  0.191 -0.000  0.032  0.981
     occupation matrix ns (before diag.):
       0.070 -0.000 -0.000  0.001 -0.001
      -0.000  0.043  0.003  0.000  0.000
      -0.000  0.003  0.044  0.000  0.000
       0.001  0.000  0.000  0.044 -0.013
      -0.001  0.000  0.000 -0.013  0.110
     SPIN  2
     eigenvalues:
       0.970  0.978  0.994  0.996  0.996
     eigenvectors (columns):
       0.777  0.629 -0.000 -0.000  0.009
       0.000 -0.000  0.589  0.808  0.000
       0.000 -0.000  0.808 -0.589 -0.000
       0.159 -0.182 -0.000  0.000 -0.970
      -0.608  0.756 -0.000  0.000 -0.242
     occupation matrix ns (before diag.):
       0.973 -0.000 -0.000 -0.001  0.004
      -0.000  0.995 -0.001  0.000  0.000
      -0.000 -0.001  0.994  0.000  0.000
      -0.001  0.000  0.000  0.995  0.005
       0.004  0.000  0.000  0.005  0.976
     ------------------------ ATOM   11 ------------------------
     Tr[ns( 11)] (up, down, total) =   4.93400  0.31050  5.24449
     Atomic magnetic moment for atom  11 =   4.62350
     SPIN  1
     eigenvalues:
       0.970  0.978  0.994  0.996  0.996
     eigenvectors (columns):
       0.777  0.629 -0.000 -0.000  0.010
       0.000 -0.000  0.589  0.808  0.000
       0.000 -0.000  0.808 -0.589 -0.000
       0.159 -0.182 -0.000  0.000 -0.970
      -0.609  0.756 -0.000  0.000 -0.242
     occupation matrix ns (before diag.):
       0.973 -0.000 -0.000 -0.001  0.004
      -0.000  0.995 -0.001  0.000  0.000
      -0.000 -0.001  0.994  0.000  0.000
      -0.001  0.000  0.000  0.995  0.005
       0.004  0.000  0.000  0.005  0.976
     SPIN  2
     eigenvalues:
       0.041  0.041  0.046  0.070  0.112
     eigenvectors (columns):
       0.000 -0.012 -0.000  0.999 -0.030
      -0.795 -0.000 -0.607 -0.000  0.000
       0.607  0.000 -0.795 -0.000  0.000
      -0.000  0.982 -0.000  0.006 -0.191
      -0.000  0.191 -0.000  0.032  0.981
     occupation matrix ns (before diag.):
       0.070 -0.000 -0.000  0.001 -0.001
      -0.000  0.043  0.003  0.000  0.000
      -0.000  0.003  0.044  0.000  0.000
       0.001  0.000  0.000  0.044 -0.013
      -0.001  0.000  0.000 -0.013  0.110
     ------------------------ ATOM   12 ------------------------
     Tr[ns( 12)] (up, down, total) =   0.31050  4.93400  5.24450
     Atomic magnetic moment for atom  12 =  -4.62350
     SPIN  1
     eigenvalues:
       0.041  0.041  0.046  0.070  0.112
     eigenvectors (columns):
       0.000  0.012 -0.000 -0.999 -0.030
      -0.795  0.000 -0.607  0.000  0.000
       0.607 -0.000 -0.795  0.000  0.000
      -0.000 -0.982 -0.000 -0.006 -0.191
      -0.000 -0.191 -0.000 -0.032  0.981
     occupation matrix ns (before diag.):
       0.070 -0.000 -0.000  0.001 -0.001
      -0.000  0.043  0.003  0.000  0.000
      -0.000  0.003  0.044  0.000  0.000
       0.001  0.000  0.000  0.044 -0.013
      -0.001  0.000  0.000 -0.013  0.110
     SPIN  2
     eigenvalues:
       0.970  0.978  0.994  0.996  0.996
     eigenvectors (columns):
       0.777  0.629 -0.000 -0.000  0.009
       0.000 -0.000  0.589  0.808  0.000
       0.000 -0.000  0.808 -0.589 -0.000
       0.159 -0.182 -0.000  0.000 -0.970
      -0.608  0.756 -0.000  0.000 -0.242
     occupation matrix ns (before diag.):
       0.973 -0.000 -0.000 -0.001  0.004
      -0.000  0.995 -0.001  0.000  0.000
      -0.000 -0.001  0.994  0.000  0.000
      -0.001  0.000  0.000  0.995  0.005
       0.004  0.000  0.000  0.005  0.976
     ------------------------ ATOM   13 ------------------------
     Tr[ns( 13)] (up, down, total) =   4.97221  0.89981  5.87202
     Atomic magnetic moment for atom  13 =   4.07240
     SPIN  1
     eigenvalues:
       0.988  0.991  0.997  0.997  0.998
     eigenvectors (columns):
       0.995  0.101 -0.000 -0.000 -0.003
       0.000 -0.000  0.830 -0.558 -0.000
       0.000 -0.000  0.558  0.830 -0.000
      -0.024  0.209 -0.000 -0.000 -0.978
      -0.098  0.973  0.000  0.000  0.210
     occupation matrix ns (before diag.):
       0.988 -0.000 -0.000  0.000  0.000
      -0.000  0.997 -0.000  0.000  0.000
      -0.000 -0.000  0.997  0.000  0.000
       0.000  0.000  0.000  0.998 -0.001
       0.000  0.000  0.000 -0.001  0.991
     SPIN  2
     eigenvalues:
       0.096  0.126  0.181  0.205  0.292
     eigenvectors (columns):
       0.008  0.000 -0.000  1.000 -0.017
      -0.000 -0.621 -0.784 -0.000  0.000
      -0.000  0.784 -0.621 -0.000  0.000
       0.968  0.000 -0.000 -0.003  0.252
      -0.252 -0.000  0.000  0.018  0.968
     occupation matrix ns (before diag.):
       0.205 -0.000 -0.000 -0.001 -0.001
      -0.000  0.160  0.026  0.000  0.000
      -0.000  0.026  0.147  0.000  0.000
      -0.001  0.000  0.000  0.108  0.048
      -0.001  0.000  0.000  0.048  0.280
     ------------------------ ATOM   14 ------------------------
     Tr[ns( 14)] (up, down, total) =   0.89982  4.97221  5.87203
     Atomic magnetic moment for atom  14 =  -4.07239
     SPIN  1
     eigenvalues:
       0.096  0.126  0.181  0.205  0.292
     eigenvectors (columns):
       0.008  0.000 -0.000  1.000 -0.017
      -0.000 -0.621 -0.784 -0.000  0.000
      -0.000  0.784 -0.621 -0.000  0.000
       0.968  0.000 -0.000 -0.003  0.252
      -0.252 -0.000  0.000  0.019  0.968
     occupation matrix ns (before diag.):
       0.205 -0.000 -0.000 -0.001 -0.001
      -0.000  0.160  0.026  0.000  0.000
      -0.000  0.026  0.147  0.000  0.000
      -0.001  0.000  0.000  0.108  0.048
      -0.001  0.000  0.000  0.048  0.280
     SPIN  2
     eigenvalues:
       0.988  0.991  0.997  0.997  0.998
     eigenvectors (columns):
       0.995  0.101 -0.000 -0.000 -0.003
       0.000 -0.000  0.830 -0.558 -0.000
       0.000 -0.000  0.558  0.830 -0.000
      -0.024  0.209 -0.000 -0.000 -0.978
      -0.098  0.973  0.000  0.000  0.210
     occupation matrix ns (before diag.):
       0.988 -0.000 -0.000  0.000  0.000
      -0.000  0.997 -0.000  0.000  0.000
      -0.000 -0.000  0.997  0.000  0.000
       0.000  0.000  0.000  0.998 -0.001
       0.000  0.000  0.000 -0.001  0.991
     ------------------------ ATOM   15 ------------------------
     Tr[ns( 15)] (up, down, total) =   4.97221  0.89981  5.87202
     Atomic magnetic moment for atom  15 =   4.07240
     SPIN  1
     eigenvalues:
       0.988  0.991  0.997  0.997  0.998
     eigenvectors (columns):
       0.995  0.101 -0.000 -0.000 -0.003
       0.000 -0.000  0.830 -0.558 -0.000
       0.000 -0.000  0.558  0.830 -0.000
      -0.024  0.209 -0.000 -0.000 -0.978
      -0.098  0.973  0.000  0.000  0.210
     occupation matrix ns (before diag.):
       0.988 -0.000 -0.000  0.000  0.000
      -0.000  0.997 -0.000  0.000  0.000
      -0.000 -0.000  0.997  0.000  0.000
       0.000  0.000  0.000  0.998 -0.001
       0.000  0.000  0.000 -0.001  0.991
     SPIN  2
     eigenvalues:
       0.096  0.126  0.181  0.205  0.292
     eigenvectors (columns):
       0.008  0.000 -0.000  1.000 -0.017
      -0.000 -0.621 -0.784 -0.000  0.000
      -0.000  0.784 -0.621 -0.000  0.000
       0.968  0.000 -0.000 -0.003  0.252
      -0.252 -0.000  0.000  0.018  0.968
     occupation matrix ns (before diag.):
       0.205 -0.000 -0.000 -0.001 -0.001
      -0.000  0.160  0.026  0.000  0.000
      -0.000  0.026  0.147  0.000  0.000
      -0.001  0.000  0.000  0.108  0.048
      -0.001  0.000  0.000  0.048  0.280
     ------------------------ ATOM   16 ------------------------
     Tr[ns( 16)] (up, down, total) =   0.89982  4.97221  5.87203
     Atomic magnetic moment for atom  16 =  -4.07239
     SPIN  1
     eigenvalues:
       0.096  0.126  0.181  0.205  0.292
     eigenvectors (columns):
       0.008  0.000 -0.000  1.000 -0.017
      -0.000 -0.621 -0.784 -0.000  0.000
      -0.000  0.784 -0.621 -0.000  0.000
       0.968  0.000 -0.000 -0.003  0.252
      -0.252 -0.000  0.000  0.019  0.968
     occupation matrix ns (before diag.):
       0.205 -0.000 -0.000 -0.001 -0.001
      -0.000  0.160  0.026  0.000  0.000
      -0.000  0.026  0.147  0.000  0.000
      -0.001  0.000  0.000  0.108  0.048
      -0.001  0.000  0.000  0.048  0.280
     SPIN  2
     eigenvalues:
       0.988  0.991  0.997  0.997  0.998
     eigenvectors (columns):
       0.995  0.101 -0.000 -0.000 -0.003
       0.000 -0.000  0.830 -0.558 -0.000
       0.000 -0.000  0.558  0.830 -0.000
      -0.024  0.209 -0.000 -0.000 -0.978
      -0.098  0.973  0.000  0.000  0.210
     occupation matrix ns (before diag.):
       0.988 -0.000 -0.000  0.000  0.000
      -0.000  0.997 -0.000  0.000  0.000
      -0.000 -0.000  0.997  0.000  0.000
       0.000  0.000  0.000  0.998 -0.001
       0.000  0.000  0.000 -0.001  0.991

     Number of occupied Hubbard levels =   44.4661

     HUBBARD ENERGY =    0.6471  (Ry)

     total cpu time spent up to now is      245.4 secs

     total energy              =   -3088.78159046 Ry
     estimated scf accuracy    <       0.00172560 Ry

     total magnetization       =     0.00 Bohr mag/cell
     absolute magnetization    =    38.60 Bohr mag/cell

     iteration #  9     ecut=    90.00 Ry     beta= 0.30
     Davidson diagonalization with overlap

---- Real-time Memory Report at c_bands before calling an iterative solver
          1297 MiB given to the printing process from OS
           811 MiB allocation reported by mallinfo(arena+hblkhd)
        675767 MiB available memory on the node where the printing process lives
------------------
     ethr =  3.21E-07,  avg # of iterations =  4.1

     =================== HUBBARD OCCUPATIONS ===================
     ------------------------ ATOM    9 ------------------------
     Tr[ns(  9)] (up, down, total) =   4.93362  0.31163  5.24525
     Atomic magnetic moment for atom   9 =   4.62199
     SPIN  1
     eigenvalues:
       0.970  0.978  0.994  0.996  0.996
     eigenvectors (columns):
       0.775  0.632 -0.000  0.009  0.000
       0.000 -0.000  0.589 -0.000  0.808
       0.000 -0.000  0.808  0.000 -0.589
       0.160 -0.182 -0.000 -0.970 -0.000
      -0.611  0.754 -0.000 -0.242 -0.000
     occupation matrix ns (before diag.):
       0.973 -0.000 -0.000 -0.001  0.004
      -0.000  0.995 -0.001  0.000  0.000
      -0.000 -0.001  0.994  0.000  0.000
      -0.001  0.000  0.000  0.995  0.005
       0.004  0.000  0.000  0.005  0.976
     SPIN  2
     eigenvalues:
       0.041  0.041  0.047  0.070  0.112
     eigenvectors (columns):
       0.000  0.013 -0.000 -0.999 -0.030
      -0.795  0.000 -0.607  0.000  0.000
       0.607 -0.000 -0.795  0.000  0.000
      -0.000 -0.982 -0.000 -0.007 -0.191
      -0.000 -0.191 -0.000 -0.032  0.981
     occupation matrix ns (before diag.):
       0.070 -0.000 -0.000  0.001 -0.001
      -0.000  0.043  0.003  0.000  0.000
      -0.000  0.003  0.045  0.000  0.000
       0.001  0.000  0.000  0.044 -0.013
      -0.001  0.000  0.000 -0.013  0.110
     ------------------------ ATOM   10 ------------------------
     Tr[ns( 10)] (up, down, total) =   0.31164  4.93362  5.24526
     Atomic magnetic moment for atom  10 =  -4.62199
     SPIN  1
     eigenvalues:
       0.041  0.041  0.047  0.070  0.112
     eigenvectors (columns):
       0.000  0.013 -0.000 -0.999 -0.030
      -0.795  0.000 -0.607  0.000  0.000
       0.607 -0.000 -0.795  0.000  0.000
      -0.000 -0.982 -0.000 -0.007 -0.191
      -0.000 -0.191 -0.000 -0.031  0.981
     occupation matrix ns (before diag.):
       0.070 -0.000 -0.000  0.001 -0.001
      -0.000  0.043  0.003  0.000  0.000
      -0.000  0.003  0.045  0.000  0.000
       0.001  0.000  0.000  0.044 -0.013
      -0.001  0.000  0.000 -0.013  0.110
     SPIN  2
     eigenvalues:
       0.970  0.978  0.994  0.996  0.996
     eigenvectors (columns):
       0.775  0.632 -0.000  0.009  0.000
       0.000 -0.000  0.589 -0.000  0.808
       0.000 -0.000  0.808  0.000 -0.589
       0.160 -0.182 -0.000 -0.970 -0.000
      -0.611  0.754 -0.000 -0.242 -0.000
     occupation matrix ns (before diag.):
       0.973 -0.000 -0.000 -0.001  0.004
      -0.000  0.995 -0.001  0.000  0.000
      -0.000 -0.001  0.994  0.000  0.000
      -0.001  0.000  0.000  0.995  0.005
       0.004  0.000  0.000  0.005  0.976
     ------------------------ ATOM   11 ------------------------
     Tr[ns( 11)] (up, down, total) =   4.93362  0.31163  5.24525
     Atomic magnetic moment for atom  11 =   4.62199
     SPIN  1
     eigenvalues:
       0.970  0.978  0.994  0.996  0.996
     eigenvectors (columns):
       0.775  0.632 -0.000  0.009  0.000
       0.000 -0.000  0.589 -0.000  0.808
       0.000 -0.000  0.808  0.000 -0.589
       0.160 -0.182 -0.000 -0.970 -0.000
      -0.611  0.754 -0.000 -0.242 -0.000
     occupation matrix ns (before diag.):
       0.973 -0.000 -0.000 -0.001  0.004
      -0.000  0.995 -0.001  0.000  0.000
      -0.000 -0.001  0.994  0.000  0.000
      -0.001  0.000  0.000  0.995  0.005
       0.004  0.000  0.000  0.005  0.976
     SPIN  2
     eigenvalues:
       0.041  0.041  0.047  0.070  0.112
     eigenvectors (columns):
       0.000 -0.013 -0.000  0.999 -0.030
      -0.795 -0.000 -0.607 -0.000  0.000
       0.607  0.000 -0.795 -0.000  0.000
      -0.000  0.982 -0.000  0.007 -0.191
      -0.000  0.191 -0.000  0.032  0.981
     occupation matrix ns (before diag.):
       0.070 -0.000 -0.000  0.001 -0.001
      -0.000  0.043  0.003  0.000  0.000
      -0.000  0.003  0.045  0.000  0.000
       0.001  0.000  0.000  0.044 -0.013
      -0.001  0.000  0.000 -0.013  0.110
     ------------------------ ATOM   12 ------------------------
     Tr[ns( 12)] (up, down, total) =   0.31164  4.93362  5.24526
     Atomic magnetic moment for atom  12 =  -4.62199
     SPIN  1
     eigenvalues:
       0.041  0.041  0.047  0.070  0.112
     eigenvectors (columns):
       0.000  0.013 -0.000 -0.999 -0.030
      -0.795  0.000 -0.607  0.000  0.000
       0.607 -0.000 -0.795  0.000  0.000
      -0.000 -0.982 -0.000 -0.007 -0.191
      -0.000 -0.191 -0.000 -0.031  0.981
     occupation matrix ns (before diag.):
       0.070 -0.000 -0.000  0.001 -0.001
      -0.000  0.043  0.003  0.000  0.000
      -0.000  0.003  0.045  0.000  0.000
       0.001  0.000  0.000  0.044 -0.013
      -0.001  0.000  0.000 -0.013  0.110
     SPIN  2
     eigenvalues:
       0.970  0.978  0.994  0.996  0.996
     eigenvectors (columns):
       0.775  0.632 -0.000  0.009  0.000
       0.000 -0.000  0.589 -0.000  0.808
       0.000 -0.000  0.808  0.000 -0.589
       0.160 -0.182 -0.000 -0.970 -0.000
      -0.611  0.754 -0.000 -0.242 -0.000
     occupation matrix ns (before diag.):
       0.973 -0.000 -0.000 -0.001  0.004
      -0.000  0.995 -0.001  0.000  0.000
      -0.000 -0.001  0.994  0.000  0.000
      -0.001  0.000  0.000  0.995  0.005
       0.004  0.000  0.000  0.005  0.976
     ------------------------ ATOM   13 ------------------------
     Tr[ns( 13)] (up, down, total) =   4.97222  0.90620  5.87842
     Atomic magnetic moment for atom  13 =   4.06603
     SPIN  1
     eigenvalues:
       0.988  0.991  0.997  0.997  0.998
     eigenvectors (columns):
       0.995  0.103 -0.000 -0.000 -0.003
       0.000 -0.000  0.830 -0.558 -0.000
       0.000 -0.000  0.558  0.830 -0.000
      -0.025  0.208 -0.000 -0.000 -0.978
      -0.100  0.973  0.000  0.000  0.210
     occupation matrix ns (before diag.):
       0.988 -0.000 -0.000  0.000  0.000
      -0.000  0.997 -0.000  0.000  0.000
      -0.000 -0.000  0.997  0.000  0.000
       0.000  0.000  0.000  0.998 -0.001
       0.000  0.000  0.000 -0.001  0.991
     SPIN  2
     eigenvalues:
       0.097  0.127  0.182  0.206  0.294
     eigenvectors (columns):
       0.008  0.000 -0.000  1.000 -0.016
      -0.000 -0.621 -0.784 -0.000  0.000
      -0.000  0.784 -0.621 -0.000  0.000
       0.968  0.000 -0.000 -0.003  0.252
      -0.251 -0.000  0.000  0.018  0.968
     occupation matrix ns (before diag.):
       0.206 -0.000 -0.000 -0.001 -0.001
      -0.000  0.161  0.026  0.000  0.000
      -0.000  0.026  0.148  0.000  0.000
      -0.001  0.000  0.000  0.109  0.048
      -0.001  0.000  0.000  0.048  0.282
     ------------------------ ATOM   14 ------------------------
     Tr[ns( 14)] (up, down, total) =   0.90618  4.97223  5.87841
     Atomic magnetic moment for atom  14 =  -4.06604
     SPIN  1
     eigenvalues:
       0.097  0.127  0.182  0.206  0.294
     eigenvectors (columns):
       0.008  0.000 -0.000  1.000 -0.016
      -0.000 -0.621 -0.784 -0.000  0.000
      -0.000  0.784 -0.621 -0.000  0.000
       0.968  0.000 -0.000 -0.003  0.252
      -0.251 -0.000  0.000  0.018  0.968
     occupation matrix ns (before diag.):
       0.206 -0.000 -0.000 -0.001 -0.001
      -0.000  0.161  0.026  0.000  0.000
      -0.000  0.026  0.148  0.000  0.000
      -0.001  0.000  0.000  0.109  0.048
      -0.001  0.000  0.000  0.048  0.282
     SPIN  2
     eigenvalues:
       0.988  0.991  0.997  0.997  0.998
     eigenvectors (columns):
       0.995  0.103 -0.000 -0.000 -0.003
       0.000 -0.000  0.830 -0.558 -0.000
       0.000 -0.000  0.558  0.830 -0.000
      -0.025  0.208 -0.000 -0.000 -0.978
      -0.100  0.973  0.000  0.000  0.210
     occupation matrix ns (before diag.):
       0.988 -0.000 -0.000  0.000  0.000
      -0.000  0.997 -0.000  0.000  0.000
      -0.000 -0.000  0.997  0.000  0.000
       0.000  0.000  0.000  0.998 -0.001
       0.000  0.000  0.000 -0.001  0.991
     ------------------------ ATOM   15 ------------------------
     Tr[ns( 15)] (up, down, total) =   4.97222  0.90620  5.87842
     Atomic magnetic moment for atom  15 =   4.06603
     SPIN  1
     eigenvalues:
       0.988  0.991  0.997  0.997  0.998
     eigenvectors (columns):
       0.995  0.103 -0.000 -0.000 -0.003
       0.000 -0.000  0.830 -0.558 -0.000
       0.000 -0.000  0.558  0.830 -0.000
      -0.025  0.208 -0.000 -0.000 -0.978
      -0.100  0.973  0.000  0.000  0.210
     occupation matrix ns (before diag.):
       0.988 -0.000 -0.000  0.000  0.000
      -0.000  0.997 -0.000  0.000  0.000
      -0.000 -0.000  0.997  0.000  0.000
       0.000  0.000  0.000  0.998 -0.001
       0.000  0.000  0.000 -0.001  0.991
     SPIN  2
     eigenvalues:
       0.097  0.127  0.182  0.206  0.294
     eigenvectors (columns):
       0.008  0.000 -0.000  1.000 -0.016
      -0.000 -0.621 -0.784 -0.000  0.000
      -0.000  0.784 -0.621 -0.000  0.000
       0.968  0.000 -0.000 -0.003  0.252
      -0.251 -0.000  0.000  0.018  0.968
     occupation matrix ns (before diag.):
       0.206 -0.000 -0.000 -0.001 -0.001
      -0.000  0.161  0.026  0.000  0.000
      -0.000  0.026  0.148  0.000  0.000
      -0.001  0.000  0.000  0.109  0.048
      -0.001  0.000  0.000  0.048  0.282
     ------------------------ ATOM   16 ------------------------
     Tr[ns( 16)] (up, down, total) =   0.90618  4.97223  5.87841
     Atomic magnetic moment for atom  16 =  -4.06604
     SPIN  1
     eigenvalues:
       0.097  0.127  0.182  0.206  0.294
     eigenvectors (columns):
       0.008  0.000 -0.000  1.000 -0.016
      -0.000 -0.621 -0.784 -0.000  0.000
      -0.000  0.784 -0.621 -0.000  0.000
       0.968  0.000 -0.000 -0.003  0.252
      -0.251 -0.000  0.000  0.018  0.968
     occupation matrix ns (before diag.):
       0.206 -0.000 -0.000 -0.001 -0.001
      -0.000  0.161  0.026  0.000  0.000
      -0.000  0.026  0.148  0.000  0.000
      -0.001  0.000  0.000  0.109  0.048
      -0.001  0.000  0.000  0.048  0.282
     SPIN  2
     eigenvalues:
       0.988  0.991  0.997  0.997  0.998
     eigenvectors (columns):
       0.995  0.103 -0.000 -0.000 -0.003
       0.000 -0.000  0.830 -0.558 -0.000
       0.000 -0.000  0.558  0.830 -0.000
      -0.025  0.208 -0.000 -0.000 -0.978
      -0.100  0.973  0.000  0.000  0.210
     occupation matrix ns (before diag.):
       0.988 -0.000 -0.000  0.000  0.000
      -0.000  0.997 -0.000  0.000  0.000
      -0.000 -0.000  0.997  0.000  0.000
       0.000  0.000  0.000  0.998 -0.001
       0.000  0.000  0.000 -0.001  0.991

     Number of occupied Hubbard levels =   44.4947

     HUBBARD ENERGY =    0.6466  (Ry)

     total cpu time spent up to now is      277.5 secs

     total energy              =   -3088.78183878 Ry
     estimated scf accuracy    <       0.00013115 Ry

     total magnetization       =     0.00 Bohr mag/cell
     absolute magnetization    =    38.59 Bohr mag/cell

     iteration # 10     ecut=    90.00 Ry     beta= 0.30
     Davidson diagonalization with overlap

---- Real-time Memory Report at c_bands before calling an iterative solver
          1309 MiB given to the printing process from OS
           822 MiB allocation reported by mallinfo(arena+hblkhd)
        675234 MiB available memory on the node where the printing process lives
------------------
     ethr =  4.00E-08,  avg # of iterations =  4.5

     =================== HUBBARD OCCUPATIONS ===================
     ------------------------ ATOM    9 ------------------------
     Tr[ns(  9)] (up, down, total) =   4.93381  0.31220  5.24601
     Atomic magnetic moment for atom   9 =   4.62161
     SPIN  1
     eigenvalues:
       0.970  0.978  0.994  0.996  0.996
     eigenvectors (columns):
       0.783  0.622 -0.000 -0.000  0.009
       0.000 -0.000  0.589  0.808  0.000
       0.000 -0.000  0.808 -0.589 -0.000
       0.157 -0.184 -0.000  0.000 -0.970
      -0.601  0.761 -0.000  0.000 -0.242
     occupation matrix ns (before diag.):
       0.973 -0.000 -0.000 -0.001  0.003
      -0.000  0.995 -0.001  0.000  0.000
      -0.000 -0.001  0.994  0.000  0.000
      -0.001  0.000  0.000  0.995  0.005
       0.003  0.000  0.000  0.005  0.976
     SPIN  2
     eigenvalues:
       0.041  0.041  0.047  0.070  0.113
     eigenvectors (columns):
       0.000  0.013 -0.000 -1.000 -0.029
      -0.795  0.000 -0.607  0.000  0.000
       0.607 -0.000 -0.795  0.000  0.000
      -0.000 -0.982 -0.000 -0.007 -0.191
      -0.000 -0.191 -0.000 -0.031  0.981
     occupation matrix ns (before diag.):
       0.070 -0.000 -0.000  0.001 -0.001
      -0.000  0.043  0.003  0.000  0.000
      -0.000  0.003  0.045  0.000  0.000
       0.001  0.000  0.000  0.044 -0.013
      -0.001  0.000  0.000 -0.013  0.110
     ------------------------ ATOM   10 ------------------------
     Tr[ns( 10)] (up, down, total) =   0.31219  4.93381  5.24600
     Atomic magnetic moment for atom  10 =  -4.62163
     SPIN  1
     eigenvalues:
       0.041  0.041  0.047  0.070  0.113
     eigenvectors (columns):
       0.000  0.013 -0.000 -1.000 -0.029
      -0.795  0.000 -0.607  0.000  0.000
       0.607 -0.000 -0.795  0.000  0.000
      -0.000 -0.982 -0.000 -0.007 -0.191
      -0.000 -0.191 -0.000 -0.031  0.981
     occupation matrix ns (before diag.):
       0.070 -0.000 -0.000  0.001 -0.001
      -0.000  0.043  0.003  0.000  0.000
      -0.000  0.003  0.045  0.000  0.000
       0.001  0.000  0.000  0.044 -0.013
      -0.001  0.000  0.000 -0.013  0.110
     SPIN  2
     eigenvalues:
       0.970  0.978  0.994  0.996  0.996
     eigenvectors (columns):
       0.783  0.622 -0.000 -0.000  0.009
       0.000 -0.000  0.589  0.808  0.000
       0.000 -0.000  0.808 -0.589 -0.000
       0.157 -0.184 -0.000  0.000 -0.970
      -0.601  0.761 -0.000  0.000 -0.242
     occupation matrix ns (before diag.):
       0.973 -0.000 -0.000 -0.001  0.003
      -0.000  0.995 -0.001  0.000  0.000
      -0.000 -0.001  0.994  0.000  0.000
      -0.001  0.000  0.000  0.995  0.005
       0.003  0.000  0.000  0.005  0.976
     ------------------------ ATOM   11 ------------------------
     Tr[ns( 11)] (up, down, total) =   4.93381  0.31220  5.24601
     Atomic magnetic moment for atom  11 =   4.62161
     SPIN  1
     eigenvalues:
       0.970  0.978  0.994  0.996  0.996
     eigenvectors (columns):
       0.783  0.622 -0.000 -0.000  0.009
       0.000 -0.000  0.589  0.808  0.000
       0.000 -0.000  0.808 -0.589 -0.000
       0.157 -0.184 -0.000  0.000 -0.970
      -0.601  0.761 -0.000  0.000 -0.242
     occupation matrix ns (before diag.):
       0.973 -0.000 -0.000 -0.001  0.003
      -0.000  0.995 -0.001  0.000  0.000
      -0.000 -0.001  0.994  0.000  0.000
      -0.001  0.000  0.000  0.995  0.005
       0.003  0.000  0.000  0.005  0.976
     SPIN  2
     eigenvalues:
       0.041  0.041  0.047  0.070  0.113
     eigenvectors (columns):
       0.000  0.013 -0.000 -1.000 -0.029
      -0.795  0.000 -0.607  0.000  0.000
       0.607 -0.000 -0.795  0.000  0.000
      -0.000 -0.982 -0.000 -0.007 -0.191
      -0.000 -0.191 -0.000 -0.031  0.981
     occupation matrix ns (before diag.):
       0.070 -0.000 -0.000  0.001 -0.001
      -0.000  0.043  0.003  0.000  0.000
      -0.000  0.003  0.045  0.000  0.000
       0.001  0.000  0.000  0.044 -0.013
      -0.001  0.000  0.000 -0.013  0.110
     ------------------------ ATOM   12 ------------------------
     Tr[ns( 12)] (up, down, total) =   0.31219  4.93381  5.24600
     Atomic magnetic moment for atom  12 =  -4.62163
     SPIN  1
     eigenvalues:
       0.041  0.041  0.047  0.070  0.113
     eigenvectors (columns):
       0.000 -0.013 -0.000  1.000 -0.029
      -0.795 -0.000 -0.607 -0.000  0.000
       0.607  0.000 -0.795 -0.000  0.000
      -0.000  0.982 -0.000  0.007 -0.191
      -0.000  0.191 -0.000  0.031  0.981
     occupation matrix ns (before diag.):
       0.070 -0.000 -0.000  0.001 -0.001
      -0.000  0.043  0.003  0.000  0.000
      -0.000  0.003  0.045  0.000  0.000
       0.001  0.000  0.000  0.044 -0.013
      -0.001  0.000  0.000 -0.013  0.110
     SPIN  2
     eigenvalues:
       0.970  0.978  0.994  0.996  0.996
     eigenvectors (columns):
       0.783  0.622 -0.000 -0.000  0.009
       0.000 -0.000  0.589  0.808  0.000
       0.000 -0.000  0.808 -0.589 -0.000
       0.157 -0.184 -0.000  0.000 -0.970
      -0.601  0.761 -0.000  0.000 -0.242
     occupation matrix ns (before diag.):
       0.973 -0.000 -0.000 -0.001  0.003
      -0.000  0.995 -0.001  0.000  0.000
      -0.000 -0.001  0.994  0.000  0.000
      -0.001  0.000  0.000  0.995  0.005
       0.003  0.000  0.000  0.005  0.976
     ------------------------ ATOM   13 ------------------------
     Tr[ns( 13)] (up, down, total) =   4.97218  0.90295  5.87513
     Atomic magnetic moment for atom  13 =   4.06924
     SPIN  1
     eigenvalues:
       0.988  0.991  0.997  0.997  0.998
     eigenvectors (columns):
       0.995  0.103 -0.000 -0.000 -0.003
       0.000 -0.000  0.828 -0.561 -0.000
       0.000 -0.000  0.561  0.828 -0.000
      -0.025  0.208 -0.000 -0.000 -0.978
      -0.100  0.973  0.000  0.000  0.210
     occupation matrix ns (before diag.):
       0.988 -0.000 -0.000  0.000  0.000
      -0.000  0.997 -0.000  0.000  0.000
      -0.000 -0.000  0.997  0.000  0.000
       0.000  0.000  0.000  0.998 -0.001
       0.000  0.000  0.000 -0.001  0.991
     SPIN  2
     eigenvalues:
       0.096  0.127  0.181  0.206  0.293
     eigenvectors (columns):
       0.008  0.000 -0.000  1.000 -0.016
      -0.000 -0.621 -0.784 -0.000  0.000
      -0.000  0.784 -0.621 -0.000  0.000
       0.968  0.000 -0.000 -0.003  0.251
      -0.251 -0.000  0.000  0.017  0.968
     occupation matrix ns (before diag.):
       0.206 -0.000 -0.000 -0.001 -0.001
      -0.000  0.160  0.026  0.000  0.000
      -0.000  0.026  0.148  0.000  0.000
      -0.001  0.000  0.000  0.109  0.048
      -0.001  0.000  0.000  0.048  0.281
     ------------------------ ATOM   14 ------------------------
     Tr[ns( 14)] (up, down, total) =   0.90294  4.97218  5.87512
     Atomic magnetic moment for atom  14 =  -4.06924
     SPIN  1
     eigenvalues:
       0.096  0.127  0.181  0.206  0.293
     eigenvectors (columns):
       0.008  0.000 -0.000  1.000 -0.016
      -0.000 -0.621 -0.784 -0.000  0.000
      -0.000  0.784 -0.621 -0.000  0.000
       0.968  0.000 -0.000 -0.003  0.251
      -0.251 -0.000  0.000  0.017  0.968
     occupation matrix ns (before diag.):
       0.206 -0.000 -0.000 -0.001 -0.001
      -0.000  0.160  0.026  0.000  0.000
      -0.000  0.026  0.148  0.000  0.000
      -0.001  0.000  0.000  0.109  0.048
      -0.001  0.000  0.000  0.048  0.281
     SPIN  2
     eigenvalues:
       0.988  0.991  0.997  0.997  0.998
     eigenvectors (columns):
       0.995  0.103 -0.000 -0.000 -0.003
       0.000 -0.000  0.827 -0.562 -0.000
       0.000 -0.000  0.562  0.827 -0.000
      -0.025  0.208 -0.000 -0.000 -0.978
      -0.100  0.973  0.000  0.000  0.210
     occupation matrix ns (before diag.):
       0.988 -0.000 -0.000  0.000  0.000
      -0.000  0.997 -0.000  0.000  0.000
      -0.000 -0.000  0.997  0.000  0.000
       0.000  0.000  0.000  0.998 -0.001
       0.000  0.000  0.000 -0.001  0.991
     ------------------------ ATOM   15 ------------------------
     Tr[ns( 15)] (up, down, total) =   4.97218  0.90295  5.87513
     Atomic magnetic moment for atom  15 =   4.06924
     SPIN  1
     eigenvalues:
       0.988  0.991  0.997  0.997  0.998
     eigenvectors (columns):
       0.995  0.103 -0.000 -0.000 -0.003
       0.000 -0.000  0.828 -0.561 -0.000
       0.000 -0.000  0.561  0.828 -0.000
      -0.025  0.208 -0.000 -0.000 -0.978
      -0.100  0.973  0.000  0.000  0.210
     occupation matrix ns (before diag.):
       0.988 -0.000 -0.000  0.000  0.000
      -0.000  0.997 -0.000  0.000  0.000
      -0.000 -0.000  0.997  0.000  0.000
       0.000  0.000  0.000  0.998 -0.001
       0.000  0.000  0.000 -0.001  0.991
     SPIN  2
     eigenvalues:
       0.096  0.127  0.181  0.206  0.293
     eigenvectors (columns):
       0.008  0.000 -0.000  1.000 -0.016
      -0.000 -0.621 -0.784 -0.000  0.000
      -0.000  0.784 -0.621 -0.000  0.000
       0.968  0.000 -0.000 -0.003  0.251
      -0.251 -0.000  0.000  0.017  0.968
     occupation matrix ns (before diag.):
       0.206 -0.000 -0.000 -0.001 -0.001
      -0.000  0.160  0.026  0.000  0.000
      -0.000  0.026  0.148  0.000  0.000
      -0.001  0.000  0.000  0.109  0.048
      -0.001  0.000  0.000  0.048  0.281
     ------------------------ ATOM   16 ------------------------
     Tr[ns( 16)] (up, down, total) =   0.90294  4.97218  5.87512
     Atomic magnetic moment for atom  16 =  -4.06924
     SPIN  1
     eigenvalues:
       0.096  0.127  0.181  0.206  0.293
     eigenvectors (columns):
       0.008  0.000 -0.000  1.000 -0.016
      -0.000 -0.621 -0.784 -0.000  0.000
      -0.000  0.784 -0.621 -0.000  0.000
       0.968  0.000 -0.000 -0.003  0.251
      -0.251 -0.000  0.000  0.017  0.968
     occupation matrix ns (before diag.):
       0.206 -0.000 -0.000 -0.001 -0.001
      -0.000  0.160  0.026  0.000  0.000
      -0.000  0.026  0.148  0.000  0.000
      -0.001  0.000  0.000  0.109  0.048
      -0.001  0.000  0.000  0.048  0.281
     SPIN  2
     eigenvalues:
       0.988  0.991  0.997  0.997  0.998
     eigenvectors (columns):
       0.995  0.103 -0.000 -0.000 -0.003
       0.000 -0.000  0.827 -0.562 -0.000
       0.000 -0.000  0.562  0.827 -0.000
      -0.025  0.208 -0.000 -0.000 -0.978
      -0.100  0.973  0.000  0.000  0.210
     occupation matrix ns (before diag.):
       0.988 -0.000 -0.000  0.000  0.000
      -0.000  0.997 -0.000  0.000  0.000
      -0.000 -0.000  0.997  0.000  0.000
       0.000  0.000  0.000  0.998 -0.001
       0.000  0.000  0.000 -0.001  0.991

     Number of occupied Hubbard levels =   44.4845

     HUBBARD ENERGY =    0.6460  (Ry)

     total cpu time spent up to now is      309.3 secs

     total energy              =   -3088.78181209 Ry
     estimated scf accuracy    <       0.00013788 Ry

     total magnetization       =    -0.00 Bohr mag/cell
     absolute magnetization    =    38.60 Bohr mag/cell

     iteration # 11     ecut=    90.00 Ry     beta= 0.30
     Davidson diagonalization with overlap

---- Real-time Memory Report at c_bands before calling an iterative solver
          1321 MiB given to the printing process from OS
           822 MiB allocation reported by mallinfo(arena+hblkhd)
        675351 MiB available memory on the node where the printing process lives
------------------
     ethr =  4.00E-08,  avg # of iterations =  2.1

     =================== HUBBARD OCCUPATIONS ===================
     ------------------------ ATOM    9 ------------------------
     Tr[ns(  9)] (up, down, total) =   4.93336  0.31140  5.24477
     Atomic magnetic moment for atom   9 =   4.62196
     SPIN  1
     eigenvalues:
       0.970  0.978  0.994  0.996  0.996
     eigenvectors (columns):
       0.779  0.627 -0.000  0.009  0.000
       0.000 -0.000  0.589 -0.000  0.808
       0.000 -0.000  0.808  0.000 -0.589
       0.159 -0.183 -0.000 -0.970 -0.000
      -0.607  0.757 -0.000 -0.242 -0.000
     occupation matrix ns (before diag.):
       0.973 -0.000 -0.000 -0.001  0.004
      -0.000  0.995 -0.001  0.000  0.000
      -0.000 -0.001  0.994  0.000  0.000
      -0.001  0.000  0.000  0.995  0.005
       0.004  0.000  0.000  0.005  0.976
     SPIN  2
     eigenvalues:
       0.041  0.041  0.046  0.070  0.113
     eigenvectors (columns):
       0.000 -0.013 -0.000  1.000 -0.029
      -0.794 -0.000 -0.607 -0.000  0.000
       0.607  0.000 -0.794 -0.000  0.000
      -0.000  0.982 -0.000  0.007 -0.191
      -0.000  0.190 -0.000  0.031  0.981
     occupation matrix ns (before diag.):
       0.070 -0.000 -0.000  0.001 -0.001
      -0.000  0.043  0.003  0.000  0.000
      -0.000  0.003  0.044  0.000  0.000
       0.001  0.000  0.000  0.044 -0.013
      -0.001  0.000  0.000 -0.013  0.110
     ------------------------ ATOM   10 ------------------------
     Tr[ns( 10)] (up, down, total) =   0.31139  4.93337  5.24476
     Atomic magnetic moment for atom  10 =  -4.62197
     SPIN  1
     eigenvalues:
       0.041  0.041  0.046  0.070  0.113
     eigenvectors (columns):
       0.000 -0.013 -0.000  1.000 -0.029
      -0.794 -0.000 -0.607 -0.000  0.000
       0.607  0.000 -0.794 -0.000  0.000
      -0.000  0.982 -0.000  0.007 -0.191
      -0.000  0.190 -0.000  0.031  0.981
     occupation matrix ns (before diag.):
       0.070 -0.000 -0.000  0.001 -0.001
      -0.000  0.043  0.003  0.000  0.000
      -0.000  0.003  0.044  0.000  0.000
       0.001  0.000  0.000  0.044 -0.013
      -0.001  0.000  0.000 -0.013  0.110
     SPIN  2
     eigenvalues:
       0.970  0.978  0.994  0.996  0.996
     eigenvectors (columns):
       0.779  0.627 -0.000  0.009  0.000
       0.000 -0.000  0.589 -0.000  0.808
       0.000 -0.000  0.808  0.000 -0.589
       0.159 -0.183 -0.000 -0.970 -0.000
      -0.607  0.757 -0.000 -0.242 -0.000
     occupation matrix ns (before diag.):
       0.973 -0.000 -0.000 -0.001  0.003
      -0.000  0.995 -0.001  0.000  0.000
      -0.000 -0.001  0.994  0.000  0.000
      -0.001  0.000  0.000  0.995  0.005
       0.003  0.000  0.000  0.005  0.976
     ------------------------ ATOM   11 ------------------------
     Tr[ns( 11)] (up, down, total) =   4.93336  0.31140  5.24477
     Atomic magnetic moment for atom  11 =   4.62196
     SPIN  1
     eigenvalues:
       0.970  0.978  0.994  0.996  0.996
     eigenvectors (columns):
       0.779  0.627 -0.000  0.009  0.000
       0.000 -0.000  0.589 -0.000  0.808
       0.000 -0.000  0.808  0.000 -0.589
       0.159 -0.183 -0.000 -0.970 -0.000
      -0.607  0.757 -0.000 -0.242 -0.000
     occupation matrix ns (before diag.):
       0.973 -0.000 -0.000 -0.001  0.004
      -0.000  0.995 -0.001  0.000  0.000
      -0.000 -0.001  0.994  0.000  0.000
      -0.001  0.000  0.000  0.995  0.005
       0.004  0.000  0.000  0.005  0.976
     SPIN  2
     eigenvalues:
       0.041  0.041  0.046  0.070  0.113
     eigenvectors (columns):
       0.000 -0.013 -0.000  1.000 -0.029
      -0.794 -0.000 -0.607 -0.000  0.000
       0.607  0.000 -0.794 -0.000  0.000
      -0.000  0.982 -0.000  0.007 -0.191
      -0.000  0.190 -0.000  0.031  0.981
     occupation matrix ns (before diag.):
       0.070 -0.000 -0.000  0.001 -0.001
      -0.000  0.043  0.003  0.000  0.000
      -0.000  0.003  0.044  0.000  0.000
       0.001  0.000  0.000  0.044 -0.013
      -0.001  0.000  0.000 -0.013  0.110
     ------------------------ ATOM   12 ------------------------
     Tr[ns( 12)] (up, down, total) =   0.31139  4.93337  5.24476
     Atomic magnetic moment for atom  12 =  -4.62197
     SPIN  1
     eigenvalues:
       0.041  0.041  0.046  0.070  0.113
     eigenvectors (columns):
       0.000  0.013 -0.000 -1.000 -0.029
      -0.794  0.000 -0.607  0.000  0.000
       0.607 -0.000 -0.794  0.000  0.000
      -0.000 -0.982 -0.000 -0.007 -0.191
      -0.000 -0.190 -0.000 -0.031  0.981
     occupation matrix ns (before diag.):
       0.070 -0.000 -0.000  0.001 -0.001
      -0.000  0.043  0.003  0.000  0.000
      -0.000  0.003  0.044  0.000  0.000
       0.001  0.000  0.000  0.044 -0.013
      -0.001  0.000  0.000 -0.013  0.110
     SPIN  2
     eigenvalues:
       0.970  0.978  0.994  0.996  0.996
     eigenvectors (columns):
       0.779  0.627 -0.000  0.009  0.000
       0.000 -0.000  0.589 -0.000  0.808
       0.000 -0.000  0.808  0.000 -0.589
       0.159 -0.183 -0.000 -0.970 -0.000
      -0.607  0.757 -0.000 -0.242 -0.000
     occupation matrix ns (before diag.):
       0.973 -0.000 -0.000 -0.001  0.003
      -0.000  0.995 -0.001  0.000  0.000
      -0.000 -0.001  0.994  0.000  0.000
      -0.001  0.000  0.000  0.995  0.005
       0.003  0.000  0.000  0.005  0.976
     ------------------------ ATOM   13 ------------------------
     Tr[ns( 13)] (up, down, total) =   4.97226  0.90480  5.87705
     Atomic magnetic moment for atom  13 =   4.06746
     SPIN  1
     eigenvalues:
       0.988  0.991  0.997  0.997  0.998
     eigenvectors (columns):
       0.995  0.103 -0.000 -0.000 -0.003
       0.000 -0.000  0.827 -0.562 -0.000
       0.000 -0.000  0.562  0.827 -0.000
      -0.024  0.208 -0.000 -0.000 -0.978
      -0.100  0.973  0.000  0.000  0.210
     occupation matrix ns (before diag.):
       0.988 -0.000 -0.000  0.000  0.000
      -0.000  0.997 -0.000  0.000  0.000
      -0.000 -0.000  0.997  0.000  0.000
       0.000  0.000  0.000  0.998 -0.001
       0.000  0.000  0.000 -0.001  0.991
     SPIN  2
     eigenvalues:
       0.097  0.127  0.181  0.206  0.294
     eigenvectors (columns):
       0.008  0.000 -0.000  1.000 -0.017
      -0.000 -0.621 -0.784 -0.000  0.000
      -0.000  0.784 -0.621 -0.000  0.000
       0.968  0.000 -0.000 -0.003  0.251
      -0.251 -0.000  0.000  0.018  0.968
     occupation matrix ns (before diag.):
       0.206 -0.000 -0.000 -0.001 -0.001
      -0.000  0.160  0.026  0.000  0.000
      -0.000  0.026  0.148  0.000  0.000
      -0.001  0.000  0.000  0.109  0.048
      -0.001  0.000  0.000  0.048  0.281
     ------------------------ ATOM   14 ------------------------
     Tr[ns( 14)] (up, down, total) =   0.90482  4.97225  5.87708
     Atomic magnetic moment for atom  14 =  -4.06743
     SPIN  1
     eigenvalues:
       0.097  0.127  0.181  0.206  0.294
     eigenvectors (columns):
       0.008  0.000 -0.000  1.000 -0.017
      -0.000 -0.621 -0.784 -0.000  0.000
      -0.000  0.784 -0.621 -0.000  0.000
       0.968  0.000 -0.000 -0.003  0.251
      -0.251 -0.000  0.000  0.018  0.968
     occupation matrix ns (before diag.):
       0.206 -0.000 -0.000 -0.001 -0.001
      -0.000  0.160  0.026  0.000  0.000
      -0.000  0.026  0.148  0.000  0.000
      -0.001  0.000  0.000  0.109  0.048
      -0.001  0.000  0.000  0.048  0.281
     SPIN  2
     eigenvalues:
       0.988  0.991  0.997  0.997  0.998
     eigenvectors (columns):
       0.995  0.103 -0.000 -0.000 -0.003
       0.000 -0.000  0.827 -0.562 -0.000
       0.000 -0.000  0.562  0.827 -0.000
      -0.024  0.208 -0.000 -0.000 -0.978
      -0.100  0.973  0.000  0.000  0.210
     occupation matrix ns (before diag.):
       0.988 -0.000 -0.000  0.000  0.000
      -0.000  0.997 -0.000  0.000  0.000
      -0.000 -0.000  0.997  0.000  0.000
       0.000  0.000  0.000  0.998 -0.001
       0.000  0.000  0.000 -0.001  0.991
     ------------------------ ATOM   15 ------------------------
     Tr[ns( 15)] (up, down, total) =   4.97226  0.90480  5.87705
     Atomic magnetic moment for atom  15 =   4.06746
     SPIN  1
     eigenvalues:
       0.988  0.991  0.997  0.997  0.998
     eigenvectors (columns):
       0.995  0.103 -0.000 -0.000 -0.003
       0.000 -0.000  0.827 -0.562 -0.000
       0.000 -0.000  0.562  0.827 -0.000
      -0.024  0.208 -0.000 -0.000 -0.978
      -0.100  0.973  0.000  0.000  0.210
     occupation matrix ns (before diag.):
       0.988 -0.000 -0.000  0.000  0.000
      -0.000  0.997 -0.000  0.000  0.000
      -0.000 -0.000  0.997  0.000  0.000
       0.000  0.000  0.000  0.998 -0.001
       0.000  0.000  0.000 -0.001  0.991
     SPIN  2
     eigenvalues:
       0.097  0.127  0.181  0.206  0.294
     eigenvectors (columns):
       0.008  0.000 -0.000  1.000 -0.017
      -0.000 -0.621 -0.784 -0.000  0.000
      -0.000  0.784 -0.621 -0.000  0.000
       0.968  0.000 -0.000 -0.003  0.251
      -0.251 -0.000  0.000  0.018  0.968
     occupation matrix ns (before diag.):
       0.206 -0.000 -0.000 -0.001 -0.001
      -0.000  0.160  0.026  0.000  0.000
      -0.000  0.026  0.148  0.000  0.000
      -0.001  0.000  0.000  0.109  0.048
      -0.001  0.000  0.000  0.048  0.281
     ------------------------ ATOM   16 ------------------------
     Tr[ns( 16)] (up, down, total) =   0.90482  4.97225  5.87708
     Atomic magnetic moment for atom  16 =  -4.06743
     SPIN  1
     eigenvalues:
       0.097  0.127  0.181  0.206  0.294
     eigenvectors (columns):
       0.008  0.000 -0.000  1.000 -0.017
      -0.000 -0.621 -0.784 -0.000  0.000
      -0.000  0.784 -0.621 -0.000  0.000
       0.968  0.000 -0.000 -0.003  0.251
      -0.251 -0.000  0.000  0.018  0.968
     occupation matrix ns (before diag.):
       0.206 -0.000 -0.000 -0.001 -0.001
      -0.000  0.160  0.026  0.000  0.000
      -0.000  0.026  0.148  0.000  0.000
      -0.001  0.000  0.000  0.109  0.048
      -0.001  0.000  0.000  0.048  0.281
     SPIN  2
     eigenvalues:
       0.988  0.991  0.997  0.997  0.998
     eigenvectors (columns):
       0.995  0.103 -0.000 -0.000 -0.003
       0.000 -0.000  0.827 -0.562 -0.000
       0.000 -0.000  0.562  0.827 -0.000
      -0.024  0.208 -0.000 -0.000 -0.978
      -0.100  0.973  0.000  0.000  0.210
     occupation matrix ns (before diag.):
       0.988 -0.000 -0.000  0.000  0.000
      -0.000  0.997 -0.000  0.000  0.000
      -0.000 -0.000  0.997  0.000  0.000
       0.000  0.000  0.000  0.998 -0.001
       0.000  0.000  0.000 -0.001  0.991

     Number of occupied Hubbard levels =   44.4873

     HUBBARD ENERGY =    0.6456  (Ry)

     total cpu time spent up to now is      340.3 secs

     total energy              =   -3088.78183454 Ry
     estimated scf accuracy    <       0.00004050 Ry

     total magnetization       =    -0.00 Bohr mag/cell
     absolute magnetization    =    38.59 Bohr mag/cell

     iteration # 12     ecut=    90.00 Ry     beta= 0.30
     Davidson diagonalization with overlap

---- Real-time Memory Report at c_bands before calling an iterative solver
          1321 MiB given to the printing process from OS
           822 MiB allocation reported by mallinfo(arena+hblkhd)
        676883 MiB available memory on the node where the printing process lives
------------------
     ethr =  1.23E-08,  avg # of iterations =  2.0

     =================== HUBBARD OCCUPATIONS ===================
     ------------------------ ATOM    9 ------------------------
     Tr[ns(  9)] (up, down, total) =   4.93344  0.31163  5.24507
     Atomic magnetic moment for atom   9 =   4.62181
     SPIN  1
     eigenvalues:
       0.970  0.978  0.994  0.996  0.996
     eigenvectors (columns):
       0.779  0.627 -0.000  0.009  0.000
       0.000 -0.000  0.589 -0.000  0.808
       0.000 -0.000  0.808  0.000 -0.589
       0.159 -0.183 -0.000 -0.970 -0.000
      -0.606  0.758 -0.000 -0.242 -0.000
     occupation matrix ns (before diag.):
       0.973 -0.000 -0.000 -0.001  0.003
      -0.000  0.995 -0.001  0.000  0.000
      -0.000 -0.001  0.994  0.000  0.000
      -0.001  0.000  0.000  0.995  0.005
       0.003  0.000  0.000  0.005  0.976
     SPIN  2
     eigenvalues:
       0.041  0.041  0.047  0.070  0.113
     eigenvectors (columns):
       0.000 -0.013 -0.000  1.000 -0.029
      -0.794 -0.000 -0.607 -0.000  0.000
       0.607  0.000 -0.794 -0.000  0.000
      -0.000  0.982 -0.000  0.007 -0.191
      -0.000  0.190 -0.000  0.031  0.981
     occupation matrix ns (before diag.):
       0.070 -0.000 -0.000  0.001 -0.001
      -0.000  0.043  0.003  0.000  0.000
      -0.000  0.003  0.044  0.000  0.000
       0.001  0.000  0.000  0.044 -0.013
      -0.001  0.000  0.000 -0.013  0.110
     ------------------------ ATOM   10 ------------------------
     Tr[ns( 10)] (up, down, total) =   0.31162  4.93344  5.24506
     Atomic magnetic moment for atom  10 =  -4.62182
     SPIN  1
     eigenvalues:
       0.041  0.041  0.047  0.070  0.113
     eigenvectors (columns):
       0.000  0.013 -0.000 -1.000 -0.029
      -0.794  0.000 -0.607  0.000  0.000
       0.607 -0.000 -0.794  0.000  0.000
      -0.000 -0.982 -0.000 -0.007 -0.191
      -0.000 -0.190 -0.000 -0.031  0.981
     occupation matrix ns (before diag.):
       0.070 -0.000 -0.000  0.001 -0.001
      -0.000  0.043  0.003  0.000  0.000
      -0.000  0.003  0.044  0.000  0.000
       0.001  0.000  0.000  0.044 -0.013
      -0.001  0.000  0.000 -0.013  0.110
     SPIN  2
     eigenvalues:
       0.970  0.978  0.994  0.996  0.996
     eigenvectors (columns):
       0.779  0.626 -0.000  0.009  0.000
       0.000 -0.000  0.589 -0.000  0.808
       0.000 -0.000  0.808  0.000 -0.589
       0.159 -0.183 -0.000 -0.970 -0.000
      -0.606  0.758 -0.000 -0.242 -0.000
     occupation matrix ns (before diag.):
       0.973 -0.000 -0.000 -0.001  0.003
      -0.000  0.995 -0.001  0.000  0.000
      -0.000 -0.001  0.994  0.000  0.000
      -0.001  0.000  0.000  0.995  0.005
       0.003  0.000  0.000  0.005  0.976
     ------------------------ ATOM   11 ------------------------
     Tr[ns( 11)] (up, down, total) =   4.93344  0.31163  5.24507
     Atomic magnetic moment for atom  11 =   4.62181
     SPIN  1
     eigenvalues:
       0.970  0.978  0.994  0.996  0.996
     eigenvectors (columns):
       0.779  0.627 -0.000  0.009  0.000
       0.000 -0.000  0.589 -0.000  0.808
       0.000 -0.000  0.808  0.000 -0.589
       0.159 -0.183 -0.000 -0.970 -0.000
      -0.606  0.758 -0.000 -0.242 -0.000
     occupation matrix ns (before diag.):
       0.973 -0.000 -0.000 -0.001  0.003
      -0.000  0.995 -0.001  0.000  0.000
      -0.000 -0.001  0.994  0.000  0.000
      -0.001  0.000  0.000  0.995  0.005
       0.003  0.000  0.000  0.005  0.976
     SPIN  2
     eigenvalues:
       0.041  0.041  0.047  0.070  0.113
     eigenvectors (columns):
       0.000 -0.013 -0.000  1.000 -0.029
      -0.794 -0.000 -0.607 -0.000  0.000
       0.607  0.000 -0.794 -0.000  0.000
      -0.000  0.982 -0.000  0.007 -0.191
      -0.000  0.190 -0.000  0.031  0.981
     occupation matrix ns (before diag.):
       0.070 -0.000 -0.000  0.001 -0.001
      -0.000  0.043  0.003  0.000  0.000
      -0.000  0.003  0.044  0.000  0.000
       0.001  0.000  0.000  0.044 -0.013
      -0.001  0.000  0.000 -0.013  0.110
     ------------------------ ATOM   12 ------------------------
     Tr[ns( 12)] (up, down, total) =   0.31162  4.93344  5.24506
     Atomic magnetic moment for atom  12 =  -4.62182
     SPIN  1
     eigenvalues:
       0.041  0.041  0.047  0.070  0.113
     eigenvectors (columns):
       0.000  0.013 -0.000 -1.000 -0.029
      -0.794  0.000 -0.607  0.000  0.000
       0.607 -0.000 -0.794  0.000  0.000
      -0.000 -0.982 -0.000 -0.007 -0.191
      -0.000 -0.190 -0.000 -0.031  0.981
     occupation matrix ns (before diag.):
       0.070 -0.000 -0.000  0.001 -0.001
      -0.000  0.043  0.003  0.000  0.000
      -0.000  0.003  0.044  0.000  0.000
       0.001  0.000  0.000  0.044 -0.013
      -0.001  0.000  0.000 -0.013  0.110
     SPIN  2
     eigenvalues:
       0.970  0.978  0.994  0.996  0.996
     eigenvectors (columns):
       0.779  0.626 -0.000  0.009  0.000
       0.000 -0.000  0.589 -0.000  0.808
       0.000 -0.000  0.808  0.000 -0.589
       0.159 -0.183 -0.000 -0.970 -0.000
      -0.606  0.758 -0.000 -0.242 -0.000
     occupation matrix ns (before diag.):
       0.973 -0.000 -0.000 -0.001  0.003
      -0.000  0.995 -0.001  0.000  0.000
      -0.000 -0.001  0.994  0.000  0.000
      -0.001  0.000  0.000  0.995  0.005
       0.003  0.000  0.000  0.005  0.976
     ------------------------ ATOM   13 ------------------------
     Tr[ns( 13)] (up, down, total) =   4.97224  0.90485  5.87709
     Atomic magnetic moment for atom  13 =   4.06739
     SPIN  1
     eigenvalues:
       0.988  0.991  0.997  0.997  0.998
     eigenvectors (columns):
       0.995  0.103 -0.000 -0.000 -0.003
       0.000 -0.000  0.827 -0.562 -0.000
       0.000 -0.000  0.562  0.827 -0.000
      -0.024  0.208 -0.000 -0.000 -0.978
      -0.100  0.973  0.000  0.000  0.210
     occupation matrix ns (before diag.):
       0.988 -0.000 -0.000  0.000  0.000
      -0.000  0.997 -0.000  0.000  0.000
      -0.000 -0.000  0.997  0.000  0.000
       0.000  0.000  0.000  0.998 -0.001
       0.000  0.000  0.000 -0.001  0.991
     SPIN  2
     eigenvalues:
       0.097  0.127  0.181  0.206  0.294
     eigenvectors (columns):
       0.008  0.000 -0.000  1.000 -0.017
      -0.000 -0.621 -0.784 -0.000  0.000
      -0.000  0.784 -0.621 -0.000  0.000
       0.968  0.000 -0.000 -0.003  0.251
      -0.251 -0.000  0.000  0.018  0.968
     occupation matrix ns (before diag.):
       0.206 -0.000 -0.000 -0.001 -0.001
      -0.000  0.160  0.026  0.000  0.000
      -0.000  0.026  0.148  0.000  0.000
      -0.001  0.000  0.000  0.109  0.048
      -0.001  0.000  0.000  0.048  0.282
     ------------------------ ATOM   14 ------------------------
     Tr[ns( 14)] (up, down, total) =   0.90486  4.97224  5.87710
     Atomic magnetic moment for atom  14 =  -4.06738
     SPIN  1
     eigenvalues:
       0.097  0.127  0.181  0.206  0.294
     eigenvectors (columns):
       0.008  0.000 -0.000  1.000 -0.017
      -0.000 -0.621 -0.784 -0.000  0.000
      -0.000  0.784 -0.621 -0.000  0.000
       0.968  0.000 -0.000 -0.003  0.251
      -0.251 -0.000  0.000  0.018  0.968
     occupation matrix ns (before diag.):
       0.206 -0.000 -0.000 -0.001 -0.001
      -0.000  0.160  0.026  0.000  0.000
      -0.000  0.026  0.148  0.000  0.000
      -0.001  0.000  0.000  0.109  0.048
      -0.001  0.000  0.000  0.048  0.282
     SPIN  2
     eigenvalues:
       0.988  0.991  0.997  0.997  0.998
     eigenvectors (columns):
       0.995  0.103 -0.000 -0.000 -0.003
       0.000 -0.000  0.827 -0.562 -0.000
       0.000 -0.000  0.562  0.827 -0.000
      -0.024  0.208 -0.000 -0.000 -0.978
      -0.100  0.973  0.000  0.000  0.210
     occupation matrix ns (before diag.):
       0.988 -0.000 -0.000  0.000  0.000
      -0.000  0.997 -0.000  0.000  0.000
      -0.000 -0.000  0.997  0.000  0.000
       0.000  0.000  0.000  0.998 -0.001
       0.000  0.000  0.000 -0.001  0.991
     ------------------------ ATOM   15 ------------------------
     Tr[ns( 15)] (up, down, total) =   4.97224  0.90485  5.87709
     Atomic magnetic moment for atom  15 =   4.06739
     SPIN  1
     eigenvalues:
       0.988  0.991  0.997  0.997  0.998
     eigenvectors (columns):
       0.995  0.103 -0.000 -0.000 -0.003
       0.000 -0.000  0.827 -0.562 -0.000
       0.000 -0.000  0.562  0.827 -0.000
      -0.024  0.208 -0.000 -0.000 -0.978
      -0.100  0.973  0.000  0.000  0.210
     occupation matrix ns (before diag.):
       0.988 -0.000 -0.000  0.000  0.000
      -0.000  0.997 -0.000  0.000  0.000
      -0.000 -0.000  0.997  0.000  0.000
       0.000  0.000  0.000  0.998 -0.001
       0.000  0.000  0.000 -0.001  0.991
     SPIN  2
     eigenvalues:
       0.097  0.127  0.181  0.206  0.294
     eigenvectors (columns):
       0.008  0.000 -0.000  1.000 -0.017
      -0.000 -0.621 -0.784 -0.000  0.000
      -0.000  0.784 -0.621 -0.000  0.000
       0.968  0.000 -0.000 -0.003  0.251
      -0.251 -0.000  0.000  0.018  0.968
     occupation matrix ns (before diag.):
       0.206 -0.000 -0.000 -0.001 -0.001
      -0.000  0.160  0.026  0.000  0.000
      -0.000  0.026  0.148  0.000  0.000
      -0.001  0.000  0.000  0.109  0.048
      -0.001  0.000  0.000  0.048  0.282
     ------------------------ ATOM   16 ------------------------
     Tr[ns( 16)] (up, down, total) =   0.90486  4.97224  5.87710
     Atomic magnetic moment for atom  16 =  -4.06738
     SPIN  1
     eigenvalues:
       0.097  0.127  0.181  0.206  0.294
     eigenvectors (columns):
       0.008  0.000 -0.000  1.000 -0.017
      -0.000 -0.621 -0.784 -0.000  0.000
      -0.000  0.784 -0.621 -0.000  0.000
       0.968  0.000 -0.000 -0.003  0.251
      -0.251 -0.000  0.000  0.018  0.968
     occupation matrix ns (before diag.):
       0.206 -0.000 -0.000 -0.001 -0.001
      -0.000  0.160  0.026  0.000  0.000
      -0.000  0.026  0.148  0.000  0.000
      -0.001  0.000  0.000  0.109  0.048
      -0.001  0.000  0.000  0.048  0.282
     SPIN  2
     eigenvalues:
       0.988  0.991  0.997  0.997  0.998
     eigenvectors (columns):
       0.995  0.103 -0.000 -0.000 -0.003
       0.000 -0.000  0.827 -0.562 -0.000
       0.000 -0.000  0.562  0.827 -0.000
      -0.024  0.208 -0.000 -0.000 -0.978
      -0.100  0.973  0.000  0.000  0.210
     occupation matrix ns (before diag.):
       0.988 -0.000 -0.000  0.000  0.000
      -0.000  0.997 -0.000  0.000  0.000
      -0.000 -0.000  0.997  0.000  0.000
       0.000  0.000  0.000  0.998 -0.001
       0.000  0.000  0.000 -0.001  0.991

     Number of occupied Hubbard levels =   44.4886

     HUBBARD ENERGY =    0.6460  (Ry)

     total cpu time spent up to now is      368.8 secs

     total energy              =   -3088.78183413 Ry
     estimated scf accuracy    <       0.00001173 Ry

     total magnetization       =     0.00 Bohr mag/cell
     absolute magnetization    =    38.59 Bohr mag/cell

     iteration # 13     ecut=    90.00 Ry     beta= 0.30
     Davidson diagonalization with overlap

---- Real-time Memory Report at c_bands before calling an iterative solver
          1321 MiB given to the printing process from OS
           822 MiB allocation reported by mallinfo(arena+hblkhd)
        675328 MiB available memory on the node where the printing process lives
------------------
     ethr =  3.58E-09,  avg # of iterations =  2.9

     =================== HUBBARD OCCUPATIONS ===================
     ------------------------ ATOM    9 ------------------------
     Tr[ns(  9)] (up, down, total) =   4.93345  0.31172  5.24516
     Atomic magnetic moment for atom   9 =   4.62173
     SPIN  1
     eigenvalues:
       0.970  0.978  0.994  0.996  0.996
     eigenvectors (columns):
       0.778  0.628 -0.000  0.009  0.000
       0.000 -0.000  0.589 -0.000  0.808
       0.000 -0.000  0.808  0.000 -0.589
       0.159 -0.182 -0.000 -0.970 -0.000
      -0.608  0.756 -0.000 -0.242 -0.000
     occupation matrix ns (before diag.):
       0.973 -0.000 -0.000 -0.001  0.003
      -0.000  0.995 -0.001  0.000  0.000
      -0.000 -0.001  0.994  0.000  0.000
      -0.001  0.000  0.000  0.995  0.005
       0.003  0.000  0.000  0.005  0.976
     SPIN  2
     eigenvalues:
       0.041  0.041  0.047  0.070  0.113
     eigenvectors (columns):
       0.000 -0.013 -0.000  1.000 -0.029
      -0.794 -0.000 -0.607 -0.000  0.000
       0.607  0.000 -0.794 -0.000  0.000
      -0.000  0.982 -0.000  0.007 -0.191
      -0.000  0.190 -0.000  0.031  0.981
     occupation matrix ns (before diag.):
       0.070 -0.000 -0.000  0.001 -0.001
      -0.000  0.043  0.003  0.000  0.000
      -0.000  0.003  0.044  0.000  0.000
       0.001  0.000  0.000  0.044 -0.013
      -0.001  0.000  0.000 -0.013  0.110
     ------------------------ ATOM   10 ------------------------
     Tr[ns( 10)] (up, down, total) =   0.31171  4.93345  5.24516
     Atomic magnetic moment for atom  10 =  -4.62174
     SPIN  1
     eigenvalues:
       0.041  0.041  0.047  0.070  0.113
     eigenvectors (columns):
       0.000  0.013 -0.000 -1.000 -0.029
      -0.794  0.000 -0.607  0.000  0.000
       0.607 -0.000 -0.794  0.000  0.000
      -0.000 -0.982 -0.000 -0.007 -0.191
      -0.000 -0.190 -0.000 -0.031  0.981
     occupation matrix ns (before diag.):
       0.070 -0.000 -0.000  0.001 -0.001
      -0.000  0.043  0.003  0.000  0.000
      -0.000  0.003  0.044  0.000  0.000
       0.001  0.000  0.000  0.044 -0.013
      -0.001  0.000  0.000 -0.013  0.110
     SPIN  2
     eigenvalues:
       0.970  0.978  0.994  0.996  0.996
     eigenvectors (columns):
       0.778  0.628 -0.000  0.009  0.000
       0.000 -0.000  0.589 -0.000  0.808
       0.000 -0.000  0.808  0.000 -0.589
       0.159 -0.182 -0.000 -0.970 -0.000
      -0.608  0.756 -0.000 -0.242 -0.000
     occupation matrix ns (before diag.):
       0.973 -0.000 -0.000 -0.001  0.003
      -0.000  0.995 -0.001  0.000  0.000
      -0.000 -0.001  0.994  0.000  0.000
      -0.001  0.000  0.000  0.995  0.005
       0.003  0.000  0.000  0.005  0.976
     ------------------------ ATOM   11 ------------------------
     Tr[ns( 11)] (up, down, total) =   4.93345  0.31172  5.24516
     Atomic magnetic moment for atom  11 =   4.62173
     SPIN  1
     eigenvalues:
       0.970  0.978  0.994  0.996  0.996
     eigenvectors (columns):
       0.778  0.628 -0.000  0.009  0.000
       0.000 -0.000  0.589 -0.000  0.808
       0.000 -0.000  0.808  0.000 -0.589
       0.159 -0.182 -0.000 -0.970 -0.000
      -0.608  0.756 -0.000 -0.242 -0.000
     occupation matrix ns (before diag.):
       0.973 -0.000 -0.000 -0.001  0.003
      -0.000  0.995 -0.001  0.000  0.000
      -0.000 -0.001  0.994  0.000  0.000
      -0.001  0.000  0.000  0.995  0.005
       0.003  0.000  0.000  0.005  0.976
     SPIN  2
     eigenvalues:
       0.041  0.041  0.047  0.070  0.113
     eigenvectors (columns):
       0.000 -0.013 -0.000  1.000 -0.029
      -0.794 -0.000 -0.607 -0.000  0.000
       0.607  0.000 -0.794 -0.000  0.000
      -0.000  0.982 -0.000  0.007 -0.191
      -0.000  0.190 -0.000  0.031  0.981
     occupation matrix ns (before diag.):
       0.070 -0.000 -0.000  0.001 -0.001
      -0.000  0.043  0.003  0.000  0.000
      -0.000  0.003  0.044  0.000  0.000
       0.001  0.000  0.000  0.044 -0.013
      -0.001  0.000  0.000 -0.013  0.110
     ------------------------ ATOM   12 ------------------------
     Tr[ns( 12)] (up, down, total) =   0.31171  4.93345  5.24516
     Atomic magnetic moment for atom  12 =  -4.62174
     SPIN  1
     eigenvalues:
       0.041  0.041  0.047  0.070  0.113
     eigenvectors (columns):
       0.000 -0.013 -0.000  1.000 -0.029
      -0.794 -0.000 -0.607 -0.000  0.000
       0.607  0.000 -0.794 -0.000  0.000
      -0.000  0.982 -0.000  0.007 -0.191
      -0.000  0.190 -0.000  0.031  0.981
     occupation matrix ns (before diag.):
       0.070 -0.000 -0.000  0.001 -0.001
      -0.000  0.043  0.003  0.000  0.000
      -0.000  0.003  0.044  0.000  0.000
       0.001  0.000  0.000  0.044 -0.013
      -0.001  0.000  0.000 -0.013  0.110
     SPIN  2
     eigenvalues:
       0.970  0.978  0.994  0.996  0.996
     eigenvectors (columns):
       0.778  0.628 -0.000  0.009  0.000
       0.000 -0.000  0.589 -0.000  0.808
       0.000 -0.000  0.808  0.000 -0.589
       0.159 -0.182 -0.000 -0.970 -0.000
      -0.608  0.756 -0.000 -0.242 -0.000
     occupation matrix ns (before diag.):
       0.973 -0.000 -0.000 -0.001  0.003
      -0.000  0.995 -0.001  0.000  0.000
      -0.000 -0.001  0.994  0.000  0.000
      -0.001  0.000  0.000  0.995  0.005
       0.003  0.000  0.000  0.005  0.976
     ------------------------ ATOM   13 ------------------------
     Tr[ns( 13)] (up, down, total) =   4.97223  0.90513  5.87736
     Atomic magnetic moment for atom  13 =   4.06710
     SPIN  1
     eigenvalues:
       0.988  0.991  0.997  0.997  0.998
     eigenvectors (columns):
       0.995  0.103 -0.000 -0.000 -0.003
       0.000 -0.000  0.827 -0.562 -0.000
       0.000 -0.000  0.562  0.827 -0.000
      -0.024  0.208 -0.000 -0.000 -0.978
      -0.100  0.973  0.000  0.000  0.210
     occupation matrix ns (before diag.):
       0.988 -0.000 -0.000  0.000  0.000
      -0.000  0.997 -0.000  0.000  0.000
      -0.000 -0.000  0.997  0.000  0.000
       0.000  0.000  0.000  0.998 -0.001
       0.000  0.000  0.000 -0.001  0.991
     SPIN  2
     eigenvalues:
       0.097  0.127  0.181  0.206  0.294
     eigenvectors (columns):
       0.008  0.000 -0.000  1.000 -0.017
      -0.000 -0.621 -0.784 -0.000  0.000
      -0.000  0.784 -0.621 -0.000  0.000
       0.968  0.000 -0.000 -0.003  0.251
      -0.251 -0.000  0.000  0.018  0.968
     occupation matrix ns (before diag.):
       0.206 -0.000 -0.000 -0.001 -0.001
      -0.000  0.160  0.026  0.000  0.000
      -0.000  0.026  0.148  0.000  0.000
      -0.001  0.000  0.000  0.109  0.048
      -0.001  0.000  0.000  0.048  0.282
     ------------------------ ATOM   14 ------------------------
     Tr[ns( 14)] (up, down, total) =   0.90513  4.97223  5.87736
     Atomic magnetic moment for atom  14 =  -4.06710
     SPIN  1
     eigenvalues:
       0.097  0.127  0.181  0.206  0.294
     eigenvectors (columns):
       0.008  0.000 -0.000  1.000 -0.017
      -0.000 -0.621 -0.784 -0.000  0.000
      -0.000  0.784 -0.621 -0.000  0.000
       0.968  0.000 -0.000 -0.003  0.251
      -0.251 -0.000  0.000  0.018  0.968
     occupation matrix ns (before diag.):
       0.206 -0.000 -0.000 -0.001 -0.001
      -0.000  0.160  0.026  0.000  0.000
      -0.000  0.026  0.148  0.000  0.000
      -0.001  0.000  0.000  0.109  0.048
      -0.001  0.000  0.000  0.048  0.282
     SPIN  2
     eigenvalues:
       0.988  0.991  0.997  0.997  0.998
     eigenvectors (columns):
       0.995  0.103 -0.000 -0.000 -0.003
       0.000 -0.000  0.827 -0.562 -0.000
       0.000 -0.000  0.562  0.827 -0.000
      -0.024  0.208 -0.000 -0.000 -0.978
      -0.100  0.973  0.000  0.000  0.210
     occupation matrix ns (before diag.):
       0.988 -0.000 -0.000  0.000  0.000
      -0.000  0.997 -0.000  0.000  0.000
      -0.000 -0.000  0.997  0.000  0.000
       0.000  0.000  0.000  0.998 -0.001
       0.000  0.000  0.000 -0.001  0.991
     ------------------------ ATOM   15 ------------------------
     Tr[ns( 15)] (up, down, total) =   4.97223  0.90513  5.87736
     Atomic magnetic moment for atom  15 =   4.06710
     SPIN  1
     eigenvalues:
       0.988  0.991  0.997  0.997  0.998
     eigenvectors (columns):
       0.995  0.103 -0.000 -0.000 -0.003
       0.000 -0.000  0.827 -0.562 -0.000
       0.000 -0.000  0.562  0.827 -0.000
      -0.024  0.208 -0.000 -0.000 -0.978
      -0.100  0.973  0.000  0.000  0.210
     occupation matrix ns (before diag.):
       0.988 -0.000 -0.000  0.000  0.000
      -0.000  0.997 -0.000  0.000  0.000
      -0.000 -0.000  0.997  0.000  0.000
       0.000  0.000  0.000  0.998 -0.001
       0.000  0.000  0.000 -0.001  0.991
     SPIN  2
     eigenvalues:
       0.097  0.127  0.181  0.206  0.294
     eigenvectors (columns):
       0.008  0.000 -0.000  1.000 -0.017
      -0.000 -0.621 -0.784 -0.000  0.000
      -0.000  0.784 -0.621 -0.000  0.000
       0.968  0.000 -0.000 -0.003  0.251
      -0.251 -0.000  0.000  0.018  0.968
     occupation matrix ns (before diag.):
       0.206 -0.000 -0.000 -0.001 -0.001
      -0.000  0.160  0.026  0.000  0.000
      -0.000  0.026  0.148  0.000  0.000
      -0.001  0.000  0.000  0.109  0.048
      -0.001  0.000  0.000  0.048  0.282
     ------------------------ ATOM   16 ------------------------
     Tr[ns( 16)] (up, down, total) =   0.90513  4.97223  5.87736
     Atomic magnetic moment for atom  16 =  -4.06710
     SPIN  1
     eigenvalues:
       0.097  0.127  0.181  0.206  0.294
     eigenvectors (columns):
       0.008  0.000 -0.000  1.000 -0.017
      -0.000 -0.621 -0.784 -0.000  0.000
      -0.000  0.784 -0.621 -0.000  0.000
       0.968  0.000 -0.000 -0.003  0.251
      -0.251 -0.000  0.000  0.018  0.968
     occupation matrix ns (before diag.):
       0.206 -0.000 -0.000 -0.001 -0.001
      -0.000  0.160  0.026  0.000  0.000
      -0.000  0.026  0.148  0.000  0.000
      -0.001  0.000  0.000  0.109  0.048
      -0.001  0.000  0.000  0.048  0.282
     SPIN  2
     eigenvalues:
       0.988  0.991  0.997  0.997  0.998
     eigenvectors (columns):
       0.995  0.103 -0.000 -0.000 -0.003
       0.000 -0.000  0.827 -0.562 -0.000
       0.000 -0.000  0.562  0.827 -0.000
      -0.024  0.208 -0.000 -0.000 -0.978
      -0.100  0.973  0.000  0.000  0.210
     occupation matrix ns (before diag.):
       0.988 -0.000 -0.000  0.000  0.000
      -0.000  0.997 -0.000  0.000  0.000
      -0.000 -0.000  0.997  0.000  0.000
       0.000  0.000  0.000  0.998 -0.001
       0.000  0.000  0.000 -0.001  0.991

     Number of occupied Hubbard levels =   44.4901

     HUBBARD ENERGY =    0.6460  (Ry)

     total cpu time spent up to now is      399.4 secs

     total energy              =   -3088.78183526 Ry
     estimated scf accuracy    <       0.00000320 Ry

     total magnetization       =     0.00 Bohr mag/cell
     absolute magnetization    =    38.59 Bohr mag/cell

     iteration # 14     ecut=    90.00 Ry     beta= 0.30
     Davidson diagonalization with overlap

---- Real-time Memory Report at c_bands before calling an iterative solver
          1321 MiB given to the printing process from OS
           822 MiB allocation reported by mallinfo(arena+hblkhd)
        675423 MiB available memory on the node where the printing process lives
------------------
     ethr =  9.75E-10,  avg # of iterations =  2.2

     =================== HUBBARD OCCUPATIONS ===================
     ------------------------ ATOM    9 ------------------------
     Tr[ns(  9)] (up, down, total) =   4.93342  0.31163  5.24504
     Atomic magnetic moment for atom   9 =   4.62179
     SPIN  1
     eigenvalues:
       0.970  0.978  0.994  0.996  0.996
     eigenvectors (columns):
       0.778  0.628 -0.000  0.009  0.000
       0.000 -0.000  0.589 -0.000  0.808
       0.000 -0.000  0.808  0.000 -0.589
       0.159 -0.182 -0.000 -0.970 -0.000
      -0.608  0.756 -0.000 -0.242 -0.000
     occupation matrix ns (before diag.):
       0.973 -0.000 -0.000 -0.001  0.003
      -0.000  0.995 -0.001  0.000  0.000
      -0.000 -0.001  0.994  0.000  0.000
      -0.001  0.000  0.000  0.995  0.005
       0.003  0.000  0.000  0.005  0.976
     SPIN  2
     eigenvalues:
       0.041  0.041  0.047  0.070  0.113
     eigenvectors (columns):
       0.000 -0.013 -0.000  1.000 -0.029
      -0.794 -0.000 -0.607 -0.000  0.000
       0.607  0.000 -0.794 -0.000  0.000
      -0.000  0.982 -0.000  0.007 -0.191
      -0.000  0.190 -0.000  0.031  0.981
     occupation matrix ns (before diag.):
       0.070 -0.000 -0.000  0.001 -0.001
      -0.000  0.043  0.003  0.000  0.000
      -0.000  0.003  0.044  0.000  0.000
       0.001  0.000  0.000  0.044 -0.013
      -0.001  0.000  0.000 -0.013  0.110
     ------------------------ ATOM   10 ------------------------
     Tr[ns( 10)] (up, down, total) =   0.31162  4.93342  5.24504
     Atomic magnetic moment for atom  10 =  -4.62180
     SPIN  1
     eigenvalues:
       0.041  0.041  0.047  0.070  0.113
     eigenvectors (columns):
       0.000  0.013 -0.000 -1.000 -0.029
      -0.794  0.000 -0.607  0.000  0.000
       0.607 -0.000 -0.794  0.000  0.000
      -0.000 -0.982 -0.000 -0.007 -0.191
      -0.000 -0.190 -0.000 -0.031  0.981
     occupation matrix ns (before diag.):
       0.070 -0.000 -0.000  0.001 -0.001
      -0.000  0.043  0.003  0.000  0.000
      -0.000  0.003  0.044  0.000  0.000
       0.001  0.000  0.000  0.044 -0.013
      -0.001  0.000  0.000 -0.013  0.110
     SPIN  2
     eigenvalues:
       0.970  0.978  0.994  0.996  0.996
     eigenvectors (columns):
       0.778  0.628 -0.000  0.009  0.000
       0.000 -0.000  0.589 -0.000  0.808
       0.000 -0.000  0.808  0.000 -0.589
       0.159 -0.182 -0.000 -0.970 -0.000
      -0.608  0.756 -0.000 -0.242 -0.000
     occupation matrix ns (before diag.):
       0.973 -0.000 -0.000 -0.001  0.003
      -0.000  0.995 -0.001  0.000  0.000
      -0.000 -0.001  0.994  0.000  0.000
      -0.001  0.000  0.000  0.995  0.005
       0.003  0.000  0.000  0.005  0.976
     ------------------------ ATOM   11 ------------------------
     Tr[ns( 11)] (up, down, total) =   4.93342  0.31163  5.24504
     Atomic magnetic moment for atom  11 =   4.62179
     SPIN  1
     eigenvalues:
       0.970  0.978  0.994  0.996  0.996
     eigenvectors (columns):
       0.778  0.628 -0.000  0.009  0.000
       0.000 -0.000  0.589 -0.000  0.808
       0.000 -0.000  0.808  0.000 -0.589
       0.159 -0.182 -0.000 -0.970 -0.000
      -0.608  0.756 -0.000 -0.242 -0.000
     occupation matrix ns (before diag.):
       0.973 -0.000 -0.000 -0.001  0.003
      -0.000  0.995 -0.001  0.000  0.000
      -0.000 -0.001  0.994  0.000  0.000
      -0.001  0.000  0.000  0.995  0.005
       0.003  0.000  0.000  0.005  0.976
     SPIN  2
     eigenvalues:
       0.041  0.041  0.047  0.070  0.113
     eigenvectors (columns):
       0.000 -0.013 -0.000  1.000 -0.029
      -0.794 -0.000 -0.607 -0.000  0.000
       0.607  0.000 -0.794 -0.000  0.000
      -0.000  0.982 -0.000  0.007 -0.191
      -0.000  0.190 -0.000  0.031  0.981
     occupation matrix ns (before diag.):
       0.070 -0.000 -0.000  0.001 -0.001
      -0.000  0.043  0.003  0.000  0.000
      -0.000  0.003  0.044  0.000  0.000
       0.001  0.000  0.000  0.044 -0.013
      -0.001  0.000  0.000 -0.013  0.110
     ------------------------ ATOM   12 ------------------------
     Tr[ns( 12)] (up, down, total) =   0.31162  4.93342  5.24504
     Atomic magnetic moment for atom  12 =  -4.62180
     SPIN  1
     eigenvalues:
       0.041  0.041  0.047  0.070  0.113
     eigenvectors (columns):
       0.000  0.013 -0.000 -1.000 -0.029
      -0.794  0.000 -0.607  0.000  0.000
       0.607 -0.000 -0.794  0.000  0.000
      -0.000 -0.982 -0.000 -0.007 -0.191
      -0.000 -0.190 -0.000 -0.031  0.981
     occupation matrix ns (before diag.):
       0.070 -0.000 -0.000  0.001 -0.001
      -0.000  0.043  0.003  0.000  0.000
      -0.000  0.003  0.044  0.000  0.000
       0.001  0.000  0.000  0.044 -0.013
      -0.001  0.000  0.000 -0.013  0.110
     SPIN  2
     eigenvalues:
       0.970  0.978  0.994  0.996  0.996
     eigenvectors (columns):
       0.778  0.628 -0.000  0.009  0.000
       0.000 -0.000  0.589 -0.000  0.808
       0.000 -0.000  0.808  0.000 -0.589
       0.159 -0.182 -0.000 -0.970 -0.000
      -0.608  0.756 -0.000 -0.242 -0.000
     occupation matrix ns (before diag.):
       0.973 -0.000 -0.000 -0.001  0.003
      -0.000  0.995 -0.001  0.000  0.000
      -0.000 -0.001  0.994  0.000  0.000
      -0.001  0.000  0.000  0.995  0.005
       0.003  0.000  0.000  0.005  0.976
     ------------------------ ATOM   13 ------------------------
     Tr[ns( 13)] (up, down, total) =   4.97224  0.90503  5.87727
     Atomic magnetic moment for atom  13 =   4.06721
     SPIN  1
     eigenvalues:
       0.988  0.991  0.997  0.997  0.998
     eigenvectors (columns):
       0.995  0.103 -0.000 -0.000 -0.003
       0.000 -0.000  0.827 -0.562 -0.000
       0.000 -0.000  0.562  0.827 -0.000
      -0.024  0.208 -0.000 -0.000 -0.978
      -0.100  0.973  0.000  0.000  0.210
     occupation matrix ns (before diag.):
       0.988 -0.000 -0.000  0.000  0.000
      -0.000  0.997 -0.000  0.000  0.000
      -0.000 -0.000  0.997  0.000  0.000
       0.000  0.000  0.000  0.998 -0.001
       0.000  0.000  0.000 -0.001  0.991
     SPIN  2
     eigenvalues:
       0.097  0.127  0.181  0.206  0.294
     eigenvectors (columns):
       0.008  0.000 -0.000  1.000 -0.017
      -0.000 -0.621 -0.784 -0.000  0.000
      -0.000  0.784 -0.621 -0.000  0.000
       0.968  0.000 -0.000 -0.003  0.251
      -0.251 -0.000  0.000  0.018  0.968
     occupation matrix ns (before diag.):
       0.206 -0.000 -0.000 -0.001 -0.001
      -0.000  0.160  0.026  0.000  0.000
      -0.000  0.026  0.148  0.000  0.000
      -0.001  0.000  0.000  0.109  0.048
      -0.001  0.000  0.000  0.048  0.282
     ------------------------ ATOM   14 ------------------------
     Tr[ns( 14)] (up, down, total) =   0.90503  4.97224  5.87727
     Atomic magnetic moment for atom  14 =  -4.06721
     SPIN  1
     eigenvalues:
       0.097  0.127  0.181  0.206  0.294
     eigenvectors (columns):
       0.008  0.000 -0.000  1.000 -0.017
      -0.000 -0.621 -0.784 -0.000  0.000
      -0.000  0.784 -0.621 -0.000  0.000
       0.968  0.000 -0.000 -0.003  0.251
      -0.251 -0.000  0.000  0.018  0.968
     occupation matrix ns (before diag.):
       0.206 -0.000 -0.000 -0.001 -0.001
      -0.000  0.160  0.026  0.000  0.000
      -0.000  0.026  0.148  0.000  0.000
      -0.001  0.000  0.000  0.109  0.048
      -0.001  0.000  0.000  0.048  0.282
     SPIN  2
     eigenvalues:
       0.988  0.991  0.997  0.997  0.998
     eigenvectors (columns):
       0.995  0.103 -0.000 -0.000 -0.003
       0.000 -0.000  0.827 -0.562 -0.000
       0.000 -0.000  0.562  0.827 -0.000
      -0.024  0.208 -0.000 -0.000 -0.978
      -0.100  0.973  0.000  0.000  0.210
     occupation matrix ns (before diag.):
       0.988 -0.000 -0.000  0.000  0.000
      -0.000  0.997 -0.000  0.000  0.000
      -0.000 -0.000  0.997  0.000  0.000
       0.000  0.000  0.000  0.998 -0.001
       0.000  0.000  0.000 -0.001  0.991
     ------------------------ ATOM   15 ------------------------
     Tr[ns( 15)] (up, down, total) =   4.97224  0.90503  5.87727
     Atomic magnetic moment for atom  15 =   4.06721
     SPIN  1
     eigenvalues:
       0.988  0.991  0.997  0.997  0.998
     eigenvectors (columns):
       0.995  0.103 -0.000 -0.000 -0.003
       0.000 -0.000  0.827 -0.562 -0.000
       0.000 -0.000  0.562  0.827 -0.000
      -0.024  0.208 -0.000 -0.000 -0.978
      -0.100  0.973  0.000  0.000  0.210
     occupation matrix ns (before diag.):
       0.988 -0.000 -0.000  0.000  0.000
      -0.000  0.997 -0.000  0.000  0.000
      -0.000 -0.000  0.997  0.000  0.000
       0.000  0.000  0.000  0.998 -0.001
       0.000  0.000  0.000 -0.001  0.991
     SPIN  2
     eigenvalues:
       0.097  0.127  0.181  0.206  0.294
     eigenvectors (columns):
       0.008  0.000 -0.000  1.000 -0.017
      -0.000 -0.621 -0.784 -0.000  0.000
      -0.000  0.784 -0.621 -0.000  0.000
       0.968  0.000 -0.000 -0.003  0.251
      -0.251 -0.000  0.000  0.018  0.968
     occupation matrix ns (before diag.):
       0.206 -0.000 -0.000 -0.001 -0.001
      -0.000  0.160  0.026  0.000  0.000
      -0.000  0.026  0.148  0.000  0.000
      -0.001  0.000  0.000  0.109  0.048
      -0.001  0.000  0.000  0.048  0.282
     ------------------------ ATOM   16 ------------------------
     Tr[ns( 16)] (up, down, total) =   0.90503  4.97224  5.87727
     Atomic magnetic moment for atom  16 =  -4.06721
     SPIN  1
     eigenvalues:
       0.097  0.127  0.181  0.206  0.294
     eigenvectors (columns):
       0.008  0.000 -0.000  1.000 -0.017
      -0.000 -0.621 -0.784 -0.000  0.000
      -0.000  0.784 -0.621 -0.000  0.000
       0.968  0.000 -0.000 -0.003  0.251
      -0.251 -0.000  0.000  0.018  0.968
     occupation matrix ns (before diag.):
       0.206 -0.000 -0.000 -0.001 -0.001
      -0.000  0.160  0.026  0.000  0.000
      -0.000  0.026  0.148  0.000  0.000
      -0.001  0.000  0.000  0.109  0.048
      -0.001  0.000  0.000  0.048  0.282
     SPIN  2
     eigenvalues:
       0.988  0.991  0.997  0.997  0.998
     eigenvectors (columns):
       0.995  0.103 -0.000 -0.000 -0.003
       0.000 -0.000  0.827 -0.562 -0.000
       0.000 -0.000  0.562  0.827 -0.000
      -0.024  0.208 -0.000 -0.000 -0.978
      -0.100  0.973  0.000  0.000  0.210
     occupation matrix ns (before diag.):
       0.988 -0.000 -0.000  0.000  0.000
      -0.000  0.997 -0.000  0.000  0.000
      -0.000 -0.000  0.997  0.000  0.000
       0.000  0.000  0.000  0.998 -0.001
       0.000  0.000  0.000 -0.001  0.991

     Number of occupied Hubbard levels =   44.4892

     HUBBARD ENERGY =    0.6462  (Ry)

     total cpu time spent up to now is      429.4 secs

     total energy              =   -3088.78183571 Ry
     estimated scf accuracy    <       0.00000121 Ry

     total magnetization       =    -0.00 Bohr mag/cell
     absolute magnetization    =    38.59 Bohr mag/cell

     iteration # 15     ecut=    90.00 Ry     beta= 0.30
     Davidson diagonalization with overlap

---- Real-time Memory Report at c_bands before calling an iterative solver
          1321 MiB given to the printing process from OS
           822 MiB allocation reported by mallinfo(arena+hblkhd)
        675172 MiB available memory on the node where the printing process lives
------------------
     ethr =  3.69E-10,  avg # of iterations =  2.5

     =================== HUBBARD OCCUPATIONS ===================
     ------------------------ ATOM    9 ------------------------
     Tr[ns(  9)] (up, down, total) =   4.93342  0.31165  5.24507
     Atomic magnetic moment for atom   9 =   4.62177
     SPIN  1
     eigenvalues:
       0.970  0.978  0.994  0.996  0.996
     eigenvectors (columns):
       0.777  0.629 -0.000 -0.000  0.009
       0.000 -0.000  0.589  0.808  0.000
       0.000 -0.000  0.808 -0.589 -0.000
       0.159 -0.182 -0.000  0.000 -0.970
      -0.609  0.756 -0.000  0.000 -0.242
     occupation matrix ns (before diag.):
       0.973 -0.000 -0.000 -0.001  0.004
      -0.000  0.995 -0.001  0.000  0.000
      -0.000 -0.001  0.994  0.000  0.000
      -0.001  0.000  0.000  0.995  0.005
       0.004  0.000  0.000  0.005  0.976
     SPIN  2
     eigenvalues:
       0.041  0.041  0.047  0.070  0.113
     eigenvectors (columns):
       0.000  0.013 -0.000 -1.000 -0.029
      -0.794  0.000 -0.607  0.000  0.000
       0.607 -0.000 -0.794  0.000  0.000
      -0.000 -0.982 -0.000 -0.007 -0.191
      -0.000 -0.190 -0.000 -0.031  0.981
     occupation matrix ns (before diag.):
       0.070 -0.000 -0.000  0.001 -0.001
      -0.000  0.043  0.003  0.000  0.000
      -0.000  0.003  0.044  0.000  0.000
       0.001  0.000  0.000  0.044 -0.013
      -0.001  0.000  0.000 -0.013  0.110
     ------------------------ ATOM   10 ------------------------
     Tr[ns( 10)] (up, down, total) =   0.31165  4.93342  5.24507
     Atomic magnetic moment for atom  10 =  -4.62178
     SPIN  1
     eigenvalues:
       0.041  0.041  0.047  0.070  0.113
     eigenvectors (columns):
       0.000  0.013 -0.000 -1.000 -0.029
      -0.794  0.000 -0.607  0.000  0.000
       0.607 -0.000 -0.794  0.000  0.000
      -0.000 -0.982 -0.000 -0.007 -0.191
      -0.000 -0.190 -0.000 -0.031  0.981
     occupation matrix ns (before diag.):
       0.070 -0.000 -0.000  0.001 -0.001
      -0.000  0.043  0.003  0.000  0.000
      -0.000  0.003  0.044  0.000  0.000
       0.001  0.000  0.000  0.044 -0.013
      -0.001  0.000  0.000 -0.013  0.110
     SPIN  2
     eigenvalues:
       0.970  0.978  0.994  0.996  0.996
     eigenvectors (columns):
       0.777  0.629 -0.000 -0.000  0.009
       0.000 -0.000  0.589  0.808  0.000
       0.000 -0.000  0.808 -0.589 -0.000
       0.159 -0.182 -0.000  0.000 -0.970
      -0.609  0.756 -0.000  0.000 -0.242
     occupation matrix ns (before diag.):
       0.973 -0.000 -0.000 -0.001  0.004
      -0.000  0.995 -0.001  0.000  0.000
      -0.000 -0.001  0.994  0.000  0.000
      -0.001  0.000  0.000  0.995  0.005
       0.004  0.000  0.000  0.005  0.976
     ------------------------ ATOM   11 ------------------------
     Tr[ns( 11)] (up, down, total) =   4.93342  0.31165  5.24507
     Atomic magnetic moment for atom  11 =   4.62177
     SPIN  1
     eigenvalues:
       0.970  0.978  0.994  0.996  0.996
     eigenvectors (columns):
       0.777  0.629 -0.000 -0.000  0.009
       0.000 -0.000  0.589  0.808  0.000
       0.000 -0.000  0.808 -0.589 -0.000
       0.159 -0.182 -0.000  0.000 -0.970
      -0.609  0.756 -0.000  0.000 -0.242
     occupation matrix ns (before diag.):
       0.973 -0.000 -0.000 -0.001  0.004
      -0.000  0.995 -0.001  0.000  0.000
      -0.000 -0.001  0.994  0.000  0.000
      -0.001  0.000  0.000  0.995  0.005
       0.004  0.000  0.000  0.005  0.976
     SPIN  2
     eigenvalues:
       0.041  0.041  0.047  0.070  0.113
     eigenvectors (columns):
       0.000  0.013 -0.000 -1.000 -0.029
      -0.794  0.000 -0.607  0.000  0.000
       0.607 -0.000 -0.794  0.000  0.000
      -0.000 -0.982 -0.000 -0.007 -0.191
      -0.000 -0.190 -0.000 -0.031  0.981
     occupation matrix ns (before diag.):
       0.070 -0.000 -0.000  0.001 -0.001
      -0.000  0.043  0.003  0.000  0.000
      -0.000  0.003  0.044  0.000  0.000
       0.001  0.000  0.000  0.044 -0.013
      -0.001  0.000  0.000 -0.013  0.110
     ------------------------ ATOM   12 ------------------------
     Tr[ns( 12)] (up, down, total) =   0.31165  4.93342  5.24507
     Atomic magnetic moment for atom  12 =  -4.62178
     SPIN  1
     eigenvalues:
       0.041  0.041  0.047  0.070  0.113
     eigenvectors (columns):
       0.000 -0.013 -0.000  1.000 -0.029
      -0.794 -0.000 -0.607 -0.000  0.000
       0.607  0.000 -0.794 -0.000  0.000
      -0.000  0.982 -0.000  0.007 -0.191
      -0.000  0.190 -0.000  0.031  0.981
     occupation matrix ns (before diag.):
       0.070 -0.000 -0.000  0.001 -0.001
      -0.000  0.043  0.003  0.000  0.000
      -0.000  0.003  0.044  0.000  0.000
       0.001  0.000  0.000  0.044 -0.013
      -0.001  0.000  0.000 -0.013  0.110
     SPIN  2
     eigenvalues:
       0.970  0.978  0.994  0.996  0.996
     eigenvectors (columns):
       0.777  0.629 -0.000 -0.000  0.009
       0.000 -0.000  0.589  0.808  0.000
       0.000 -0.000  0.808 -0.589 -0.000
       0.159 -0.182 -0.000  0.000 -0.970
      -0.609  0.756 -0.000  0.000 -0.242
     occupation matrix ns (before diag.):
       0.973 -0.000 -0.000 -0.001  0.004
      -0.000  0.995 -0.001  0.000  0.000
      -0.000 -0.001  0.994  0.000  0.000
      -0.001  0.000  0.000  0.995  0.005
       0.004  0.000  0.000  0.005  0.976
     ------------------------ ATOM   13 ------------------------
     Tr[ns( 13)] (up, down, total) =   4.97224  0.90516  5.87740
     Atomic magnetic moment for atom  13 =   4.06707
     SPIN  1
     eigenvalues:
       0.988  0.991  0.997  0.997  0.998
     eigenvectors (columns):
       0.995  0.103 -0.000 -0.000 -0.003
       0.000 -0.000  0.827 -0.562 -0.000
       0.000 -0.000  0.562  0.827 -0.000
      -0.024  0.208 -0.000 -0.000 -0.978
      -0.100  0.973  0.000  0.000  0.210
     occupation matrix ns (before diag.):
       0.988 -0.000 -0.000  0.000  0.000
      -0.000  0.997 -0.000  0.000  0.000
      -0.000 -0.000  0.997  0.000  0.000
       0.000  0.000  0.000  0.998 -0.001
       0.000  0.000  0.000 -0.001  0.991
     SPIN  2
     eigenvalues:
       0.097  0.127  0.181  0.206  0.294
     eigenvectors (columns):
       0.008  0.000 -0.000  1.000 -0.017
      -0.000 -0.621 -0.784 -0.000  0.000
      -0.000  0.784 -0.621 -0.000  0.000
       0.968  0.000 -0.000 -0.003  0.251
      -0.251 -0.000  0.000  0.018  0.968
     occupation matrix ns (before diag.):
       0.206 -0.000 -0.000 -0.001 -0.001
      -0.000  0.160  0.026  0.000  0.000
      -0.000  0.026  0.148  0.000  0.000
      -0.001  0.000  0.000  0.109  0.048
      -0.001  0.000  0.000  0.048  0.282
     ------------------------ ATOM   14 ------------------------
     Tr[ns( 14)] (up, down, total) =   0.90517  4.97224  5.87740
     Atomic magnetic moment for atom  14 =  -4.06707
     SPIN  1
     eigenvalues:
       0.097  0.127  0.181  0.206  0.294
     eigenvectors (columns):
       0.008  0.000 -0.000  1.000 -0.017
      -0.000 -0.621 -0.784 -0.000  0.000
      -0.000  0.784 -0.621 -0.000  0.000
       0.968  0.000 -0.000 -0.003  0.251
      -0.251 -0.000  0.000  0.018  0.968
     occupation matrix ns (before diag.):
       0.206 -0.000 -0.000 -0.001 -0.001
      -0.000  0.160  0.026  0.000  0.000
      -0.000  0.026  0.148  0.000  0.000
      -0.001  0.000  0.000  0.109  0.048
      -0.001  0.000  0.000  0.048  0.282
     SPIN  2
     eigenvalues:
       0.988  0.991  0.997  0.997  0.998
     eigenvectors (columns):
       0.995  0.103 -0.000 -0.000 -0.003
       0.000 -0.000  0.827 -0.562 -0.000
       0.000 -0.000  0.562  0.827 -0.000
      -0.024  0.208 -0.000 -0.000 -0.978
      -0.100  0.973  0.000  0.000  0.210
     occupation matrix ns (before diag.):
       0.988 -0.000 -0.000  0.000  0.000
      -0.000  0.997 -0.000  0.000  0.000
      -0.000 -0.000  0.997  0.000  0.000
       0.000  0.000  0.000  0.998 -0.001
       0.000  0.000  0.000 -0.001  0.991
     ------------------------ ATOM   15 ------------------------
     Tr[ns( 15)] (up, down, total) =   4.97224  0.90516  5.87740
     Atomic magnetic moment for atom  15 =   4.06707
     SPIN  1
     eigenvalues:
       0.988  0.991  0.997  0.997  0.998
     eigenvectors (columns):
       0.995  0.103 -0.000 -0.000 -0.003
       0.000 -0.000  0.827 -0.562 -0.000
       0.000 -0.000  0.562  0.827 -0.000
      -0.024  0.208 -0.000 -0.000 -0.978
      -0.100  0.973  0.000  0.000  0.210
     occupation matrix ns (before diag.):
       0.988 -0.000 -0.000  0.000  0.000
      -0.000  0.997 -0.000  0.000  0.000
      -0.000 -0.000  0.997  0.000  0.000
       0.000  0.000  0.000  0.998 -0.001
       0.000  0.000  0.000 -0.001  0.991
     SPIN  2
     eigenvalues:
       0.097  0.127  0.181  0.206  0.294
     eigenvectors (columns):
       0.008  0.000 -0.000  1.000 -0.017
      -0.000 -0.621 -0.784 -0.000  0.000
      -0.000  0.784 -0.621 -0.000  0.000
       0.968  0.000 -0.000 -0.003  0.251
      -0.251 -0.000  0.000  0.018  0.968
     occupation matrix ns (before diag.):
       0.206 -0.000 -0.000 -0.001 -0.001
      -0.000  0.160  0.026  0.000  0.000
      -0.000  0.026  0.148  0.000  0.000
      -0.001  0.000  0.000  0.109  0.048
      -0.001  0.000  0.000  0.048  0.282
     ------------------------ ATOM   16 ------------------------
     Tr[ns( 16)] (up, down, total) =   0.90517  4.97224  5.87740
     Atomic magnetic moment for atom  16 =  -4.06707
     SPIN  1
     eigenvalues:
       0.097  0.127  0.181  0.206  0.294
     eigenvectors (columns):
       0.008  0.000 -0.000  1.000 -0.017
      -0.000 -0.621 -0.784 -0.000  0.000
      -0.000  0.784 -0.621 -0.000  0.000
       0.968  0.000 -0.000 -0.003  0.251
      -0.251 -0.000  0.000  0.018  0.968
     occupation matrix ns (before diag.):
       0.206 -0.000 -0.000 -0.001 -0.001
      -0.000  0.160  0.026  0.000  0.000
      -0.000  0.026  0.148  0.000  0.000
      -0.001  0.000  0.000  0.109  0.048
      -0.001  0.000  0.000  0.048  0.282
     SPIN  2
     eigenvalues:
       0.988  0.991  0.997  0.997  0.998
     eigenvectors (columns):
       0.995  0.103 -0.000 -0.000 -0.003
       0.000 -0.000  0.827 -0.562 -0.000
       0.000 -0.000  0.562  0.827 -0.000
      -0.024  0.208 -0.000 -0.000 -0.978
      -0.100  0.973  0.000  0.000  0.210
     occupation matrix ns (before diag.):
       0.988 -0.000 -0.000  0.000  0.000
      -0.000  0.997 -0.000  0.000  0.000
      -0.000 -0.000  0.997  0.000  0.000
       0.000  0.000  0.000  0.998 -0.001
       0.000  0.000  0.000 -0.001  0.991

     Number of occupied Hubbard levels =   44.4899

     HUBBARD ENERGY =    0.6462  (Ry)

     Magnetic moment per site  (integrated on atomic sphere of radius R)
     atom   1 (R=0.146)  charge=  6.8284  magn=  0.0000
     atom   2 (R=0.146)  charge=  6.8284  magn=  0.0000
     atom   3 (R=0.146)  charge=  6.8284  magn=  0.0000
     atom   4 (R=0.146)  charge=  6.8284  magn=  0.0000
     atom   5 (R=0.117)  charge=  7.2884  magn= -0.0000
     atom   6 (R=0.117)  charge=  7.2884  magn= -0.0000
     atom   7 (R=0.117)  charge=  7.2884  magn= -0.0000
     atom   8 (R=0.117)  charge=  7.2884  magn= -0.0000
     atom   9 (R=0.107)  charge= 12.2821  magn=  4.0558
     atom  10 (R=0.107)  charge= 12.2821  magn= -4.0558
     atom  11 (R=0.107)  charge= 12.2821  magn=  4.0558
     atom  12 (R=0.107)  charge= 12.2821  magn= -4.0558
     atom  13 (R=0.099)  charge= 12.8193  magn=  3.7666
     atom  14 (R=0.099)  charge= 12.8193  magn= -3.7666
     atom  15 (R=0.099)  charge= 12.8193  magn=  3.7666
     atom  16 (R=0.099)  charge= 12.8193  magn= -3.7666
     atom  17 (R=0.099)  charge=  5.2965  magn=  0.1834
     atom  18 (R=0.099)  charge=  5.2965  magn= -0.1834
     atom  19 (R=0.099)  charge=  5.2965  magn=  0.1834
     atom  20 (R=0.099)  charge=  5.2965  magn= -0.1834
     atom  21 (R=0.099)  charge=  5.2964  magn=  0.1272
     atom  22 (R=0.099)  charge=  5.2964  magn= -0.1272
     atom  23 (R=0.099)  charge=  5.2964  magn= -0.1272
     atom  24 (R=0.099)  charge=  5.2964  magn=  0.1272
     atom  25 (R=0.099)  charge=  5.2919  magn=  0.0866
     atom  26 (R=0.099)  charge=  5.2919  magn= -0.0866
     atom  27 (R=0.099)  charge=  5.2919  magn= -0.0866
     atom  28 (R=0.099)  charge=  5.2919  magn=  0.0866
     atom  29 (R=0.099)  charge=  5.2964  magn=  0.1272
     atom  30 (R=0.099)  charge=  5.2964  magn= -0.1272
     atom  31 (R=0.099)  charge=  5.2964  magn= -0.1272
     atom  32 (R=0.099)  charge=  5.2964  magn=  0.1272
     atom  33 (R=0.099)  charge=  5.2919  magn= -0.0866
     atom  34 (R=0.099)  charge=  5.2919  magn=  0.0866
     atom  35 (R=0.099)  charge=  5.2919  magn=  0.0866
     atom  36 (R=0.099)  charge=  5.2919  magn= -0.0866

     total cpu time spent up to now is      461.4 secs

     End of self-consistent calculation

 ------ SPIN UP ------------


          k = 0.0000 0.0000 0.0000 ( 48115 PWs)   bands (ev):

   -80.4912 -80.4912 -75.9355 -75.9354 -69.5773 -69.5773 -64.9967 -64.9967
   -46.7214 -46.7214 -46.6085 -46.6085 -46.5155 -46.5155 -41.9664 -41.9664
   -41.8059 -41.8059 -41.7856 -41.7856 -38.6141 -38.6141 -38.4553 -38.4553
   -38.4512 -38.4512 -33.7742 -33.7741 -33.6069 -33.6069 -33.5720 -33.5719
   -30.3607 -30.3530 -30.3530 -30.3455 -15.9605 -15.8853 -15.8852 -15.8270
   -10.8083 -10.7992 -10.7777 -10.7718 -10.7692 -10.6251 -10.6245 -10.4999
   -10.4382 -10.4316 -10.4275 -10.4211  -7.0751  -6.9595  -6.9050  -6.5031
    -6.4546  -6.4544  -6.4150  -6.3820  -6.3590  -6.2273  -6.1792  -6.1440
    -6.1387  -6.0191  -5.9609  -5.8476  -5.8325  -5.8308  -5.8095  -5.7938
    -1.5658  -1.5631  -1.1228  -1.1123  -1.1026  -1.1019  -0.9753  -0.9736
    -0.9698  -0.9675  -0.8133  -0.8116   3.4073   3.4430   3.5544   3.5601
     3.5653   3.5654   3.5853   3.6130   3.6887   3.6906   4.7467   5.1463
     5.3605   5.3713   5.6295   5.7387   5.7816   5.9261   6.0340   6.1326
     6.1350   6.2673   6.3263   6.4704   6.6321   6.6429   6.6706   6.7804
     6.8932   6.9795   6.9825   6.9876   7.0532   7.1406   7.2062   7.2909
     7.3239   7.3811   7.4790   7.5060   7.5639   7.6784   7.8327   7.9030
     7.9148   7.9204   8.0346   8.0691   8.1415   8.1429   8.2769   8.3046
     8.4090   8.4691   8.4807   8.5215   8.6036   8.6157   8.6457   8.7409
     8.8145   8.9268   8.9496   9.0360   9.0489   9.0656   9.1226   9.2199
     9.2257   9.2814   9.3900   9.3966   9.4464   9.5164   9.5468   9.5708
    10.0173  10.2924  10.5453  10.7351  12.2894  12.5024  12.5089  12.6168
    12.6877  12.8553  12.8760  12.8979  13.2482  13.5485  13.6797  13.6883
    14.5307  14.6189  15.0192  15.0846  15.0892  15.2156  15.3238  15.3423
    15.4807  15.4952  15.5274  15.5579  15.6743  15.7089  15.7913  15.9251
    15.9437  15.9440  16.0179  16.0355  16.0453

     occupation numbers 
     1.0000   1.0000   1.0000   1.0000   1.0000   1.0000   1.0000   1.0000
     1.0000   1.0000   1.0000   1.0000   1.0000   1.0000   1.0000   1.0000
     1.0000   1.0000   1.0000   1.0000   1.0000   1.0000   1.0000   1.0000
     1.0000   1.0000   1.0000   1.0000   1.0000   1.0000   1.0000   1.0000
     1.0000   1.0000   1.0000   1.0000   1.0000   1.0000   1.0000   1.0000
     1.0000   1.0000   1.0000   1.0000   1.0000   1.0000   1.0000   1.0000
     1.0000   1.0000   1.0000   1.0000   1.0000   1.0000   1.0000   1.0000
     1.0000   1.0000   1.0000   1.0000   1.0000   1.0000   1.0000   1.0000
     1.0000   1.0000   1.0000   1.0000   1.0000   1.0000   1.0000   1.0000
     1.0000   1.0000   1.0000   1.0000   1.0000   1.0000   1.0000   1.0000
     1.0000   1.0000   1.0000   1.0000   1.0000   1.0000   1.0000   1.0000
     1.0000   1.0000   1.0000   1.0000   1.0000   1.0000   1.0000   1.0000
     1.0000   1.0000   1.0000   1.0000   1.0000   1.0000   1.0000   1.0000
     1.0000   1.0000   1.0000   1.0000   1.0000   1.0000   1.0000   1.0000
     1.0000   1.0000   1.0000   1.0000   1.0000   1.0000   1.0000   1.0000
     1.0000   1.0000   1.0000   1.0000   1.0000   1.0000   1.0000   1.0000
     1.0000   1.0000   1.0000   1.0000   1.0000   1.0000   1.0000   1.0000
     1.0000   1.0000   1.0000   1.0000   1.0000   1.0000   1.0000   1.0000
     1.0000   1.0000   1.0000   1.0000   1.0000   1.0000   1.0000   1.0000
     1.0000   1.0000   1.0000   1.0000   1.0000   1.0000   1.0000   1.0000
     1.0000   1.0000   1.0000   1.0000   0.0000   0.0000   0.0000   0.0000
     0.0000   0.0000   0.0000   0.0000   0.0000   0.0000   0.0000   0.0000
     0.0000   0.0000   0.0000   0.0000   0.0000   0.0000   0.0000   0.0000
     0.0000   0.0000   0.0000   0.0000   0.0000   0.0000   0.0000   0.0000
     0.0000   0.0000   0.0000   0.0000   0.0000

          k = 0.0000 0.0000 0.3473 ( 47960 PWs)   bands (ev):

   -80.4912 -80.4912 -75.9355 -75.9355 -69.5773 -69.5773 -64.9968 -64.9967
   -46.7215 -46.7214 -46.6085 -46.6085 -46.5155 -46.5155 -41.9664 -41.9664
   -41.8059 -41.8058 -41.7856 -41.7856 -38.6141 -38.6141 -38.4553 -38.4553
   -38.4512 -38.4512 -33.7742 -33.7741 -33.6069 -33.6069 -33.5720 -33.5719
   -30.3607 -30.3530 -30.3530 -30.3455 -15.9611 -15.8857 -15.8856 -15.8274
   -10.8076 -10.7986 -10.7775 -10.7690 -10.7648 -10.6209 -10.6202 -10.4972
   -10.4382 -10.4316 -10.4276 -10.4211  -7.0925  -6.9731  -6.9518  -6.5428
    -6.5100  -6.4498  -6.4167  -6.3995  -6.2864  -6.1918  -6.1835  -6.1572
    -6.1210  -6.0182  -5.9353  -5.8572  -5.8477  -5.8127  -5.7805  -5.7681
    -1.5651  -1.5625  -1.1370  -1.1340  -1.1212  -1.1093  -0.9757  -0.9741
    -0.9681  -0.9657  -0.8139  -0.8122   3.3490   3.4479   3.5589   3.5602
     3.5675   3.5704   3.6103   3.6161   3.6694   3.6962   4.6224   5.0635
     5.3254   5.3946   5.8518   5.8699   5.9355   5.9973   6.0399   6.0833
     6.1884   6.2481   6.4053   6.5041   6.5653   6.6205   6.6814   6.8460
     6.8966   6.9729   7.0205   7.0764   7.1279   7.1466   7.3115   7.3254
     7.3442   7.3960   7.5017   7.5395   7.5771   7.6292   7.6918   7.7580
     7.8789   7.8976   7.9125   8.0121   8.0218   8.2400   8.2546   8.2937
     8.3251   8.3983   8.4042   8.4110   8.5504   8.7054   8.7353   8.8051
     8.8201   8.8382   8.9928   9.0474   9.0818   9.1367   9.2025   9.2691
     9.3165   9.3361   9.3526   9.4280   9.4463   9.4890   9.5230   9.5544
     9.5786  10.0898  10.5361  10.7188  12.4215  12.4812  12.4988  12.6343
    12.8096  12.8679  12.8775  12.9296  13.3218  13.5322  13.8755  13.9148
    14.5438  14.9531  15.0840  15.1458  15.2324  15.3113  15.3281  15.4162
    15.4284  15.4784  15.5824  15.6353  15.6558  15.7286  15.8352  15.8423
    16.0106  16.0568  16.0825  16.1035  16.1239

     occupation numbers 
     1.0000   1.0000   1.0000   1.0000   1.0000   1.0000   1.0000   1.0000
     1.0000   1.0000   1.0000   1.0000   1.0000   1.0000   1.0000   1.0000
     1.0000   1.0000   1.0000   1.0000   1.0000   1.0000   1.0000   1.0000
     1.0000   1.0000   1.0000   1.0000   1.0000   1.0000   1.0000   1.0000
     1.0000   1.0000   1.0000   1.0000   1.0000   1.0000   1.0000   1.0000
     1.0000   1.0000   1.0000   1.0000   1.0000   1.0000   1.0000   1.0000
     1.0000   1.0000   1.0000   1.0000   1.0000   1.0000   1.0000   1.0000
     1.0000   1.0000   1.0000   1.0000   1.0000   1.0000   1.0000   1.0000
     1.0000   1.0000   1.0000   1.0000   1.0000   1.0000   1.0000   1.0000
     1.0000   1.0000   1.0000   1.0000   1.0000   1.0000   1.0000   1.0000
     1.0000   1.0000   1.0000   1.0000   1.0000   1.0000   1.0000   1.0000
     1.0000   1.0000   1.0000   1.0000   1.0000   1.0000   1.0000   1.0000
     1.0000   1.0000   1.0000   1.0000   1.0000   1.0000   1.0000   1.0000
     1.0000   1.0000   1.0000   1.0000   1.0000   1.0000   1.0000   1.0000
     1.0000   1.0000   1.0000   1.0000   1.0000   1.0000   1.0000   1.0000
     1.0000   1.0000   1.0000   1.0000   1.0000   1.0000   1.0000   1.0000
     1.0000   1.0000   1.0000   1.0000   1.0000   1.0000   1.0000   1.0000
     1.0000   1.0000   1.0000   1.0000   1.0000   1.0000   1.0000   1.0000
     1.0000   1.0000   1.0000   1.0000   1.0000   1.0000   1.0000   1.0000
     1.0000   1.0000   1.0000   1.0000   1.0000   1.0000   1.0000   1.0000
     1.0000   1.0000   1.0000   1.0000   0.0000   0.0000   0.0000   0.0000
     0.0000   0.0000   0.0000   0.0000   0.0000   0.0000   0.0000   0.0000
     0.0000   0.0000   0.0000   0.0000   0.0000   0.0000   0.0000   0.0000
     0.0000   0.0000   0.0000   0.0000   0.0000   0.0000   0.0000   0.0000
     0.0000   0.0000   0.0000   0.0000   0.0000

          k =-0.2357 0.2357 0.0000 ( 47982 PWs)   bands (ev):

   -80.4912 -80.4912 -75.9355 -75.9355 -69.5773 -69.5773 -64.9967 -64.9967
   -46.7214 -46.7214 -46.6085 -46.6085 -46.5155 -46.5155 -41.9664 -41.9664
   -41.8058 -41.8058 -41.7856 -41.7856 -38.6141 -38.6141 -38.4553 -38.4553
   -38.4512 -38.4512 -33.7742 -33.7741 -33.6069 -33.6069 -33.5720 -33.5719
   -30.3588 -30.3549 -30.3512 -30.3474 -15.9419 -15.9042 -15.8708 -15.8417
   -10.7918 -10.7772 -10.7388 -10.7212 -10.6958 -10.6632 -10.5944 -10.5445
   -10.5274 -10.5207 -10.4289 -10.4237  -6.9964  -6.9469  -6.8297  -6.6143
    -6.4568  -6.4500  -6.3808  -6.3373  -6.3083  -6.2511  -6.2217  -6.0956
    -6.0746  -6.0691  -6.0125  -5.9226  -5.8525  -5.8374  -5.8172  -5.7988
    -1.4191  -1.3994  -1.1310  -1.1203  -1.1109  -1.1103  -1.0966  -1.0258
    -0.9784  -0.9755  -0.9341  -0.8535   3.4355   3.4406   3.5160   3.5334
     3.5980   3.6007   3.6406   3.6436   3.6791   3.6826   4.9617   5.2088
     5.3717   5.3972   5.7412   5.8027   5.8227   5.9872   6.0668   6.0843
     6.1320   6.1900   6.3718   6.4478   6.5088   6.6002   6.6543   6.8167
     6.8345   6.8438   6.9596   6.9760   7.0364   7.0595   7.1934   7.2312
     7.3535   7.3726   7.4836   7.5900   7.6093   7.6548   7.7022   7.8461
     7.8670   7.9156   8.0385   8.0856   8.2118   8.2638   8.3261   8.4072
     8.4309   8.4446   8.5130   8.5307   8.5594   8.5621   8.6344   8.7355
     8.7711   8.8381   8.8804   8.8897   8.9218   8.9610   9.0196   9.0800
     9.1799   9.1868   9.2355   9.2651   9.4853   9.5328   9.8434   9.9362
    10.1642  10.2956  10.5339  10.6699  12.4080  12.5031  12.5110  12.6156
    12.6159  12.7584  12.8943  12.9001  13.3651  13.5177  14.0539  14.1986
    14.6773  14.8735  14.9545  15.0002  15.1525  15.1650  15.2828  15.3138
    15.3531  15.3941  15.5282  15.5505  15.5944  15.7193  15.8077  15.9101
    15.9808  16.1110  16.1487  16.2917  16.2986

     occupation numbers 
     1.0000   1.0000   1.0000   1.0000   1.0000   1.0000   1.0000   1.0000
     1.0000   1.0000   1.0000   1.0000   1.0000   1.0000   1.0000   1.0000
     1.0000   1.0000   1.0000   1.0000   1.0000   1.0000   1.0000   1.0000
     1.0000   1.0000   1.0000   1.0000   1.0000   1.0000   1.0000   1.0000
     1.0000   1.0000   1.0000   1.0000   1.0000   1.0000   1.0000   1.0000
     1.0000   1.0000   1.0000   1.0000   1.0000   1.0000   1.0000   1.0000
     1.0000   1.0000   1.0000   1.0000   1.0000   1.0000   1.0000   1.0000
     1.0000   1.0000   1.0000   1.0000   1.0000   1.0000   1.0000   1.0000
     1.0000   1.0000   1.0000   1.0000   1.0000   1.0000   1.0000   1.0000
     1.0000   1.0000   1.0000   1.0000   1.0000   1.0000   1.0000   1.0000
     1.0000   1.0000   1.0000   1.0000   1.0000   1.0000   1.0000   1.0000
     1.0000   1.0000   1.0000   1.0000   1.0000   1.0000   1.0000   1.0000
     1.0000   1.0000   1.0000   1.0000   1.0000   1.0000   1.0000   1.0000
     1.0000   1.0000   1.0000   1.0000   1.0000   1.0000   1.0000   1.0000
     1.0000   1.0000   1.0000   1.0000   1.0000   1.0000   1.0000   1.0000
     1.0000   1.0000   1.0000   1.0000   1.0000   1.0000   1.0000   1.0000
     1.0000   1.0000   1.0000   1.0000   1.0000   1.0000   1.0000   1.0000
     1.0000   1.0000   1.0000   1.0000   1.0000   1.0000   1.0000   1.0000
     1.0000   1.0000   1.0000   1.0000   1.0000   1.0000   1.0000   1.0000
     1.0000   1.0000   1.0000   1.0000   1.0000   1.0000   1.0000   1.0000
     1.0000   1.0000   1.0000   1.0000   0.0000   0.0000   0.0000   0.0000
     0.0000   0.0000   0.0000   0.0000   0.0000   0.0000   0.0000   0.0000
     0.0000   0.0000   0.0000   0.0000   0.0000   0.0000   0.0000   0.0000
     0.0000   0.0000   0.0000   0.0000   0.0000   0.0000   0.0000   0.0000
     0.0000   0.0000   0.0000   0.0000   0.0000

          k =-0.2357 0.2357 0.3473 ( 48005 PWs)   bands (ev):

   -80.4912 -80.4912 -75.9355 -75.9355 -69.5773 -69.5773 -64.9968 -64.9968
   -46.7215 -46.7215 -46.6085 -46.6085 -46.5155 -46.5155 -41.9664 -41.9664
   -41.8058 -41.8058 -41.7856 -41.7856 -38.6141 -38.6141 -38.4553 -38.4553
   -38.4512 -38.4512 -33.7741 -33.7741 -33.6069 -33.6069 -33.5720 -33.5719
   -30.3588 -30.3549 -30.3511 -30.3474 -15.9424 -15.9047 -15.8712 -15.8421
   -10.7914 -10.7769 -10.7334 -10.7203 -10.6955 -10.6583 -10.5906 -10.5436
   -10.5257 -10.5202 -10.4289 -10.4237  -6.9873  -6.9458  -6.8819  -6.6261
    -6.5491  -6.5318  -6.3461  -6.3332  -6.2690  -6.1959  -6.1704  -6.1198
    -6.0768  -6.0562  -6.0198  -5.9153  -5.8387  -5.8302  -5.8039  -5.7893
    -1.4182  -1.3954  -1.1354  -1.1298  -1.1259  -1.1178  -1.1030  -1.0220
    -0.9756  -0.9719  -0.9346  -0.8540   3.3925   3.4339   3.5156   3.5207
     3.6036   3.6109   3.6322   3.6472   3.6707   3.6909   4.8495   5.1263
     5.3659   5.3843   5.8093   5.8680   5.9216   5.9836   6.0631   6.1394
     6.2255   6.2523   6.3971   6.5185   6.5846   6.6723   6.7435   6.7813
     6.8462   6.8982   6.9558   6.9872   7.0506   7.0686   7.1638   7.2879
     7.3167   7.3470   7.4715   7.5332   7.5412   7.6163   7.7147   7.8135
     7.8262   7.8646   7.8927   7.9712   8.0442   8.2210   8.2531   8.3353
     8.3692   8.4457   8.5270   8.5895   8.6225   8.6778   8.7157   8.7596
     8.7869   8.8113   8.8672   8.9973   9.0399   9.0559   9.1593   9.2043
     9.2112   9.2459   9.2696   9.3673   9.4825   9.5034   9.7204   9.7836
     9.9769  10.0308  10.5358  10.6590  12.4761  12.4922  12.5084  12.5806
    12.7363  12.8160  12.8947  12.9074  13.3811  13.5076  14.2351  14.3148
    14.6430  14.8298  14.9199  15.1415  15.2363  15.2910  15.3374  15.3885
    15.4242  15.4971  15.5124  15.6921  15.7729  15.8373  15.8536  15.9369
    15.9513  16.0884  16.1429  16.2149  16.2542

     occupation numbers 
     1.0000   1.0000   1.0000   1.0000   1.0000   1.0000   1.0000   1.0000
     1.0000   1.0000   1.0000   1.0000   1.0000   1.0000   1.0000   1.0000
     1.0000   1.0000   1.0000   1.0000   1.0000   1.0000   1.0000   1.0000
     1.0000   1.0000   1.0000   1.0000   1.0000   1.0000   1.0000   1.0000
     1.0000   1.0000   1.0000   1.0000   1.0000   1.0000   1.0000   1.0000
     1.0000   1.0000   1.0000   1.0000   1.0000   1.0000   1.0000   1.0000
     1.0000   1.0000   1.0000   1.0000   1.0000   1.0000   1.0000   1.0000
     1.0000   1.0000   1.0000   1.0000   1.0000   1.0000   1.0000   1.0000
     1.0000   1.0000   1.0000   1.0000   1.0000   1.0000   1.0000   1.0000
     1.0000   1.0000   1.0000   1.0000   1.0000   1.0000   1.0000   1.0000
     1.0000   1.0000   1.0000   1.0000   1.0000   1.0000   1.0000   1.0000
     1.0000   1.0000   1.0000   1.0000   1.0000   1.0000   1.0000   1.0000
     1.0000   1.0000   1.0000   1.0000   1.0000   1.0000   1.0000   1.0000
     1.0000   1.0000   1.0000   1.0000   1.0000   1.0000   1.0000   1.0000
     1.0000   1.0000   1.0000   1.0000   1.0000   1.0000   1.0000   1.0000
     1.0000   1.0000   1.0000   1.0000   1.0000   1.0000   1.0000   1.0000
     1.0000   1.0000   1.0000   1.0000   1.0000   1.0000   1.0000   1.0000
     1.0000   1.0000   1.0000   1.0000   1.0000   1.0000   1.0000   1.0000
     1.0000   1.0000   1.0000   1.0000   1.0000   1.0000   1.0000   1.0000
     1.0000   1.0000   1.0000   1.0000   1.0000   1.0000   1.0000   1.0000
     1.0000   1.0000   1.0000   1.0000   0.0000   0.0000   0.0000   0.0000
     0.0000   0.0000   0.0000   0.0000   0.0000   0.0000   0.0000   0.0000
     0.0000   0.0000   0.0000   0.0000   0.0000   0.0000   0.0000   0.0000
     0.0000   0.0000   0.0000   0.0000   0.0000   0.0000   0.0000   0.0000
     0.0000   0.0000   0.0000   0.0000   0.0000

          k = 0.0000 0.4714 0.0000 ( 47988 PWs)   bands (ev):

   -80.4912 -80.4912 -75.9355 -75.9354 -69.5773 -69.5773 -64.9967 -64.9967
   -46.7214 -46.7214 -46.6085 -46.6085 -46.5155 -46.5155 -41.9664 -41.9664
   -41.8058 -41.8058 -41.7856 -41.7856 -38.6141 -38.6141 -38.4553 -38.4553
   -38.4512 -38.4512 -33.7742 -33.7741 -33.6069 -33.6069 -33.5720 -33.5719
   -30.3569 -30.3530 -30.3530 -30.3493 -15.9244 -15.8888 -15.8888 -15.8575
   -10.7189 -10.7114 -10.7098 -10.6982 -10.6896 -10.6317 -10.6305 -10.5697
   -10.5350 -10.5259 -10.5224 -10.5173  -6.9629  -6.9349  -6.7447  -6.5762
    -6.5347  -6.4320  -6.3278  -6.3266  -6.2887  -6.2150  -6.1773  -6.1487
    -6.1404  -6.0864  -6.0332  -5.9359  -5.8978  -5.8775  -5.8053  -5.7996
    -1.4268  -1.1946  -1.1930  -1.1620  -1.1345  -1.1175  -1.1136  -1.1103
    -1.1071  -0.8997  -0.8973  -0.8411   3.4437   3.4466   3.5166   3.5405
     3.6024   3.6146   3.6381   3.6520   3.6831   3.6871   5.1188   5.2719
     5.5191   5.5475   5.7799   5.8302   5.8533   5.9127   5.9153   6.0072
     6.1434   6.1985   6.3251   6.3576   6.4191   6.4529   6.5553   6.6528
     6.9182   6.9321   7.0306   7.0644   7.0989   7.1924   7.2631   7.2919
     7.3627   7.3974   7.4721   7.5414   7.5709   7.6289   7.7085   7.8032
     7.8717   7.9019   8.1103   8.1510   8.1712   8.1817   8.1867   8.2686
     8.2797   8.3992   8.4757   8.5090   8.5833   8.5976   8.6385   8.6451
     8.7383   8.8565   8.8713   8.9107   8.9605   8.9764   9.0503   9.0540
     9.1099   9.1540   9.1857   9.2847   9.3323   9.4112   9.9963  10.0615
    10.1277  10.2667  10.6633  10.7957  12.4263  12.5629  12.5985  12.6250
    12.6320  12.7668  12.8674  12.8793  13.4999  13.5853  14.3282  14.6522
    14.7505  14.9685  14.9812  15.1195  15.1208  15.2018  15.2262  15.3476
    15.4282  15.5166  15.5508  15.6333  15.6818  15.7937  15.7944  15.8724
    15.9566  16.0317  16.0941  16.2463  16.3285

     occupation numbers 
     1.0000   1.0000   1.0000   1.0000   1.0000   1.0000   1.0000   1.0000
     1.0000   1.0000   1.0000   1.0000   1.0000   1.0000   1.0000   1.0000
     1.0000   1.0000   1.0000   1.0000   1.0000   1.0000   1.0000   1.0000
     1.0000   1.0000   1.0000   1.0000   1.0000   1.0000   1.0000   1.0000
     1.0000   1.0000   1.0000   1.0000   1.0000   1.0000   1.0000   1.0000
     1.0000   1.0000   1.0000   1.0000   1.0000   1.0000   1.0000   1.0000
     1.0000   1.0000   1.0000   1.0000   1.0000   1.0000   1.0000   1.0000
     1.0000   1.0000   1.0000   1.0000   1.0000   1.0000   1.0000   1.0000
     1.0000   1.0000   1.0000   1.0000   1.0000   1.0000   1.0000   1.0000
     1.0000   1.0000   1.0000   1.0000   1.0000   1.0000   1.0000   1.0000
     1.0000   1.0000   1.0000   1.0000   1.0000   1.0000   1.0000   1.0000
     1.0000   1.0000   1.0000   1.0000   1.0000   1.0000   1.0000   1.0000
     1.0000   1.0000   1.0000   1.0000   1.0000   1.0000   1.0000   1.0000
     1.0000   1.0000   1.0000   1.0000   1.0000   1.0000   1.0000   1.0000
     1.0000   1.0000   1.0000   1.0000   1.0000   1.0000   1.0000   1.0000
     1.0000   1.0000   1.0000   1.0000   1.0000   1.0000   1.0000   1.0000
     1.0000   1.0000   1.0000   1.0000   1.0000   1.0000   1.0000   1.0000
     1.0000   1.0000   1.0000   1.0000   1.0000   1.0000   1.0000   1.0000
     1.0000   1.0000   1.0000   1.0000   1.0000   1.0000   1.0000   1.0000
     1.0000   1.0000   1.0000   1.0000   1.0000   1.0000   1.0000   1.0000
     1.0000   1.0000   1.0000   1.0000   0.0000   0.0000   0.0000   0.0000
     0.0000   0.0000   0.0000   0.0000   0.0000   0.0000   0.0000   0.0000
     0.0000   0.0000   0.0000   0.0000   0.0000   0.0000   0.0000   0.0000
     0.0000   0.0000   0.0000   0.0000   0.0000   0.0000   0.0000   0.0000
     0.0000   0.0000   0.0000   0.0000   0.0000

          k = 0.0000 0.4714 0.3473 ( 48044 PWs)   bands (ev):

   -80.4912 -80.4912 -75.9355 -75.9355 -69.5773 -69.5773 -64.9968 -64.9967
   -46.7215 -46.7215 -46.6085 -46.6085 -46.5155 -46.5155 -41.9664 -41.9664
   -41.8058 -41.8058 -41.7856 -41.7856 -38.6141 -38.6141 -38.4553 -38.4553
   -38.4512 -38.4512 -33.7741 -33.7741 -33.6069 -33.6069 -33.5720 -33.5719
   -30.3569 -30.3530 -30.3530 -30.3493 -15.9249 -15.8893 -15.8892 -15.8579
   -10.7179 -10.7099 -10.7094 -10.6968 -10.6873 -10.6274 -10.6262 -10.5665
   -10.5351 -10.5260 -10.5222 -10.5174  -6.9500  -6.9311  -6.7815  -6.5711
    -6.5592  -6.4873  -6.4483  -6.3041  -6.2375  -6.2257  -6.1769  -6.1298
    -6.0939  -6.0613  -6.0443  -5.9212  -5.8894  -5.8635  -5.7999  -5.7906
    -1.4241  -1.1919  -1.1909  -1.1590  -1.1354  -1.1213  -1.1171  -1.1166
    -1.1134  -0.8955  -0.8931  -0.8380   3.3973   3.4381   3.5168   3.5266
     3.6007   3.6109   3.6418   3.6682   3.6707   3.6846   5.0166   5.2042
     5.4149   5.5680   5.8020   5.8110   5.8326   5.9363   5.9934   6.0597
     6.2115   6.3062   6.3711   6.4677   6.4902   6.5783   6.6700   6.7034
     6.8359   6.8840   6.9609   7.0003   7.1073   7.1540   7.2275   7.2802
     7.3312   7.3965   7.4400   7.4631   7.6247   7.6557   7.6802   7.7791
     7.8445   7.9001   7.9593   7.9797   8.0049   8.0730   8.1139   8.1585
     8.3200   8.5319   8.5529   8.6054   8.6701   8.7016   8.7521   8.8207
     8.8690   8.9301   8.9500   8.9805   8.9933   9.0599   9.1028   9.1187
     9.1953   9.2142   9.2655   9.2734   9.3466   9.4164   9.7097   9.9218
     9.9912  10.1216  10.6679  10.7708  12.4871  12.5515  12.5643  12.5854
    12.7382  12.8294  12.8663  12.8842  13.5007  13.5737  14.3985  14.6539
    14.7416  14.8037  14.8941  15.1349  15.1843  15.2557  15.3532  15.3966
    15.4445  15.5279  15.5649  15.5956  15.6820  15.7980  15.9007  15.9916
    16.0529  16.0887  16.1585  16.2080  16.2880

     occupation numbers 
     1.0000   1.0000   1.0000   1.0000   1.0000   1.0000   1.0000   1.0000
     1.0000   1.0000   1.0000   1.0000   1.0000   1.0000   1.0000   1.0000
     1.0000   1.0000   1.0000   1.0000   1.0000   1.0000   1.0000   1.0000
     1.0000   1.0000   1.0000   1.0000   1.0000   1.0000   1.0000   1.0000
     1.0000   1.0000   1.0000   1.0000   1.0000   1.0000   1.0000   1.0000
     1.0000   1.0000   1.0000   1.0000   1.0000   1.0000   1.0000   1.0000
     1.0000   1.0000   1.0000   1.0000   1.0000   1.0000   1.0000   1.0000
     1.0000   1.0000   1.0000   1.0000   1.0000   1.0000   1.0000   1.0000
     1.0000   1.0000   1.0000   1.0000   1.0000   1.0000   1.0000   1.0000
     1.0000   1.0000   1.0000   1.0000   1.0000   1.0000   1.0000   1.0000
     1.0000   1.0000   1.0000   1.0000   1.0000   1.0000   1.0000   1.0000
     1.0000   1.0000   1.0000   1.0000   1.0000   1.0000   1.0000   1.0000
     1.0000   1.0000   1.0000   1.0000   1.0000   1.0000   1.0000   1.0000
     1.0000   1.0000   1.0000   1.0000   1.0000   1.0000   1.0000   1.0000
     1.0000   1.0000   1.0000   1.0000   1.0000   1.0000   1.0000   1.0000
     1.0000   1.0000   1.0000   1.0000   1.0000   1.0000   1.0000   1.0000
     1.0000   1.0000   1.0000   1.0000   1.0000   1.0000   1.0000   1.0000
     1.0000   1.0000   1.0000   1.0000   1.0000   1.0000   1.0000   1.0000
     1.0000   1.0000   1.0000   1.0000   1.0000   1.0000   1.0000   1.0000
     1.0000   1.0000   1.0000   1.0000   1.0000   1.0000   1.0000   1.0000
     1.0000   1.0000   1.0000   1.0000   0.0000   0.0000   0.0000   0.0000
     0.0000   0.0000   0.0000   0.0000   0.0000   0.0000   0.0000   0.0000
     0.0000   0.0000   0.0000   0.0000   0.0000   0.0000   0.0000   0.0000
     0.0000   0.0000   0.0000   0.0000   0.0000   0.0000   0.0000   0.0000
     0.0000   0.0000   0.0000   0.0000   0.0000

          k = 0.2357 0.2357 0.0000 ( 47982 PWs)   bands (ev):

   -80.4912 -80.4912 -75.9355 -75.9354 -69.5773 -69.5773 -64.9967 -64.9967
   -46.7214 -46.7214 -46.6085 -46.6085 -46.5155 -46.5155 -41.9664 -41.9664
   -41.8059 -41.8058 -41.7856 -41.7856 -38.6141 -38.6141 -38.4553 -38.4553
   -38.4512 -38.4512 -33.7742 -33.7741 -33.6069 -33.6069 -33.5720 -33.5719
   -30.3588 -30.3549 -30.3511 -30.3473 -15.9419 -15.9043 -15.8708 -15.8416
   -10.8006 -10.7856 -10.7371 -10.7153 -10.6896 -10.6616 -10.5945 -10.5395
   -10.5233 -10.5143 -10.4354 -10.4301  -7.0077  -6.9385  -6.8338  -6.6022
    -6.5236  -6.4395  -6.3794  -6.3247  -6.2796  -6.2094  -6.1861  -6.1485
    -6.1223  -6.0697  -5.9557  -5.9352  -5.8528  -5.8509  -5.8190  -5.7931
    -1.4215  -1.3974  -1.1328  -1.1204  -1.1114  -1.1096  -1.0972  -1.0231
    -0.9801  -0.9702  -0.9362  -0.8551   3.4103   3.4422   3.5562   3.5750
     3.5811   3.5815   3.6092   3.6129   3.6773   3.6916   4.9385   5.2149
     5.4452   5.5125   5.6800   5.8424   5.8616   5.8989   5.9080   6.0424
     6.1259   6.2302   6.2513   6.2829   6.4895   6.5405   6.6634   6.8939
     6.9001   6.9497   6.9989   7.0523   7.1138   7.1443   7.1849   7.2694
     7.3133   7.3171   7.4768   7.5411   7.6667   7.7493   7.8213   7.8528
     7.9767   8.0247   8.0575   8.1346   8.1751   8.2055   8.2823   8.3733
     8.4387   8.4480   8.4525   8.5253   8.5923   8.6108   8.7319   8.7473
     8.7882   8.8134   8.8784   8.9343   8.9395   8.9399   8.9873   9.0657
     9.1440   9.1519   9.2897   9.3287   9.3903   9.4676   9.5235   9.6136
     9.9458  10.2903  10.6806  10.8558  12.3104  12.5312  12.6117  12.6178
    12.7148  12.8545  12.8599  12.8940  13.4227  13.5777  14.0023  14.1853
    14.6305  14.8878  14.9688  14.9757  15.1881  15.2061  15.2469  15.2876
    15.3974  15.4332  15.4971  15.5352  15.6638  15.7252  15.7667  15.8692
    16.0459  16.1499  16.1978  16.2585  16.3529

     occupation numbers 
     1.0000   1.0000   1.0000   1.0000   1.0000   1.0000   1.0000   1.0000
     1.0000   1.0000   1.0000   1.0000   1.0000   1.0000   1.0000   1.0000
     1.0000   1.0000   1.0000   1.0000   1.0000   1.0000   1.0000   1.0000
     1.0000   1.0000   1.0000   1.0000   1.0000   1.0000   1.0000   1.0000
     1.0000   1.0000   1.0000   1.0000   1.0000   1.0000   1.0000   1.0000
     1.0000   1.0000   1.0000   1.0000   1.0000   1.0000   1.0000   1.0000
     1.0000   1.0000   1.0000   1.0000   1.0000   1.0000   1.0000   1.0000
     1.0000   1.0000   1.0000   1.0000   1.0000   1.0000   1.0000   1.0000
     1.0000   1.0000   1.0000   1.0000   1.0000   1.0000   1.0000   1.0000
     1.0000   1.0000   1.0000   1.0000   1.0000   1.0000   1.0000   1.0000
     1.0000   1.0000   1.0000   1.0000   1.0000   1.0000   1.0000   1.0000
     1.0000   1.0000   1.0000   1.0000   1.0000   1.0000   1.0000   1.0000
     1.0000   1.0000   1.0000   1.0000   1.0000   1.0000   1.0000   1.0000
     1.0000   1.0000   1.0000   1.0000   1.0000   1.0000   1.0000   1.0000
     1.0000   1.0000   1.0000   1.0000   1.0000   1.0000   1.0000   1.0000
     1.0000   1.0000   1.0000   1.0000   1.0000   1.0000   1.0000   1.0000
     1.0000   1.0000   1.0000   1.0000   1.0000   1.0000   1.0000   1.0000
     1.0000   1.0000   1.0000   1.0000   1.0000   1.0000   1.0000   1.0000
     1.0000   1.0000   1.0000   1.0000   1.0000   1.0000   1.0000   1.0000
     1.0000   1.0000   1.0000   1.0000   1.0000   1.0000   1.0000   1.0000
     1.0000   1.0000   1.0000   1.0000   0.0000   0.0000   0.0000   0.0000
     0.0000   0.0000   0.0000   0.0000   0.0000   0.0000   0.0000   0.0000
     0.0000   0.0000   0.0000   0.0000   0.0000   0.0000   0.0000   0.0000
     0.0000   0.0000   0.0000   0.0000   0.0000   0.0000   0.0000   0.0000
     0.0000   0.0000   0.0000   0.0000   0.0000

          k = 0.2357 0.2357 0.3473 ( 48005 PWs)   bands (ev):

   -80.4912 -80.4912 -75.9355 -75.9354 -69.5773 -69.5773 -64.9967 -64.9967
   -46.7215 -46.7214 -46.6085 -46.6085 -46.5155 -46.5155 -41.9664 -41.9664
   -41.8059 -41.8059 -41.7856 -41.7856 -38.6141 -38.6141 -38.4553 -38.4553
   -38.4512 -38.4512 -33.7742 -33.7741 -33.6069 -33.6069 -33.5720 -33.5719
   -30.3588 -30.3549 -30.3511 -30.3474 -15.9425 -15.9048 -15.8712 -15.8421
   -10.8001 -10.7852 -10.7309 -10.7151 -10.6891 -10.6570 -10.5907 -10.5380
   -10.5217 -10.5143 -10.4355 -10.4301  -7.0009  -6.9420  -6.8820  -6.6338
    -6.5574  -6.5000  -6.3864  -6.3011  -6.2887  -6.1868  -6.1504  -6.1353
    -6.1228  -6.0067  -5.9638  -5.9358  -5.8449  -5.8338  -5.8180  -5.7943
    -1.4206  -1.3934  -1.1375  -1.1294  -1.1258  -1.1173  -1.1040  -1.0193
    -0.9765  -0.9672  -0.9367  -0.8557   3.3510   3.4494   3.5629   3.5743
     3.5810   3.5882   3.6066   3.6183   3.6685   3.6866   4.8292   5.1331
     5.3367   5.5835   5.8103   5.8931   5.9299   5.9569   6.0222   6.0356
     6.1184   6.1993   6.2940   6.4511   6.5194   6.5647   6.8000   6.8285
     6.8715   6.9376   7.0171   7.0507   7.1052   7.1420   7.1821   7.2865
     7.3403   7.3838   7.4647   7.5291   7.6098   7.6223   7.7946   7.8466
     7.9232   7.9499   8.0174   8.0722   8.1278   8.1929   8.2313   8.2922
     8.3171   8.3746   8.4945   8.5467   8.6290   8.6771   8.7065   8.8292
     8.8694   8.8763   8.8874   8.9548   9.0100   9.0591   9.1617   9.2107
     9.2163   9.2403   9.2758   9.3110   9.3656   9.4630   9.4852   9.5261
     9.6367  10.0478  10.6892  10.8215  12.3987  12.5335  12.5732  12.6347
    12.8074  12.8538  12.8828  12.9353  13.3990  13.5535  14.1820  14.3085
    14.5930  14.9070  14.9566  15.1920  15.2308  15.3203  15.3310  15.3729
    15.3938  15.4677  15.5638  15.6912  15.7552  15.7719  15.8223  15.9674
    15.9712  16.0652  16.1471  16.1987  16.2504

     occupation numbers 
     1.0000   1.0000   1.0000   1.0000   1.0000   1.0000   1.0000   1.0000
     1.0000   1.0000   1.0000   1.0000   1.0000   1.0000   1.0000   1.0000
     1.0000   1.0000   1.0000   1.0000   1.0000   1.0000   1.0000   1.0000
     1.0000   1.0000   1.0000   1.0000   1.0000   1.0000   1.0000   1.0000
     1.0000   1.0000   1.0000   1.0000   1.0000   1.0000   1.0000   1.0000
     1.0000   1.0000   1.0000   1.0000   1.0000   1.0000   1.0000   1.0000
     1.0000   1.0000   1.0000   1.0000   1.0000   1.0000   1.0000   1.0000
     1.0000   1.0000   1.0000   1.0000   1.0000   1.0000   1.0000   1.0000
     1.0000   1.0000   1.0000   1.0000   1.0000   1.0000   1.0000   1.0000
     1.0000   1.0000   1.0000   1.0000   1.0000   1.0000   1.0000   1.0000
     1.0000   1.0000   1.0000   1.0000   1.0000   1.0000   1.0000   1.0000
     1.0000   1.0000   1.0000   1.0000   1.0000   1.0000   1.0000   1.0000
     1.0000   1.0000   1.0000   1.0000   1.0000   1.0000   1.0000   1.0000
     1.0000   1.0000   1.0000   1.0000   1.0000   1.0000   1.0000   1.0000
     1.0000   1.0000   1.0000   1.0000   1.0000   1.0000   1.0000   1.0000
     1.0000   1.0000   1.0000   1.0000   1.0000   1.0000   1.0000   1.0000
     1.0000   1.0000   1.0000   1.0000   1.0000   1.0000   1.0000   1.0000
     1.0000   1.0000   1.0000   1.0000   1.0000   1.0000   1.0000   1.0000
     1.0000   1.0000   1.0000   1.0000   1.0000   1.0000   1.0000   1.0000
     1.0000   1.0000   1.0000   1.0000   1.0000   1.0000   1.0000   1.0000
     1.0000   1.0000   1.0000   1.0000   0.0000   0.0000   0.0000   0.0000
     0.0000   0.0000   0.0000   0.0000   0.0000   0.0000   0.0000   0.0000
     0.0000   0.0000   0.0000   0.0000   0.0000   0.0000   0.0000   0.0000
     0.0000   0.0000   0.0000   0.0000   0.0000   0.0000   0.0000   0.0000
     0.0000   0.0000   0.0000   0.0000   0.0000

          k = 0.4714 0.0000 0.0000 ( 47988 PWs)   bands (ev):

   -80.4912 -80.4912 -75.9355 -75.9354 -69.5773 -69.5773 -64.9967 -64.9967
   -46.7214 -46.7214 -46.6085 -46.6085 -46.5155 -46.5155 -41.9664 -41.9664
   -41.8058 -41.8058 -41.7856 -41.7856 -38.6141 -38.6141 -38.4553 -38.4553
   -38.4512 -38.4512 -33.7742 -33.7741 -33.6069 -33.6069 -33.5720 -33.5719
   -30.3569 -30.3530 -30.3530 -30.3493 -15.9244 -15.8888 -15.8888 -15.8575
   -10.7187 -10.7089 -10.7089 -10.7043 -10.6869 -10.6327 -10.6295 -10.5689
   -10.5377 -10.5246 -10.5204 -10.5187  -6.9628  -6.9347  -6.7456  -6.5722
    -6.5345  -6.4285  -6.3495  -6.3298  -6.2817  -6.2115  -6.2075  -6.1223
    -6.0944  -6.0780  -6.0504  -5.9818  -5.8854  -5.8751  -5.8126  -5.7871
    -1.4268  -1.1950  -1.1926  -1.1619  -1.1342  -1.1183  -1.1132  -1.1114
    -1.1060  -0.8986  -0.8985  -0.8410   3.4438   3.4465   3.5162   3.5411
     3.5986   3.6042   3.6600   3.6614   3.6755   3.6778   5.1149   5.2706
     5.5173   5.5586   5.7622   5.8370   5.8493   5.9063   5.9573   6.0404
     6.1293   6.1558   6.2899   6.3118   6.4786   6.4930   6.5225   6.6913
     6.9103   6.9143   7.0048   7.0865   7.1099   7.2098   7.2104   7.3168
     7.3645   7.4198   7.4264   7.4750   7.6295   7.6393   7.7290   7.8095
     7.8998   7.9135   8.0882   8.1346   8.1459   8.2073   8.2372   8.2734
     8.3152   8.3165   8.4416   8.5018   8.5224   8.6244   8.6531   8.7155
     8.7583   8.8342   8.8503   8.9040   8.9545   8.9732   8.9933   9.0488
     9.0945   9.1733   9.2913   9.3131   9.3428   9.3581   9.9664  10.0729
    10.1098  10.2709  10.6740  10.8022  12.4212  12.5625  12.6071  12.6188
    12.6347  12.7698  12.8675  12.8702  13.4931  13.5969  14.3331  14.6531
    14.7512  14.9589  14.9893  15.0793  15.1490  15.2014  15.2248  15.3357
    15.4714  15.5249  15.5618  15.5698  15.6601  15.7870  15.7965  15.8648
    15.9655  16.0975  16.1122  16.2387  16.2952

     occupation numbers 
     1.0000   1.0000   1.0000   1.0000   1.0000   1.0000   1.0000   1.0000
     1.0000   1.0000   1.0000   1.0000   1.0000   1.0000   1.0000   1.0000
     1.0000   1.0000   1.0000   1.0000   1.0000   1.0000   1.0000   1.0000
     1.0000   1.0000   1.0000   1.0000   1.0000   1.0000   1.0000   1.0000
     1.0000   1.0000   1.0000   1.0000   1.0000   1.0000   1.0000   1.0000
     1.0000   1.0000   1.0000   1.0000   1.0000   1.0000   1.0000   1.0000
     1.0000   1.0000   1.0000   1.0000   1.0000   1.0000   1.0000   1.0000
     1.0000   1.0000   1.0000   1.0000   1.0000   1.0000   1.0000   1.0000
     1.0000   1.0000   1.0000   1.0000   1.0000   1.0000   1.0000   1.0000
     1.0000   1.0000   1.0000   1.0000   1.0000   1.0000   1.0000   1.0000
     1.0000   1.0000   1.0000   1.0000   1.0000   1.0000   1.0000   1.0000
     1.0000   1.0000   1.0000   1.0000   1.0000   1.0000   1.0000   1.0000
     1.0000   1.0000   1.0000   1.0000   1.0000   1.0000   1.0000   1.0000
     1.0000   1.0000   1.0000   1.0000   1.0000   1.0000   1.0000   1.0000
     1.0000   1.0000   1.0000   1.0000   1.0000   1.0000   1.0000   1.0000
     1.0000   1.0000   1.0000   1.0000   1.0000   1.0000   1.0000   1.0000
     1.0000   1.0000   1.0000   1.0000   1.0000   1.0000   1.0000   1.0000
     1.0000   1.0000   1.0000   1.0000   1.0000   1.0000   1.0000   1.0000
     1.0000   1.0000   1.0000   1.0000   1.0000   1.0000   1.0000   1.0000
     1.0000   1.0000   1.0000   1.0000   1.0000   1.0000   1.0000   1.0000
     1.0000   1.0000   1.0000   1.0000   0.0000   0.0000   0.0000   0.0000
     0.0000   0.0000   0.0000   0.0000   0.0000   0.0000   0.0000   0.0000
     0.0000   0.0000   0.0000   0.0000   0.0000   0.0000   0.0000   0.0000
     0.0000   0.0000   0.0000   0.0000   0.0000   0.0000   0.0000   0.0000
     0.0000   0.0000   0.0000   0.0000   0.0000

          k = 0.4714 0.0000-0.3473 ( 48044 PWs)   bands (ev):

   -80.4912 -80.4912 -75.9355 -75.9355 -69.5773 -69.5773 -64.9968 -64.9967
   -46.7215 -46.7215 -46.6085 -46.6085 -46.5155 -46.5155 -41.9664 -41.9664
   -41.8058 -41.8058 -41.7856 -41.7856 -38.6141 -38.6141 -38.4553 -38.4553
   -38.4512 -38.4512 -33.7741 -33.7741 -33.6069 -33.6069 -33.5720 -33.5719
   -30.3569 -30.3530 -30.3530 -30.3493 -15.9249 -15.8893 -15.8892 -15.8579
   -10.7180 -10.7087 -10.7067 -10.7032 -10.6849 -10.6284 -10.6252 -10.5656
   -10.5379 -10.5246 -10.5201 -10.5188  -6.9503  -6.9306  -6.7800  -6.5768
    -6.5599  -6.4784  -6.4442  -6.3382  -6.2435  -6.1951  -6.1688  -6.1258
    -6.0888  -6.0744  -6.0064  -5.9804  -5.8828  -5.8579  -5.8101  -5.7741
    -1.4242  -1.1931  -1.1897  -1.1589  -1.1350  -1.1223  -1.1188  -1.1156
    -1.1123  -0.8946  -0.8941  -0.8379   3.3971   3.4384   3.5164   3.5265
     3.5970   3.6165   3.6458   3.6597   3.6672   3.6910   5.0106   5.2003
     5.4456   5.5464   5.7927   5.8232   5.8580   5.9302   5.9845   6.0631
     6.1732   6.3162   6.4168   6.4280   6.4568   6.6080   6.6343   6.7647
     6.8350   6.8739   6.9571   7.0604   7.0751   7.1587   7.1931   7.2629
     7.3450   7.3587   7.4372   7.4727   7.5654   7.7096   7.7318   7.8150
     7.8490   7.8977   7.9530   7.9601   8.0413   8.0802   8.1140   8.1336
     8.2679   8.5118   8.5612   8.6096   8.6809   8.7382   8.7622   8.7934
     8.8371   8.8704   8.9200   8.9861   8.9946   9.0648   9.1430   9.1772
     9.2081   9.2618   9.2787   9.2919   9.3307   9.3606   9.7165   9.8755
     9.9943  10.1223  10.6769  10.7784  12.4902  12.5485  12.5665  12.5890
    12.7323  12.8310  12.8682  12.8752  13.4944  13.5814  14.4098  14.6604
    14.7430  14.8126  14.8667  15.1030  15.1553  15.3117  15.3842  15.4096
    15.4485  15.4813  15.5370  15.6232  15.6788  15.7996  15.9185  15.9928
    16.0281  16.0793  16.1475  16.2450  16.2869

     occupation numbers 
     1.0000   1.0000   1.0000   1.0000   1.0000   1.0000   1.0000   1.0000
     1.0000   1.0000   1.0000   1.0000   1.0000   1.0000   1.0000   1.0000
     1.0000   1.0000   1.0000   1.0000   1.0000   1.0000   1.0000   1.0000
     1.0000   1.0000   1.0000   1.0000   1.0000   1.0000   1.0000   1.0000
     1.0000   1.0000   1.0000   1.0000   1.0000   1.0000   1.0000   1.0000
     1.0000   1.0000   1.0000   1.0000   1.0000   1.0000   1.0000   1.0000
     1.0000   1.0000   1.0000   1.0000   1.0000   1.0000   1.0000   1.0000
     1.0000   1.0000   1.0000   1.0000   1.0000   1.0000   1.0000   1.0000
     1.0000   1.0000   1.0000   1.0000   1.0000   1.0000   1.0000   1.0000
     1.0000   1.0000   1.0000   1.0000   1.0000   1.0000   1.0000   1.0000
     1.0000   1.0000   1.0000   1.0000   1.0000   1.0000   1.0000   1.0000
     1.0000   1.0000   1.0000   1.0000   1.0000   1.0000   1.0000   1.0000
     1.0000   1.0000   1.0000   1.0000   1.0000   1.0000   1.0000   1.0000
     1.0000   1.0000   1.0000   1.0000   1.0000   1.0000   1.0000   1.0000
     1.0000   1.0000   1.0000   1.0000   1.0000   1.0000   1.0000   1.0000
     1.0000   1.0000   1.0000   1.0000   1.0000   1.0000   1.0000   1.0000
     1.0000   1.0000   1.0000   1.0000   1.0000   1.0000   1.0000   1.0000
     1.0000   1.0000   1.0000   1.0000   1.0000   1.0000   1.0000   1.0000
     1.0000   1.0000   1.0000   1.0000   1.0000   1.0000   1.0000   1.0000
     1.0000   1.0000   1.0000   1.0000   1.0000   1.0000   1.0000   1.0000
     1.0000   1.0000   1.0000   1.0000   0.0000   0.0000   0.0000   0.0000
     0.0000   0.0000   0.0000   0.0000   0.0000   0.0000   0.0000   0.0000
     0.0000   0.0000   0.0000   0.0000   0.0000   0.0000   0.0000   0.0000
     0.0000   0.0000   0.0000   0.0000   0.0000   0.0000   0.0000   0.0000
     0.0000   0.0000   0.0000   0.0000   0.0000

 ------ SPIN DOWN ----------


          k = 0.0000 0.0000 0.0000 ( 48115 PWs)   bands (ev):

   -80.4912 -80.4912 -75.9355 -75.9354 -69.5773 -69.5773 -64.9967 -64.9967
   -46.7215 -46.7215 -46.6085 -46.6085 -46.5156 -46.5156 -41.9664 -41.9664
   -41.8058 -41.8058 -41.7856 -41.7856 -38.6141 -38.6141 -38.4553 -38.4553
   -38.4512 -38.4512 -33.7742 -33.7741 -33.6069 -33.6068 -33.5720 -33.5719
   -30.3607 -30.3530 -30.3530 -30.3455 -15.9605 -15.8853 -15.8852 -15.8270
   -10.8083 -10.7992 -10.7777 -10.7718 -10.7692 -10.6251 -10.6245 -10.4999
   -10.4382 -10.4316 -10.4275 -10.4211  -7.0751  -6.9595  -6.9050  -6.5031
    -6.4546  -6.4544  -6.4150  -6.3820  -6.3590  -6.2273  -6.1792  -6.1440
    -6.1387  -6.0191  -5.9608  -5.8476  -5.8325  -5.8308  -5.8095  -5.7938
    -1.5658  -1.5631  -1.1228  -1.1123  -1.1026  -1.1019  -0.9753  -0.9736
    -0.9698  -0.9675  -0.8133  -0.8116   3.4073   3.4430   3.5544   3.5601
     3.5653   3.5654   3.5853   3.6130   3.6887   3.6906   4.7467   5.1463
     5.3605   5.3713   5.6295   5.7386   5.7816   5.9261   6.0340   6.1325
     6.1350   6.2673   6.3263   6.4704   6.6321   6.6429   6.6706   6.7804
     6.8932   6.9795   6.9825   6.9876   7.0532   7.1406   7.2062   7.2909
     7.3239   7.3811   7.4790   7.5060   7.5639   7.6784   7.8327   7.9030
     7.9148   7.9204   8.0346   8.0691   8.1415   8.1429   8.2769   8.3046
     8.4090   8.4691   8.4807   8.5215   8.6036   8.6157   8.6458   8.7409
     8.8145   8.9268   8.9496   9.0360   9.0489   9.0656   9.1226   9.2199
     9.2257   9.2814   9.3900   9.3966   9.4464   9.5164   9.5468   9.5708
    10.0173  10.2924  10.5453  10.7351  12.2894  12.5024  12.5089  12.6168
    12.6877  12.8553  12.8760  12.8979  13.2482  13.5485  13.6797  13.6883
    14.5307  14.6189  15.0192  15.0846  15.0892  15.2156  15.3238  15.3423
    15.4807  15.4952  15.5274  15.5580  15.6743  15.7089  15.7913  15.9251
    15.9437  15.9440  16.0179  16.0356  16.0455

     occupation numbers 
     1.0000   1.0000   1.0000   1.0000   1.0000   1.0000   1.0000   1.0000
     1.0000   1.0000   1.0000   1.0000   1.0000   1.0000   1.0000   1.0000
     1.0000   1.0000   1.0000   1.0000   1.0000   1.0000   1.0000   1.0000
     1.0000   1.0000   1.0000   1.0000   1.0000   1.0000   1.0000   1.0000
     1.0000   1.0000   1.0000   1.0000   1.0000   1.0000   1.0000   1.0000
     1.0000   1.0000   1.0000   1.0000   1.0000   1.0000   1.0000   1.0000
     1.0000   1.0000   1.0000   1.0000   1.0000   1.0000   1.0000   1.0000
     1.0000   1.0000   1.0000   1.0000   1.0000   1.0000   1.0000   1.0000
     1.0000   1.0000   1.0000   1.0000   1.0000   1.0000   1.0000   1.0000
     1.0000   1.0000   1.0000   1.0000   1.0000   1.0000   1.0000   1.0000
     1.0000   1.0000   1.0000   1.0000   1.0000   1.0000   1.0000   1.0000
     1.0000   1.0000   1.0000   1.0000   1.0000   1.0000   1.0000   1.0000
     1.0000   1.0000   1.0000   1.0000   1.0000   1.0000   1.0000   1.0000
     1.0000   1.0000   1.0000   1.0000   1.0000   1.0000   1.0000   1.0000
     1.0000   1.0000   1.0000   1.0000   1.0000   1.0000   1.0000   1.0000
     1.0000   1.0000   1.0000   1.0000   1.0000   1.0000   1.0000   1.0000
     1.0000   1.0000   1.0000   1.0000   1.0000   1.0000   1.0000   1.0000
     1.0000   1.0000   1.0000   1.0000   1.0000   1.0000   1.0000   1.0000
     1.0000   1.0000   1.0000   1.0000   1.0000   1.0000   1.0000   1.0000
     1.0000   1.0000   1.0000   1.0000   1.0000   1.0000   1.0000   1.0000
     1.0000   1.0000   1.0000   1.0000   0.0000   0.0000   0.0000   0.0000
     0.0000   0.0000   0.0000   0.0000   0.0000   0.0000   0.0000   0.0000
     0.0000   0.0000   0.0000   0.0000   0.0000   0.0000   0.0000   0.0000
     0.0000   0.0000   0.0000   0.0000   0.0000   0.0000   0.0000   0.0000
     0.0000   0.0000   0.0000   0.0000   0.0000

          k = 0.0000 0.0000 0.3473 ( 47960 PWs)   bands (ev):

   -80.4912 -80.4912 -75.9355 -75.9354 -69.5773 -69.5773 -64.9967 -64.9967
   -46.7215 -46.7215 -46.6085 -46.6085 -46.5156 -46.5156 -41.9664 -41.9664
   -41.8058 -41.8058 -41.7856 -41.7856 -38.6142 -38.6141 -38.4553 -38.4553
   -38.4512 -38.4512 -33.7741 -33.7741 -33.6069 -33.6068 -33.5720 -33.5719
   -30.3607 -30.3530 -30.3530 -30.3455 -15.9611 -15.8857 -15.8856 -15.8274
   -10.8076 -10.7986 -10.7775 -10.7690 -10.7648 -10.6209 -10.6202 -10.4972
   -10.4382 -10.4316 -10.4276 -10.4211  -7.0925  -6.9731  -6.9517  -6.5428
    -6.5100  -6.4498  -6.4167  -6.3995  -6.2864  -6.1918  -6.1835  -6.1572
    -6.1210  -6.0182  -5.9353  -5.8572  -5.8477  -5.8127  -5.7805  -5.7681
    -1.5651  -1.5625  -1.1370  -1.1340  -1.1212  -1.1093  -0.9757  -0.9741
    -0.9681  -0.9657  -0.8139  -0.8122   3.3490   3.4479   3.5589   3.5601
     3.5675   3.5703   3.6103   3.6161   3.6694   3.6962   4.6224   5.0635
     5.3254   5.3946   5.8518   5.8699   5.9355   5.9973   6.0399   6.0833
     6.1884   6.2481   6.4053   6.5041   6.5653   6.6205   6.6814   6.8460
     6.8965   6.9729   7.0205   7.0764   7.1279   7.1466   7.3115   7.3254
     7.3442   7.3960   7.5017   7.5395   7.5771   7.6292   7.6918   7.7580
     7.8789   7.8976   7.9125   8.0121   8.0218   8.2400   8.2546   8.2937
     8.3251   8.3983   8.4042   8.4110   8.5504   8.7054   8.7353   8.8051
     8.8201   8.8382   8.9928   9.0474   9.0818   9.1367   9.2025   9.2691
     9.3165   9.3361   9.3526   9.4280   9.4463   9.4890   9.5230   9.5544
     9.5786  10.0898  10.5361  10.7188  12.4215  12.4812  12.4988  12.6343
    12.8096  12.8679  12.8775  12.9296  13.3218  13.5322  13.8755  13.9148
    14.5438  14.9531  15.0840  15.1458  15.2324  15.3113  15.3276  15.4161
    15.4282  15.4784  15.5823  15.6353  15.6557  15.7286  15.8352  15.8423
    16.0105  16.0567  16.0816  16.1035  16.1236

     occupation numbers 
     1.0000   1.0000   1.0000   1.0000   1.0000   1.0000   1.0000   1.0000
     1.0000   1.0000   1.0000   1.0000   1.0000   1.0000   1.0000   1.0000
     1.0000   1.0000   1.0000   1.0000   1.0000   1.0000   1.0000   1.0000
     1.0000   1.0000   1.0000   1.0000   1.0000   1.0000   1.0000   1.0000
     1.0000   1.0000   1.0000   1.0000   1.0000   1.0000   1.0000   1.0000
     1.0000   1.0000   1.0000   1.0000   1.0000   1.0000   1.0000   1.0000
     1.0000   1.0000   1.0000   1.0000   1.0000   1.0000   1.0000   1.0000
     1.0000   1.0000   1.0000   1.0000   1.0000   1.0000   1.0000   1.0000
     1.0000   1.0000   1.0000   1.0000   1.0000   1.0000   1.0000   1.0000
     1.0000   1.0000   1.0000   1.0000   1.0000   1.0000   1.0000   1.0000
     1.0000   1.0000   1.0000   1.0000   1.0000   1.0000   1.0000   1.0000
     1.0000   1.0000   1.0000   1.0000   1.0000   1.0000   1.0000   1.0000
     1.0000   1.0000   1.0000   1.0000   1.0000   1.0000   1.0000   1.0000
     1.0000   1.0000   1.0000   1.0000   1.0000   1.0000   1.0000   1.0000
     1.0000   1.0000   1.0000   1.0000   1.0000   1.0000   1.0000   1.0000
     1.0000   1.0000   1.0000   1.0000   1.0000   1.0000   1.0000   1.0000
     1.0000   1.0000   1.0000   1.0000   1.0000   1.0000   1.0000   1.0000
     1.0000   1.0000   1.0000   1.0000   1.0000   1.0000   1.0000   1.0000
     1.0000   1.0000   1.0000   1.0000   1.0000   1.0000   1.0000   1.0000
     1.0000   1.0000   1.0000   1.0000   1.0000   1.0000   1.0000   1.0000
     1.0000   1.0000   1.0000   1.0000   0.0000   0.0000   0.0000   0.0000
     0.0000   0.0000   0.0000   0.0000   0.0000   0.0000   0.0000   0.0000
     0.0000   0.0000   0.0000   0.0000   0.0000   0.0000   0.0000   0.0000
     0.0000   0.0000   0.0000   0.0000   0.0000   0.0000   0.0000   0.0000
     0.0000   0.0000   0.0000   0.0000   0.0000

          k =-0.2357 0.2357 0.0000 ( 47982 PWs)   bands (ev):

   -80.4912 -80.4912 -75.9355 -75.9354 -69.5773 -69.5773 -64.9967 -64.9967
   -46.7215 -46.7215 -46.6085 -46.6085 -46.5156 -46.5156 -41.9664 -41.9664
   -41.8058 -41.8058 -41.7856 -41.7856 -38.6141 -38.6141 -38.4553 -38.4553
   -38.4512 -38.4512 -33.7741 -33.7741 -33.6069 -33.6069 -33.5719 -33.5719
   -30.3588 -30.3549 -30.3511 -30.3474 -15.9419 -15.9042 -15.8708 -15.8417
   -10.7918 -10.7772 -10.7388 -10.7212 -10.6958 -10.6632 -10.5944 -10.5445
   -10.5274 -10.5207 -10.4289 -10.4237  -6.9964  -6.9469  -6.8297  -6.6143
    -6.4568  -6.4500  -6.3808  -6.3373  -6.3083  -6.2511  -6.2217  -6.0956
    -6.0746  -6.0691  -6.0125  -5.9226  -5.8525  -5.8374  -5.8172  -5.7988
    -1.4191  -1.3994  -1.1310  -1.1203  -1.1109  -1.1103  -1.0966  -1.0258
    -0.9784  -0.9755  -0.9341  -0.8535   3.4355   3.4406   3.5160   3.5334
     3.5979   3.6007   3.6405   3.6436   3.6791   3.6826   4.9617   5.2087
     5.3717   5.3972   5.7412   5.8027   5.8227   5.9872   6.0668   6.0843
     6.1320   6.1900   6.3718   6.4478   6.5088   6.6002   6.6543   6.8167
     6.8345   6.8438   6.9596   6.9760   7.0364   7.0595   7.1934   7.2312
     7.3535   7.3726   7.4836   7.5900   7.6093   7.6548   7.7022   7.8461
     7.8670   7.9156   8.0385   8.0856   8.2118   8.2638   8.3261   8.4072
     8.4309   8.4446   8.5130   8.5307   8.5594   8.5621   8.6344   8.7355
     8.7711   8.8381   8.8804   8.8897   8.9218   8.9610   9.0196   9.0800
     9.1799   9.1868   9.2355   9.2651   9.4853   9.5328   9.8434   9.9362
    10.1642  10.2956  10.5339  10.6699  12.4080  12.5031  12.5110  12.6156
    12.6159  12.7584  12.8943  12.9001  13.3651  13.5177  14.0539  14.1986
    14.6773  14.8735  14.9545  15.0002  15.1525  15.1650  15.2828  15.3138
    15.3531  15.3941  15.5282  15.5505  15.5944  15.7193  15.8077  15.9101
    15.9808  16.1111  16.1487  16.2917  16.2986

     occupation numbers 
     1.0000   1.0000   1.0000   1.0000   1.0000   1.0000   1.0000   1.0000
     1.0000   1.0000   1.0000   1.0000   1.0000   1.0000   1.0000   1.0000
     1.0000   1.0000   1.0000   1.0000   1.0000   1.0000   1.0000   1.0000
     1.0000   1.0000   1.0000   1.0000   1.0000   1.0000   1.0000   1.0000
     1.0000   1.0000   1.0000   1.0000   1.0000   1.0000   1.0000   1.0000
     1.0000   1.0000   1.0000   1.0000   1.0000   1.0000   1.0000   1.0000
     1.0000   1.0000   1.0000   1.0000   1.0000   1.0000   1.0000   1.0000
     1.0000   1.0000   1.0000   1.0000   1.0000   1.0000   1.0000   1.0000
     1.0000   1.0000   1.0000   1.0000   1.0000   1.0000   1.0000   1.0000
     1.0000   1.0000   1.0000   1.0000   1.0000   1.0000   1.0000   1.0000
     1.0000   1.0000   1.0000   1.0000   1.0000   1.0000   1.0000   1.0000
     1.0000   1.0000   1.0000   1.0000   1.0000   1.0000   1.0000   1.0000
     1.0000   1.0000   1.0000   1.0000   1.0000   1.0000   1.0000   1.0000
     1.0000   1.0000   1.0000   1.0000   1.0000   1.0000   1.0000   1.0000
     1.0000   1.0000   1.0000   1.0000   1.0000   1.0000   1.0000   1.0000
     1.0000   1.0000   1.0000   1.0000   1.0000   1.0000   1.0000   1.0000
     1.0000   1.0000   1.0000   1.0000   1.0000   1.0000   1.0000   1.0000
     1.0000   1.0000   1.0000   1.0000   1.0000   1.0000   1.0000   1.0000
     1.0000   1.0000   1.0000   1.0000   1.0000   1.0000   1.0000   1.0000
     1.0000   1.0000   1.0000   1.0000   1.0000   1.0000   1.0000   1.0000
     1.0000   1.0000   1.0000   1.0000   0.0000   0.0000   0.0000   0.0000
     0.0000   0.0000   0.0000   0.0000   0.0000   0.0000   0.0000   0.0000
     0.0000   0.0000   0.0000   0.0000   0.0000   0.0000   0.0000   0.0000
     0.0000   0.0000   0.0000   0.0000   0.0000   0.0000   0.0000   0.0000
     0.0000   0.0000   0.0000   0.0000   0.0000

          k =-0.2357 0.2357 0.3473 ( 48005 PWs)   bands (ev):

   -80.4912 -80.4912 -75.9355 -75.9355 -69.5773 -69.5773 -64.9967 -64.9967
   -46.7215 -46.7215 -46.6085 -46.6085 -46.5156 -46.5156 -41.9664 -41.9664
   -41.8058 -41.8058 -41.7856 -41.7856 -38.6142 -38.6142 -38.4553 -38.4553
   -38.4512 -38.4512 -33.7741 -33.7741 -33.6069 -33.6069 -33.5719 -33.5719
   -30.3588 -30.3549 -30.3511 -30.3474 -15.9424 -15.9047 -15.8712 -15.8421
   -10.7914 -10.7769 -10.7334 -10.7203 -10.6955 -10.6583 -10.5906 -10.5436
   -10.5257 -10.5202 -10.4289 -10.4237  -6.9873  -6.9458  -6.8819  -6.6261
    -6.5491  -6.5318  -6.3461  -6.3332  -6.2690  -6.1959  -6.1704  -6.1198
    -6.0768  -6.0562  -6.0198  -5.9153  -5.8387  -5.8302  -5.8039  -5.7893
    -1.4182  -1.3954  -1.1354  -1.1298  -1.1259  -1.1178  -1.1030  -1.0220
    -0.9756  -0.9719  -0.9346  -0.8540   3.3924   3.4339   3.5156   3.5206
     3.6036   3.6109   3.6322   3.6472   3.6707   3.6909   4.8495   5.1263
     5.3659   5.3843   5.8093   5.8680   5.9216   5.9836   6.0630   6.1394
     6.2255   6.2523   6.3971   6.5185   6.5846   6.6723   6.7435   6.7813
     6.8462   6.8982   6.9558   6.9872   7.0506   7.0686   7.1638   7.2879
     7.3167   7.3470   7.4715   7.5332   7.5412   7.6163   7.7147   7.8135
     7.8261   7.8646   7.8927   7.9712   8.0442   8.2210   8.2531   8.3353
     8.3692   8.4457   8.5270   8.5895   8.6225   8.6778   8.7157   8.7596
     8.7869   8.8113   8.8672   8.9973   9.0399   9.0559   9.1593   9.2043
     9.2112   9.2459   9.2696   9.3673   9.4825   9.5033   9.7204   9.7836
     9.9769  10.0308  10.5358  10.6590  12.4761  12.4922  12.5084  12.5806
    12.7363  12.8160  12.8947  12.9074  13.3811  13.5076  14.2351  14.3148
    14.6430  14.8298  14.9199  15.1415  15.2363  15.2910  15.3374  15.3885
    15.4242  15.4971  15.5124  15.6921  15.7729  15.8373  15.8536  15.9369
    15.9513  16.0884  16.1429  16.2152  16.2543

     occupation numbers 
     1.0000   1.0000   1.0000   1.0000   1.0000   1.0000   1.0000   1.0000
     1.0000   1.0000   1.0000   1.0000   1.0000   1.0000   1.0000   1.0000
     1.0000   1.0000   1.0000   1.0000   1.0000   1.0000   1.0000   1.0000
     1.0000   1.0000   1.0000   1.0000   1.0000   1.0000   1.0000   1.0000
     1.0000   1.0000   1.0000   1.0000   1.0000   1.0000   1.0000   1.0000
     1.0000   1.0000   1.0000   1.0000   1.0000   1.0000   1.0000   1.0000
     1.0000   1.0000   1.0000   1.0000   1.0000   1.0000   1.0000   1.0000
     1.0000   1.0000   1.0000   1.0000   1.0000   1.0000   1.0000   1.0000
     1.0000   1.0000   1.0000   1.0000   1.0000   1.0000   1.0000   1.0000
     1.0000   1.0000   1.0000   1.0000   1.0000   1.0000   1.0000   1.0000
     1.0000   1.0000   1.0000   1.0000   1.0000   1.0000   1.0000   1.0000
     1.0000   1.0000   1.0000   1.0000   1.0000   1.0000   1.0000   1.0000
     1.0000   1.0000   1.0000   1.0000   1.0000   1.0000   1.0000   1.0000
     1.0000   1.0000   1.0000   1.0000   1.0000   1.0000   1.0000   1.0000
     1.0000   1.0000   1.0000   1.0000   1.0000   1.0000   1.0000   1.0000
     1.0000   1.0000   1.0000   1.0000   1.0000   1.0000   1.0000   1.0000
     1.0000   1.0000   1.0000   1.0000   1.0000   1.0000   1.0000   1.0000
     1.0000   1.0000   1.0000   1.0000   1.0000   1.0000   1.0000   1.0000
     1.0000   1.0000   1.0000   1.0000   1.0000   1.0000   1.0000   1.0000
     1.0000   1.0000   1.0000   1.0000   1.0000   1.0000   1.0000   1.0000
     1.0000   1.0000   1.0000   1.0000   0.0000   0.0000   0.0000   0.0000
     0.0000   0.0000   0.0000   0.0000   0.0000   0.0000   0.0000   0.0000
     0.0000   0.0000   0.0000   0.0000   0.0000   0.0000   0.0000   0.0000
     0.0000   0.0000   0.0000   0.0000   0.0000   0.0000   0.0000   0.0000
     0.0000   0.0000   0.0000   0.0000   0.0000

          k = 0.0000 0.4714 0.0000 ( 47988 PWs)   bands (ev):

   -80.4912 -80.4912 -75.9354 -75.9354 -69.5773 -69.5773 -64.9967 -64.9967
   -46.7215 -46.7215 -46.6085 -46.6085 -46.5156 -46.5156 -41.9664 -41.9664
   -41.8058 -41.8058 -41.7856 -41.7856 -38.6141 -38.6141 -38.4553 -38.4553
   -38.4512 -38.4512 -33.7741 -33.7741 -33.6069 -33.6069 -33.5719 -33.5719
   -30.3569 -30.3530 -30.3530 -30.3493 -15.9244 -15.8888 -15.8888 -15.8575
   -10.7189 -10.7114 -10.7098 -10.6982 -10.6896 -10.6317 -10.6305 -10.5697
   -10.5350 -10.5259 -10.5224 -10.5173  -6.9629  -6.9349  -6.7447  -6.5762
    -6.5347  -6.4320  -6.3278  -6.3266  -6.2887  -6.2150  -6.1773  -6.1487
    -6.1404  -6.0864  -6.0332  -5.9359  -5.8978  -5.8775  -5.8053  -5.7996
    -1.4268  -1.1946  -1.1930  -1.1620  -1.1345  -1.1175  -1.1136  -1.1103
    -1.1071  -0.8997  -0.8973  -0.8411   3.4437   3.4466   3.5166   3.5405
     3.6024   3.6146   3.6381   3.6520   3.6831   3.6870   5.1188   5.2719
     5.5191   5.5475   5.7799   5.8301   5.8533   5.9127   5.9153   6.0072
     6.1434   6.1985   6.3250   6.3576   6.4191   6.4529   6.5553   6.6528
     6.9182   6.9321   7.0306   7.0644   7.0989   7.1924   7.2631   7.2919
     7.3627   7.3974   7.4721   7.5414   7.5709   7.6289   7.7085   7.8032
     7.8717   7.9018   8.1103   8.1510   8.1712   8.1817   8.1867   8.2686
     8.2797   8.3992   8.4757   8.5090   8.5832   8.5975   8.6385   8.6451
     8.7383   8.8565   8.8713   8.9107   8.9605   8.9764   9.0503   9.0540
     9.1099   9.1540   9.1857   9.2847   9.3323   9.4112   9.9963  10.0615
    10.1277  10.2667  10.6633  10.7957  12.4263  12.5629  12.5985  12.6250
    12.6320  12.7668  12.8675  12.8793  13.4999  13.5853  14.3282  14.6522
    14.7505  14.9685  14.9812  15.1195  15.1208  15.2018  15.2262  15.3476
    15.4282  15.5166  15.5508  15.6333  15.6818  15.7938  15.7944  15.8724
    15.9566  16.0317  16.0941  16.2463  16.3286

     occupation numbers 
     1.0000   1.0000   1.0000   1.0000   1.0000   1.0000   1.0000   1.0000
     1.0000   1.0000   1.0000   1.0000   1.0000   1.0000   1.0000   1.0000
     1.0000   1.0000   1.0000   1.0000   1.0000   1.0000   1.0000   1.0000
     1.0000   1.0000   1.0000   1.0000   1.0000   1.0000   1.0000   1.0000
     1.0000   1.0000   1.0000   1.0000   1.0000   1.0000   1.0000   1.0000
     1.0000   1.0000   1.0000   1.0000   1.0000   1.0000   1.0000   1.0000
     1.0000   1.0000   1.0000   1.0000   1.0000   1.0000   1.0000   1.0000
     1.0000   1.0000   1.0000   1.0000   1.0000   1.0000   1.0000   1.0000
     1.0000   1.0000   1.0000   1.0000   1.0000   1.0000   1.0000   1.0000
     1.0000   1.0000   1.0000   1.0000   1.0000   1.0000   1.0000   1.0000
     1.0000   1.0000   1.0000   1.0000   1.0000   1.0000   1.0000   1.0000
     1.0000   1.0000   1.0000   1.0000   1.0000   1.0000   1.0000   1.0000
     1.0000   1.0000   1.0000   1.0000   1.0000   1.0000   1.0000   1.0000
     1.0000   1.0000   1.0000   1.0000   1.0000   1.0000   1.0000   1.0000
     1.0000   1.0000   1.0000   1.0000   1.0000   1.0000   1.0000   1.0000
     1.0000   1.0000   1.0000   1.0000   1.0000   1.0000   1.0000   1.0000
     1.0000   1.0000   1.0000   1.0000   1.0000   1.0000   1.0000   1.0000
     1.0000   1.0000   1.0000   1.0000   1.0000   1.0000   1.0000   1.0000
     1.0000   1.0000   1.0000   1.0000   1.0000   1.0000   1.0000   1.0000
     1.0000   1.0000   1.0000   1.0000   1.0000   1.0000   1.0000   1.0000
     1.0000   1.0000   1.0000   1.0000   0.0000   0.0000   0.0000   0.0000
     0.0000   0.0000   0.0000   0.0000   0.0000   0.0000   0.0000   0.0000
     0.0000   0.0000   0.0000   0.0000   0.0000   0.0000   0.0000   0.0000
     0.0000   0.0000   0.0000   0.0000   0.0000   0.0000   0.0000   0.0000
     0.0000   0.0000   0.0000   0.0000   0.0000

          k = 0.0000 0.4714 0.3473 ( 48044 PWs)   bands (ev):

   -80.4912 -80.4912 -75.9355 -75.9354 -69.5773 -69.5773 -64.9967 -64.9967
   -46.7215 -46.7215 -46.6085 -46.6085 -46.5156 -46.5156 -41.9664 -41.9664
   -41.8058 -41.8058 -41.7856 -41.7856 -38.6142 -38.6142 -38.4553 -38.4553
   -38.4512 -38.4512 -33.7741 -33.7741 -33.6069 -33.6069 -33.5719 -33.5719
   -30.3569 -30.3530 -30.3530 -30.3493 -15.9249 -15.8893 -15.8892 -15.8579
   -10.7179 -10.7099 -10.7094 -10.6968 -10.6873 -10.6274 -10.6262 -10.5665
   -10.5351 -10.5260 -10.5222 -10.5174  -6.9500  -6.9311  -6.7815  -6.5711
    -6.5592  -6.4873  -6.4483  -6.3041  -6.2375  -6.2257  -6.1769  -6.1298
    -6.0939  -6.0613  -6.0443  -5.9212  -5.8894  -5.8635  -5.7999  -5.7906
    -1.4241  -1.1919  -1.1909  -1.1590  -1.1354  -1.1213  -1.1171  -1.1166
    -1.1134  -0.8955  -0.8931  -0.8380   3.3973   3.4381   3.5168   3.5266
     3.6007   3.6108   3.6418   3.6682   3.6707   3.6846   5.0166   5.2042
     5.4149   5.5679   5.8020   5.8110   5.8326   5.9363   5.9934   6.0597
     6.2115   6.3062   6.3711   6.4677   6.4902   6.5783   6.6700   6.7034
     6.8359   6.8840   6.9609   7.0003   7.1073   7.1540   7.2275   7.2802
     7.3312   7.3965   7.4400   7.4631   7.6247   7.6557   7.6802   7.7791
     7.8445   7.9001   7.9593   7.9797   8.0049   8.0730   8.1139   8.1585
     8.3200   8.5319   8.5529   8.6054   8.6701   8.7016   8.7521   8.8207
     8.8690   8.9301   8.9500   8.9805   8.9933   9.0599   9.1028   9.1187
     9.1953   9.2142   9.2655   9.2734   9.3466   9.4164   9.7097   9.9218
     9.9912  10.1216  10.6679  10.7708  12.4871  12.5515  12.5643  12.5854
    12.7382  12.8294  12.8664  12.8842  13.5007  13.5737  14.3985  14.6539
    14.7416  14.8037  14.8941  15.1349  15.1843  15.2557  15.3532  15.3967
    15.4445  15.5279  15.5649  15.5956  15.6821  15.7980  15.9007  15.9916
    16.0529  16.0887  16.1585  16.2082  16.2892

     occupation numbers 
     1.0000   1.0000   1.0000   1.0000   1.0000   1.0000   1.0000   1.0000
     1.0000   1.0000   1.0000   1.0000   1.0000   1.0000   1.0000   1.0000
     1.0000   1.0000   1.0000   1.0000   1.0000   1.0000   1.0000   1.0000
     1.0000   1.0000   1.0000   1.0000   1.0000   1.0000   1.0000   1.0000
     1.0000   1.0000   1.0000   1.0000   1.0000   1.0000   1.0000   1.0000
     1.0000   1.0000   1.0000   1.0000   1.0000   1.0000   1.0000   1.0000
     1.0000   1.0000   1.0000   1.0000   1.0000   1.0000   1.0000   1.0000
     1.0000   1.0000   1.0000   1.0000   1.0000   1.0000   1.0000   1.0000
     1.0000   1.0000   1.0000   1.0000   1.0000   1.0000   1.0000   1.0000
     1.0000   1.0000   1.0000   1.0000   1.0000   1.0000   1.0000   1.0000
     1.0000   1.0000   1.0000   1.0000   1.0000   1.0000   1.0000   1.0000
     1.0000   1.0000   1.0000   1.0000   1.0000   1.0000   1.0000   1.0000
     1.0000   1.0000   1.0000   1.0000   1.0000   1.0000   1.0000   1.0000
     1.0000   1.0000   1.0000   1.0000   1.0000   1.0000   1.0000   1.0000
     1.0000   1.0000   1.0000   1.0000   1.0000   1.0000   1.0000   1.0000
     1.0000   1.0000   1.0000   1.0000   1.0000   1.0000   1.0000   1.0000
     1.0000   1.0000   1.0000   1.0000   1.0000   1.0000   1.0000   1.0000
     1.0000   1.0000   1.0000   1.0000   1.0000   1.0000   1.0000   1.0000
     1.0000   1.0000   1.0000   1.0000   1.0000   1.0000   1.0000   1.0000
     1.0000   1.0000   1.0000   1.0000   1.0000   1.0000   1.0000   1.0000
     1.0000   1.0000   1.0000   1.0000   0.0000   0.0000   0.0000   0.0000
     0.0000   0.0000   0.0000   0.0000   0.0000   0.0000   0.0000   0.0000
     0.0000   0.0000   0.0000   0.0000   0.0000   0.0000   0.0000   0.0000
     0.0000   0.0000   0.0000   0.0000   0.0000   0.0000   0.0000   0.0000
     0.0000   0.0000   0.0000   0.0000   0.0000

          k = 0.2357 0.2357 0.0000 ( 47982 PWs)   bands (ev):

   -80.4912 -80.4912 -75.9354 -75.9354 -69.5773 -69.5773 -64.9967 -64.9967
   -46.7215 -46.7215 -46.6085 -46.6085 -46.5156 -46.5155 -41.9664 -41.9664
   -41.8058 -41.8058 -41.7856 -41.7856 -38.6141 -38.6141 -38.4553 -38.4553
   -38.4512 -38.4512 -33.7741 -33.7741 -33.6069 -33.6069 -33.5720 -33.5719
   -30.3588 -30.3549 -30.3511 -30.3473 -15.9419 -15.9043 -15.8708 -15.8416
   -10.8006 -10.7856 -10.7371 -10.7153 -10.6896 -10.6616 -10.5945 -10.5395
   -10.5233 -10.5143 -10.4354 -10.4301  -7.0077  -6.9385  -6.8338  -6.6022
    -6.5236  -6.4395  -6.3794  -6.3247  -6.2796  -6.2094  -6.1861  -6.1485
    -6.1223  -6.0697  -5.9557  -5.9352  -5.8528  -5.8509  -5.8190  -5.7932
    -1.4215  -1.3974  -1.1328  -1.1204  -1.1114  -1.1096  -1.0972  -1.0231
    -0.9801  -0.9702  -0.9362  -0.8551   3.4103   3.4421   3.5562   3.5750
     3.5811   3.5814   3.6092   3.6129   3.6773   3.6916   4.9385   5.2149
     5.4452   5.5125   5.6800   5.8424   5.8616   5.8989   5.9080   6.0424
     6.1259   6.2302   6.2513   6.2829   6.4895   6.5405   6.6634   6.8939
     6.9001   6.9497   6.9989   7.0523   7.1138   7.1443   7.1849   7.2694
     7.3133   7.3171   7.4768   7.5411   7.6667   7.7493   7.8213   7.8528
     7.9767   8.0247   8.0575   8.1346   8.1751   8.2055   8.2823   8.3733
     8.4387   8.4480   8.4525   8.5253   8.5923   8.6108   8.7319   8.7473
     8.7882   8.8134   8.8784   8.9343   8.9395   8.9399   8.9873   9.0657
     9.1440   9.1519   9.2897   9.3287   9.3903   9.4676   9.5235   9.6136
     9.9458  10.2903  10.6806  10.8558  12.3104  12.5312  12.6117  12.6178
    12.7148  12.8545  12.8599  12.8940  13.4227  13.5777  14.0023  14.1853
    14.6305  14.8878  14.9688  14.9757  15.1881  15.2061  15.2469  15.2876
    15.3974  15.4332  15.4971  15.5352  15.6638  15.7252  15.7667  15.8692
    16.0460  16.1499  16.1978  16.2584  16.3529

     occupation numbers 
     1.0000   1.0000   1.0000   1.0000   1.0000   1.0000   1.0000   1.0000
     1.0000   1.0000   1.0000   1.0000   1.0000   1.0000   1.0000   1.0000
     1.0000   1.0000   1.0000   1.0000   1.0000   1.0000   1.0000   1.0000
     1.0000   1.0000   1.0000   1.0000   1.0000   1.0000   1.0000   1.0000
     1.0000   1.0000   1.0000   1.0000   1.0000   1.0000   1.0000   1.0000
     1.0000   1.0000   1.0000   1.0000   1.0000   1.0000   1.0000   1.0000
     1.0000   1.0000   1.0000   1.0000   1.0000   1.0000   1.0000   1.0000
     1.0000   1.0000   1.0000   1.0000   1.0000   1.0000   1.0000   1.0000
     1.0000   1.0000   1.0000   1.0000   1.0000   1.0000   1.0000   1.0000
     1.0000   1.0000   1.0000   1.0000   1.0000   1.0000   1.0000   1.0000
     1.0000   1.0000   1.0000   1.0000   1.0000   1.0000   1.0000   1.0000
     1.0000   1.0000   1.0000   1.0000   1.0000   1.0000   1.0000   1.0000
     1.0000   1.0000   1.0000   1.0000   1.0000   1.0000   1.0000   1.0000
     1.0000   1.0000   1.0000   1.0000   1.0000   1.0000   1.0000   1.0000
     1.0000   1.0000   1.0000   1.0000   1.0000   1.0000   1.0000   1.0000
     1.0000   1.0000   1.0000   1.0000   1.0000   1.0000   1.0000   1.0000
     1.0000   1.0000   1.0000   1.0000   1.0000   1.0000   1.0000   1.0000
     1.0000   1.0000   1.0000   1.0000   1.0000   1.0000   1.0000   1.0000
     1.0000   1.0000   1.0000   1.0000   1.0000   1.0000   1.0000   1.0000
     1.0000   1.0000   1.0000   1.0000   1.0000   1.0000   1.0000   1.0000
     1.0000   1.0000   1.0000   1.0000   0.0000   0.0000   0.0000   0.0000
     0.0000   0.0000   0.0000   0.0000   0.0000   0.0000   0.0000   0.0000
     0.0000   0.0000   0.0000   0.0000   0.0000   0.0000   0.0000   0.0000
     0.0000   0.0000   0.0000   0.0000   0.0000   0.0000   0.0000   0.0000
     0.0000   0.0000   0.0000   0.0000   0.0000

          k = 0.2357 0.2357 0.3473 ( 48005 PWs)   bands (ev):

   -80.4912 -80.4912 -75.9355 -75.9354 -69.5773 -69.5773 -64.9967 -64.9967
   -46.7215 -46.7215 -46.6085 -46.6085 -46.5156 -46.5156 -41.9664 -41.9664
   -41.8058 -41.8058 -41.7856 -41.7856 -38.6142 -38.6141 -38.4553 -38.4553
   -38.4512 -38.4512 -33.7741 -33.7741 -33.6069 -33.6069 -33.5720 -33.5719
   -30.3588 -30.3549 -30.3511 -30.3474 -15.9425 -15.9048 -15.8712 -15.8421
   -10.8001 -10.7852 -10.7309 -10.7151 -10.6891 -10.6570 -10.5907 -10.5380
   -10.5217 -10.5143 -10.4355 -10.4301  -7.0009  -6.9420  -6.8820  -6.6338
    -6.5574  -6.5000  -6.3864  -6.3011  -6.2887  -6.1868  -6.1504  -6.1353
    -6.1228  -6.0067  -5.9638  -5.9358  -5.8449  -5.8339  -5.8180  -5.7943
    -1.4206  -1.3934  -1.1375  -1.1294  -1.1258  -1.1173  -1.1040  -1.0193
    -0.9765  -0.9672  -0.9367  -0.8557   3.3510   3.4494   3.5629   3.5743
     3.5810   3.5882   3.6066   3.6183   3.6685   3.6866   4.8292   5.1331
     5.3367   5.5835   5.8103   5.8931   5.9299   5.9569   6.0222   6.0356
     6.1184   6.1992   6.2940   6.4511   6.5194   6.5647   6.8000   6.8285
     6.8715   6.9376   7.0171   7.0507   7.1051   7.1420   7.1821   7.2865
     7.3403   7.3838   7.4647   7.5291   7.6098   7.6223   7.7946   7.8466
     7.9232   7.9499   8.0174   8.0722   8.1278   8.1929   8.2313   8.2922
     8.3171   8.3747   8.4945   8.5467   8.6290   8.6771   8.7065   8.8292
     8.8694   8.8763   8.8874   8.9548   9.0100   9.0591   9.1617   9.2107
     9.2163   9.2403   9.2758   9.3110   9.3656   9.4630   9.4852   9.5261
     9.6367  10.0478  10.6892  10.8215  12.3987  12.5335  12.5732  12.6347
    12.8074  12.8538  12.8828  12.9354  13.3990  13.5535  14.1820  14.3085
    14.5930  14.9070  14.9566  15.1920  15.2308  15.3203  15.3310  15.3728
    15.3938  15.4677  15.5638  15.6911  15.7552  15.7719  15.8222  15.9674
    15.9712  16.0652  16.1470  16.1986  16.2502

     occupation numbers 
     1.0000   1.0000   1.0000   1.0000   1.0000   1.0000   1.0000   1.0000
     1.0000   1.0000   1.0000   1.0000   1.0000   1.0000   1.0000   1.0000
     1.0000   1.0000   1.0000   1.0000   1.0000   1.0000   1.0000   1.0000
     1.0000   1.0000   1.0000   1.0000   1.0000   1.0000   1.0000   1.0000
     1.0000   1.0000   1.0000   1.0000   1.0000   1.0000   1.0000   1.0000
     1.0000   1.0000   1.0000   1.0000   1.0000   1.0000   1.0000   1.0000
     1.0000   1.0000   1.0000   1.0000   1.0000   1.0000   1.0000   1.0000
     1.0000   1.0000   1.0000   1.0000   1.0000   1.0000   1.0000   1.0000
     1.0000   1.0000   1.0000   1.0000   1.0000   1.0000   1.0000   1.0000
     1.0000   1.0000   1.0000   1.0000   1.0000   1.0000   1.0000   1.0000
     1.0000   1.0000   1.0000   1.0000   1.0000   1.0000   1.0000   1.0000
     1.0000   1.0000   1.0000   1.0000   1.0000   1.0000   1.0000   1.0000
     1.0000   1.0000   1.0000   1.0000   1.0000   1.0000   1.0000   1.0000
     1.0000   1.0000   1.0000   1.0000   1.0000   1.0000   1.0000   1.0000
     1.0000   1.0000   1.0000   1.0000   1.0000   1.0000   1.0000   1.0000
     1.0000   1.0000   1.0000   1.0000   1.0000   1.0000   1.0000   1.0000
     1.0000   1.0000   1.0000   1.0000   1.0000   1.0000   1.0000   1.0000
     1.0000   1.0000   1.0000   1.0000   1.0000   1.0000   1.0000   1.0000
     1.0000   1.0000   1.0000   1.0000   1.0000   1.0000   1.0000   1.0000
     1.0000   1.0000   1.0000   1.0000   1.0000   1.0000   1.0000   1.0000
     1.0000   1.0000   1.0000   1.0000   0.0000   0.0000   0.0000   0.0000
     0.0000   0.0000   0.0000   0.0000   0.0000   0.0000   0.0000   0.0000
     0.0000   0.0000   0.0000   0.0000   0.0000   0.0000   0.0000   0.0000
     0.0000   0.0000   0.0000   0.0000   0.0000   0.0000   0.0000   0.0000
     0.0000   0.0000   0.0000   0.0000   0.0000

          k = 0.4714 0.0000 0.0000 ( 47988 PWs)   bands (ev):

   -80.4912 -80.4912 -75.9354 -75.9354 -69.5773 -69.5773 -64.9967 -64.9967
   -46.7215 -46.7215 -46.6085 -46.6085 -46.5156 -46.5156 -41.9664 -41.9664
   -41.8058 -41.8058 -41.7856 -41.7856 -38.6141 -38.6141 -38.4553 -38.4553
   -38.4512 -38.4512 -33.7741 -33.7741 -33.6069 -33.6069 -33.5719 -33.5719
   -30.3569 -30.3530 -30.3530 -30.3493 -15.9244 -15.8888 -15.8888 -15.8575
   -10.7187 -10.7089 -10.7089 -10.7043 -10.6869 -10.6327 -10.6295 -10.5689
   -10.5377 -10.5246 -10.5204 -10.5187  -6.9628  -6.9347  -6.7456  -6.5722
    -6.5345  -6.4285  -6.3495  -6.3298  -6.2817  -6.2115  -6.2075  -6.1223
    -6.0944  -6.0780  -6.0504  -5.9818  -5.8854  -5.8751  -5.8126  -5.7871
    -1.4268  -1.1950  -1.1926  -1.1619  -1.1342  -1.1183  -1.1132  -1.1114
    -1.1060  -0.8986  -0.8985  -0.8410   3.4438   3.4465   3.5161   3.5410
     3.5986   3.6041   3.6600   3.6614   3.6755   3.6778   5.1149   5.2706
     5.5173   5.5586   5.7622   5.8369   5.8492   5.9063   5.9573   6.0404
     6.1293   6.1558   6.2899   6.3118   6.4786   6.4930   6.5225   6.6913
     6.9103   6.9143   7.0048   7.0865   7.1099   7.2098   7.2104   7.3168
     7.3645   7.4198   7.4264   7.4750   7.6295   7.6393   7.7290   7.8095
     7.8998   7.9135   8.0882   8.1346   8.1459   8.2073   8.2372   8.2734
     8.3152   8.3165   8.4416   8.5018   8.5224   8.6244   8.6531   8.7155
     8.7583   8.8342   8.8503   8.9040   8.9545   8.9732   8.9933   9.0488
     9.0945   9.1733   9.2913   9.3131   9.3428   9.3581   9.9664  10.0729
    10.1098  10.2709  10.6739  10.8022  12.4212  12.5625  12.6071  12.6188
    12.6347  12.7698  12.8675  12.8702  13.4931  13.5969  14.3331  14.6531
    14.7512  14.9589  14.9893  15.0793  15.1490  15.2014  15.2248  15.3357
    15.4714  15.5249  15.5618  15.5698  15.6601  15.7870  15.7965  15.8648
    15.9654  16.0976  16.1121  16.2387  16.2954

     occupation numbers 
     1.0000   1.0000   1.0000   1.0000   1.0000   1.0000   1.0000   1.0000
     1.0000   1.0000   1.0000   1.0000   1.0000   1.0000   1.0000   1.0000
     1.0000   1.0000   1.0000   1.0000   1.0000   1.0000   1.0000   1.0000
     1.0000   1.0000   1.0000   1.0000   1.0000   1.0000   1.0000   1.0000
     1.0000   1.0000   1.0000   1.0000   1.0000   1.0000   1.0000   1.0000
     1.0000   1.0000   1.0000   1.0000   1.0000   1.0000   1.0000   1.0000
     1.0000   1.0000   1.0000   1.0000   1.0000   1.0000   1.0000   1.0000
     1.0000   1.0000   1.0000   1.0000   1.0000   1.0000   1.0000   1.0000
     1.0000   1.0000   1.0000   1.0000   1.0000   1.0000   1.0000   1.0000
     1.0000   1.0000   1.0000   1.0000   1.0000   1.0000   1.0000   1.0000
     1.0000   1.0000   1.0000   1.0000   1.0000   1.0000   1.0000   1.0000
     1.0000   1.0000   1.0000   1.0000   1.0000   1.0000   1.0000   1.0000
     1.0000   1.0000   1.0000   1.0000   1.0000   1.0000   1.0000   1.0000
     1.0000   1.0000   1.0000   1.0000   1.0000   1.0000   1.0000   1.0000
     1.0000   1.0000   1.0000   1.0000   1.0000   1.0000   1.0000   1.0000
     1.0000   1.0000   1.0000   1.0000   1.0000   1.0000   1.0000   1.0000
     1.0000   1.0000   1.0000   1.0000   1.0000   1.0000   1.0000   1.0000
     1.0000   1.0000   1.0000   1.0000   1.0000   1.0000   1.0000   1.0000
     1.0000   1.0000   1.0000   1.0000   1.0000   1.0000   1.0000   1.0000
     1.0000   1.0000   1.0000   1.0000   1.0000   1.0000   1.0000   1.0000
     1.0000   1.0000   1.0000   1.0000   0.0000   0.0000   0.0000   0.0000
     0.0000   0.0000   0.0000   0.0000   0.0000   0.0000   0.0000   0.0000
     0.0000   0.0000   0.0000   0.0000   0.0000   0.0000   0.0000   0.0000
     0.0000   0.0000   0.0000   0.0000   0.0000   0.0000   0.0000   0.0000
     0.0000   0.0000   0.0000   0.0000   0.0000

          k = 0.4714 0.0000-0.3473 ( 48044 PWs)   bands (ev):

   -80.4912 -80.4912 -75.9355 -75.9354 -69.5773 -69.5773 -64.9967 -64.9967
   -46.7215 -46.7215 -46.6085 -46.6085 -46.5156 -46.5156 -41.9664 -41.9664
   -41.8058 -41.8058 -41.7856 -41.7856 -38.6142 -38.6142 -38.4553 -38.4553
   -38.4512 -38.4512 -33.7741 -33.7741 -33.6069 -33.6069 -33.5719 -33.5719
   -30.3569 -30.3530 -30.3530 -30.3493 -15.9249 -15.8893 -15.8892 -15.8579
   -10.7180 -10.7087 -10.7067 -10.7032 -10.6849 -10.6284 -10.6252 -10.5656
   -10.5379 -10.5246 -10.5201 -10.5188  -6.9503  -6.9306  -6.7800  -6.5768
    -6.5599  -6.4784  -6.4442  -6.3382  -6.2435  -6.1951  -6.1688  -6.1258
    -6.0888  -6.0744  -6.0064  -5.9804  -5.8828  -5.8579  -5.8101  -5.7741
    -1.4242  -1.1931  -1.1897  -1.1589  -1.1350  -1.1223  -1.1188  -1.1156
    -1.1123  -0.8946  -0.8941  -0.8379   3.3971   3.4384   3.5164   3.5265
     3.5970   3.6165   3.6458   3.6597   3.6672   3.6910   5.0107   5.2003
     5.4456   5.5464   5.7927   5.8232   5.8580   5.9302   5.9845   6.0631
     6.1732   6.3162   6.4168   6.4280   6.4568   6.6080   6.6343   6.7647
     6.8350   6.8739   6.9571   7.0604   7.0751   7.1587   7.1931   7.2629
     7.3450   7.3587   7.4372   7.4727   7.5654   7.7096   7.7318   7.8150
     7.8490   7.8977   7.9530   7.9601   8.0413   8.0802   8.1140   8.1336
     8.2679   8.5118   8.5612   8.6096   8.6809   8.7382   8.7622   8.7934
     8.8371   8.8704   8.9200   8.9861   8.9946   9.0648   9.1430   9.1772
     9.2081   9.2618   9.2787   9.2919   9.3307   9.3606   9.7165   9.8754
     9.9943  10.1223  10.6769  10.7784  12.4902  12.5485  12.5665  12.5890
    12.7323  12.8310  12.8682  12.8752  13.4944  13.5814  14.4098  14.6604
    14.7430  14.8126  14.8667  15.1030  15.1553  15.3117  15.3842  15.4096
    15.4485  15.4813  15.5371  15.6232  15.6788  15.7996  15.9185  15.9928
    16.0281  16.0792  16.1476  16.2451  16.2897

     occupation numbers 
     1.0000   1.0000   1.0000   1.0000   1.0000   1.0000   1.0000   1.0000
     1.0000   1.0000   1.0000   1.0000   1.0000   1.0000   1.0000   1.0000
     1.0000   1.0000   1.0000   1.0000   1.0000   1.0000   1.0000   1.0000
     1.0000   1.0000   1.0000   1.0000   1.0000   1.0000   1.0000   1.0000
     1.0000   1.0000   1.0000   1.0000   1.0000   1.0000   1.0000   1.0000
     1.0000   1.0000   1.0000   1.0000   1.0000   1.0000   1.0000   1.0000
     1.0000   1.0000   1.0000   1.0000   1.0000   1.0000   1.0000   1.0000
     1.0000   1.0000   1.0000   1.0000   1.0000   1.0000   1.0000   1.0000
     1.0000   1.0000   1.0000   1.0000   1.0000   1.0000   1.0000   1.0000
     1.0000   1.0000   1.0000   1.0000   1.0000   1.0000   1.0000   1.0000
     1.0000   1.0000   1.0000   1.0000   1.0000   1.0000   1.0000   1.0000
     1.0000   1.0000   1.0000   1.0000   1.0000   1.0000   1.0000   1.0000
     1.0000   1.0000   1.0000   1.0000   1.0000   1.0000   1.0000   1.0000
     1.0000   1.0000   1.0000   1.0000   1.0000   1.0000   1.0000   1.0000
     1.0000   1.0000   1.0000   1.0000   1.0000   1.0000   1.0000   1.0000
     1.0000   1.0000   1.0000   1.0000   1.0000   1.0000   1.0000   1.0000
     1.0000   1.0000   1.0000   1.0000   1.0000   1.0000   1.0000   1.0000
     1.0000   1.0000   1.0000   1.0000   1.0000   1.0000   1.0000   1.0000
     1.0000   1.0000   1.0000   1.0000   1.0000   1.0000   1.0000   1.0000
     1.0000   1.0000   1.0000   1.0000   1.0000   1.0000   1.0000   1.0000
     1.0000   1.0000   1.0000   1.0000   0.0000   0.0000   0.0000   0.0000
     0.0000   0.0000   0.0000   0.0000   0.0000   0.0000   0.0000   0.0000
     0.0000   0.0000   0.0000   0.0000   0.0000   0.0000   0.0000   0.0000
     0.0000   0.0000   0.0000   0.0000   0.0000   0.0000   0.0000   0.0000
     0.0000   0.0000   0.0000   0.0000   0.0000

     the Fermi energy is    11.6627 ev

!    total energy              =   -3088.78183575 Ry
     estimated scf accuracy    <       0.00000022 Ry
     smearing contrib. (-TS)   =      -0.00000000 Ry
     internal energy E=F+TS    =   -3088.78183575 Ry

     The total energy is F=E-TS. E is the sum of the following terms:
     one-electron contribution =   -1465.43031031 Ry
     hartree contribution      =     911.45035811 Ry
     xc contribution           =    -575.33342016 Ry
     ewald contribution        =   -1960.11463469 Ry
     Hubbard energy            =       0.64617130 Ry

     total magnetization       =    -0.00 Bohr mag/cell
     absolute magnetization    =    38.59 Bohr mag/cell

     convergence has been achieved in  15 iterations

     Writing all to output data dir /tmp/scratch/single/single.save/ :
     XML data file, charge density, pseudopotentials, collected wavefunctions

     init_run     :     13.27s CPU     14.35s WALL (       1 calls)
     electrons    :    410.80s CPU    446.67s WALL (       1 calls)

     Called by init_run:
     wfcinit      :     11.10s CPU     11.97s WALL (       1 calls)
     wfcinit:atom :      0.08s CPU      0.09s WALL (       2 calls)
     wfcinit:wfcr :      8.40s CPU      9.11s WALL (       2 calls)
     potinit      :      0.77s CPU      0.88s WALL (       1 calls)
     hinit0       :      1.11s CPU      1.15s WALL (       1 calls)

     Called by electrons:
     c_bands      :    341.34s CPU    370.25s WALL (      15 calls)
     sum_band     :     53.14s CPU     58.97s WALL (      15 calls)
     v_of_rho     :      5.58s CPU      6.11s WALL (      16 calls)
     v_h          :      0.20s CPU      0.21s WALL (      16 calls)
     v_xc         :      5.38s CPU      5.89s WALL (      16 calls)
     mix_rho      :      5.87s CPU      6.36s WALL (      15 calls)

     Called by c_bands:
     init_us_2    :      4.34s CPU      4.47s WALL (      64 calls)
     cegterg      :    319.45s CPU    347.49s WALL (      30 calls)

     Called by sum_band:
     sum_band:wei :      0.03s CPU      0.03s WALL (      15 calls)
     sum_band:loo :     47.96s CPU     52.92s WALL (      15 calls)
     sum_band:buf :      0.73s CPU      0.78s WALL (      30 calls)
     sum_band:ini :      1.95s CPU      2.02s WALL (      30 calls)

     Called by *egterg:
     cdiaghg      :      5.19s CPU      5.43s WALL (     136 calls)
     cegterg:over :     23.58s CPU     24.59s WALL (     106 calls)
     cegterg:upda :     13.19s CPU     13.73s WALL (     106 calls)
     cegterg:last :     22.31s CPU     23.21s WALL (      58 calls)
     h_psi        :    251.15s CPU    276.59s WALL (     138 calls)
     g_psi        :      1.01s CPU      1.07s WALL (     106 calls)

     Called by h_psi:
     h_psi:calbec :     31.64s CPU     32.79s WALL (     138 calls)
     vloc_psi     :    182.16s CPU    204.90s WALL (     138 calls)
                                        0.00s GPU  (     138 calls)
     add_vuspsi   :     29.84s CPU     30.94s WALL (     138 calls)
     vhpsi        :      6.14s CPU      6.47s WALL (     138 calls)

     General routines
     calbec       :     36.49s CPU     37.91s WALL (     308 calls)
     fft          :      2.77s CPU      3.15s WALL (     302 calls)
     ffts         :      3.26s CPU      3.50s WALL (     478 calls)
     fftw         :    187.51s CPU    215.13s WALL (   35034 calls)

     Parallel routines

     Hubbard U routines
     new_ns       :      1.57s CPU      1.67s WALL (      15 calls)
     vhpsi        :      6.14s CPU      6.47s WALL (     138 calls)

     PWSCF        :   7m 5.03s CPU   7m42.98s WALL


   This run was terminated on:   7:59:17   2Oct2026            

=------------------------------------------------------------------------------=
   JOB DONE.
=------------------------------------------------------------------------------=
