YBaMnFeO5 rock-salt P4/n PBE+U(4) 110 Ry G-type
1.0
   5.6649076389999999    0.0000000000000000    0.0000000000000000
   0.0000000000000000    5.6649076389999999    0.0000000000000000
   0.0000000000000000    0.0000000000000000    7.6888007470000002
Ba Y Mn Fe O
2 2 2 2 10
direct
   0.0000000000000000    0.0000000000000000    0.0000000000000000 Ba
   0.4999999999999999    0.4999999999999999    0.0000000000000000 Ba
   0.0000000000000000    0.0000000000000000    0.5000000000000000 Y
   0.4999999999999999    0.4999999999999999    0.5000000000000000 Y
   0.0000000000000000    0.4999999999999999    0.2609281910000000 Mn
   0.4999999999999999    0.0000000000000000    0.7390718090000000 Mn
   0.4999999999999999    0.0000000000000000    0.2582800762000000 Fe
   0.0000000000000000    0.4999999999999999    0.7417199238000000 Fe
   0.4999999999999999    0.0000000000000000    0.0087667597000000 O
   0.0000000000000000    0.4999999999999999    0.9912332403000000 O
   0.2144486721000000    0.2287493029000000    0.6857868636000000 O
   0.7855513279000000    0.7712506970999999    0.6857868636000000 O
   0.2712506970999999    0.7144486721000000    0.6857868636000000 O
   0.7287493028999998    0.2855513279000000    0.6857868636000000 O
   0.2855513279000000    0.2712506970999999    0.3142131364000000 O
   0.7144486721000000    0.7287493028999998    0.3142131364000000 O
   0.2287493029000000    0.7855513279000000    0.3142131364000000 O
   0.7712506970999999    0.2144486721000000    0.3142131364000000 O
