
     Program PWSCF v.7.5 starts on  2Oct2026 at  7:42:18 

     This program is part of the open-source Quantum ESPRESSO suite
     for quantum simulation of materials; please cite
         "P. Giannozzi et al., J. Phys.:Condens. Matter 21 395502 (2009);
         "P. Giannozzi et al., J. Phys.:Condens. Matter 29 465901 (2017);
         "P. Giannozzi et al., J. Chem. Phys. 152 154105 (2020);
          URL http://www.quantum-espresso.org", 
     in publications or presentations arising from this work. More details at
     http://www.quantum-espresso.org/quote

     Parallel version (MPI & OpenMP), running on      32 processor cores
     Number of MPI processes:                32
     Threads/MPI process:                     1

     MPI processes distributed on     1 nodes
     695523 MiB available memory on the printing compute node when the environment starts

     Reading input from single.in

     Current dimensions of program PWSCF are:
     Max number of different atomic species (ntypx) = 10
     Max number of k-points (npk) =  40000
     Max angular momentum in pseudopotentials (lmaxx) =  4
     Message from routine setup:
     using ibrav=0 with symmetry is DISCOURAGED, use correct ibrav instead

     K-points division:     npool     =      16
     R & G space division:  proc/nbgrp/npool/nimage =       2
     Subspace diagonalization in iterative solution of the eigenvalue problem:
     a serial algorithm will be used


     Parallelization info
     --------------------
     sticks:   dense  smooth     PW     G-vecs:    dense   smooth      PW
     Min        1648    1648    442                96150    96150   13726
     Max        1649    1649    443                96153    96153   13731
     Sum        3297    3297    885               192303   192303   27457

     Using Slab Decomposition



     bravais-lattice index     =            0
     lattice parameter (alat)  =      10.7051  a.u.
     unit-cell volume          =    1665.1021 (a.u.)^3
     number of atoms/cell      =           18
     number of atomic types    =            6
     number of electrons       =       164.00
     number of Kohn-Sham states=           98
     kinetic-energy cutoff     =      90.0000  Ry
     charge density cutoff     =     360.0000  Ry
     scf convergence threshold =      1.8E-07
     mixing beta               =       0.3000
     number of iterations used =            8  local-TF  mixing
     Exchange-correlation= PBE
                           (   1   4   3   4   0   0   0)
     Hubbard projectors: ortho-atomic
     Hubbard parameters of DFT+U (Dudarev formulation) in eV:
     U(Mn-3d) =  4.0000
     U(Fe-3d) =  4.0000
     U(Fe1-3d) =  4.0000

     Internal variables: lda_plus_u =T, lda_plus_u_kind = 0

     Internal variables: orbital_resolved =F, hub_pot_fix =F, apply_U = F

     celldm(1)=  10.705124  celldm(2)=   0.000000  celldm(3)=   0.000000
     celldm(4)=   0.000000  celldm(5)=   0.000000  celldm(6)=   0.000000

     crystal axes: (cart. coord. in units of alat)
               a(1) = (   1.000000   0.000000   0.000000 )  
               a(2) = (   0.000000   1.000000   0.000000 )  
               a(3) = (   0.000000   0.000000   1.357269 )  

     reciprocal axes: (cart. coord. in units 2 pi/alat)
               b(1) = (  1.000000  0.000000  0.000000 )  
               b(2) = (  0.000000  1.000000  0.000000 )  
               b(3) = (  0.000000  0.000000  0.736774 )  


     PseudoPot. # 1 for Ba read from file:
     /data/pseudo/dojo_sr/Ba.upf
     MD5 check sum: d1993ebf099ea5c29fdb9ecc5bd2bc91
     Pseudo is Norm-conserving + core correction, Zval = 10.0
     Generated using ONCVPSP code by D. R. Hamann
     Using radial grid of 1958 points,  6 beta functions with: 
                l(1) =   0
                l(2) =   0
                l(3) =   1
                l(4) =   1
                l(5) =   2
                l(6) =   2

     PseudoPot. # 2 for Y  read from file:
     /data/pseudo/dojo_sr/Y.upf
     MD5 check sum: 28b7a77fe5d3539441de961898735449
     Pseudo is Norm-conserving + core correction, Zval = 11.0
     Generated using ONCVPSP code by D. R. Hamann
     Using radial grid of 1766 points,  6 beta functions with: 
                l(1) =   0
                l(2) =   0
                l(3) =   1
                l(4) =   1
                l(5) =   2
                l(6) =   2

     PseudoPot. # 3 for Mn read from file:
     /data/pseudo/dojo_sr/Mn.upf
     MD5 check sum: ae71e1481ef25a952ba54bed1e0db183
     Pseudo is Norm-conserving + core correction, Zval = 15.0
     Generated using ONCVPSP code by D. R. Hamann
     Using radial grid of 1464 points,  6 beta functions with: 
                l(1) =   0
                l(2) =   0
                l(3) =   1
                l(4) =   1
                l(5) =   2
                l(6) =   2

     PseudoPot. # 4 for Fe read from file:
     /data/pseudo/dojo_sr/Fe.upf
     MD5 check sum: a5f07f5dca5be6cacb81ceb54992e4ae
     Pseudo is Norm-conserving + core correction, Zval = 16.0
     Generated using ONCVPSP code by D. R. Hamann
     Using radial grid of 1426 points,  6 beta functions with: 
                l(1) =   0
                l(2) =   0
                l(3) =   1
                l(4) =   1
                l(5) =   2
                l(6) =   2

     PseudoPot. # 5 for Fe read from file:
     /data/pseudo/dojo_sr/Fe.upf
     MD5 check sum: a5f07f5dca5be6cacb81ceb54992e4ae
     Pseudo is Norm-conserving + core correction, Zval = 16.0
     Generated using ONCVPSP code by D. R. Hamann
     Using radial grid of 1426 points,  6 beta functions with: 
                l(1) =   0
                l(2) =   0
                l(3) =   1
                l(4) =   1
                l(5) =   2
                l(6) =   2

     PseudoPot. # 6 for O  read from file:
     /data/pseudo/dojo_sr/O.upf
     MD5 check sum: 3e3f909f7470e8921608ab6b1f57bbae
     Pseudo is Norm-conserving + core correction, Zval =  6.0
     Generated using ONCVPSP code by D. R. Hamann
     Using radial grid of  936 points,  5 beta functions with: 
                l(1) =   0
                l(2) =   0
                l(3) =   1
                l(4) =   1
                l(5) =   2

     atomic species   valence    mass     pseudopotential
     Ba               10.00   137.32700     Ba( 1.00)
     Y                11.00    88.90580     Y ( 1.00)
     Mn               15.00    54.93800     Mn( 1.00)
     Fe               16.00    55.84500     Fe( 1.00)
     Fe1              16.00    55.84500     Fe( 1.00)
     O                 6.00    15.99900     O ( 1.00)

     Starting magnetic structure 
     atomic species   magnetization
     Ba              0.000
     Y               0.000
     Mn              0.300
     Fe             -0.263
     Fe1             0.263
     O               0.000

      4 Sym. Ops. (no inversion) found ( 2 have fractional translation)


                                    s                        frac. trans.

      isym =  1     identity                                     

 cryst.   s( 1) = (     1          0          0      )
                  (     0          1          0      )
                  (     0          0          1      )

 cart.    s( 1) = (  1.0000000  0.0000000  0.0000000 )
                  (  0.0000000  1.0000000  0.0000000 )
                  (  0.0000000  0.0000000  1.0000000 )


      isym =  2     180 deg rotation - cart. axis [0,0,1]        

 cryst.   s( 2) = (    -1          0          0      )
                  (     0         -1          0      )
                  (     0          0          1      )

 cart.    s( 2) = ( -1.0000000  0.0000000  0.0000000 )
                  (  0.0000000 -1.0000000  0.0000000 )
                  (  0.0000000  0.0000000  1.0000000 )


      isym =  3      90 deg rotation - cart. axis [0,0,-1]       

 cryst.   s( 3) = (     0         -1          0      )    f =( -0.5000000 )
                  (     1          0          0      )       (  0.5000000 )
                  (     0          0          1      )       (  0.0000000 )

 cart.    s( 3) = (  0.0000000  1.0000000  0.0000000 )    f =( -0.5000000 )
                  ( -1.0000000  0.0000000  0.0000000 )       (  0.5000000 )
                  (  0.0000000  0.0000000  1.0000000 )       (  0.0000000 )


      isym =  4      90 deg rotation - cart. axis [0,0,1]        

 cryst.   s( 4) = (     0          1          0      )    f =(  0.5000000 )
                  (    -1          0          0      )       ( -0.5000000 )
                  (     0          0          1      )       (  0.0000000 )

 cart.    s( 4) = (  0.0000000 -1.0000000  0.0000000 )    f =(  0.5000000 )
                  (  1.0000000  0.0000000  0.0000000 )       ( -0.5000000 )
                  (  0.0000000  0.0000000  1.0000000 )       (  0.0000000 )


   Cartesian axes

     site n.     atom                  positions (alat units)
         1        Ba     tau(   1) = (   0.0000000   0.0000000   0.0000000  )
         2        Ba     tau(   2) = (   0.5000000   0.5000000   0.0000000  )
         3        Y      tau(   3) = (   0.0000000   0.0000000   0.6786343  )
         4        Y      tau(   4) = (   0.5000000   0.5000000   0.6786343  )
         5        Mn     tau(   5) = (   0.0000000   0.5000000   0.3541496  )
         6        Mn     tau(   6) = (   0.5000000   0.0000000   1.0031189  )
         7        Fe     tau(   7) = (   0.5000000   0.0000000   0.3505554  )
         8        Fe1    tau(   8) = (   0.0000000   0.5000000   1.0067131  )
         9        O      tau(   9) = (   0.5000000   0.0000000   0.0118988  )
        10        O      tau(  10) = (   0.0000000   0.5000000   1.3453697  )
        11        O      tau(  11) = (   0.2144487   0.2287493   0.9307969  )
        12        O      tau(  12) = (   0.7855513   0.7712507   0.9307969  )
        13        O      tau(  13) = (   0.2712507   0.7144487   0.9307969  )
        14        O      tau(  14) = (   0.7287493   0.2855513   0.9307969  )
        15        O      tau(  15) = (   0.2855513   0.2712507   0.4264716  )
        16        O      tau(  16) = (   0.7144487   0.7287493   0.4264716  )
        17        O      tau(  17) = (   0.2287493   0.7855513   0.4264716  )
        18        O      tau(  18) = (   0.7712507   0.2144487   0.4264716  )

   Crystallographic axes

     site n.     atom                  positions (cryst. coord.)
         1        Ba     tau(   1) = (  0.0000000  0.0000000  0.0000000  )
         2        Ba     tau(   2) = (  0.5000000  0.5000000  0.0000000  )
         3        Y      tau(   3) = (  0.0000000  0.0000000  0.5000000  )
         4        Y      tau(   4) = (  0.5000000  0.5000000  0.5000000  )
         5        Mn     tau(   5) = (  0.0000000  0.5000000  0.2609282  )
         6        Mn     tau(   6) = (  0.5000000  0.0000000  0.7390718  )
         7        Fe     tau(   7) = (  0.5000000  0.0000000  0.2582801  )
         8        Fe1    tau(   8) = (  0.0000000  0.5000000  0.7417199  )
         9        O      tau(   9) = (  0.5000000  0.0000000  0.0087668  )
        10        O      tau(  10) = (  0.0000000  0.5000000  0.9912332  )
        11        O      tau(  11) = (  0.2144487  0.2287493  0.6857869  )
        12        O      tau(  12) = (  0.7855513  0.7712507  0.6857869  )
        13        O      tau(  13) = (  0.2712507  0.7144487  0.6857869  )
        14        O      tau(  14) = (  0.7287493  0.2855513  0.6857869  )
        15        O      tau(  15) = (  0.2855513  0.2712507  0.3142131  )
        16        O      tau(  16) = (  0.7144487  0.7287493  0.3142131  )
        17        O      tau(  17) = (  0.2287493  0.7855513  0.3142131  )
        18        O      tau(  18) = (  0.7712507  0.2144487  0.3142131  )

     number of k points=    12  Gaussian smearing, width (Ry)=  0.0050
                       cart. coord. in units 2pi/alat
        k(    1) = (   0.0000000   0.0000000   0.0000000), wk =   0.0208333
        k(    2) = (   0.0000000   0.0000000   0.2455913), wk =   0.0416667
        k(    3) = (   0.0000000   0.2500000   0.0000000), wk =   0.0833333
        k(    4) = (   0.0000000   0.2500000   0.2455913), wk =   0.1666667
        k(    5) = (   0.0000000  -0.5000000   0.0000000), wk =   0.0416667
        k(    6) = (   0.0000000  -0.5000000   0.2455913), wk =   0.0833333
        k(    7) = (   0.2500000   0.2500000   0.0000000), wk =   0.0833333
        k(    8) = (   0.2500000   0.2500000   0.2455913), wk =   0.1666667
        k(    9) = (   0.2500000  -0.5000000   0.0000000), wk =   0.0833333
        k(   10) = (   0.2500000  -0.5000000   0.2455913), wk =   0.1666667
        k(   11) = (  -0.5000000  -0.5000000   0.0000000), wk =   0.0208333
        k(   12) = (  -0.5000000  -0.5000000   0.2455913), wk =   0.0416667

                       cryst. coord.
        k(    1) = (   0.0000000   0.0000000   0.0000000), wk =   0.0208333
        k(    2) = (   0.0000000   0.0000000   0.3333333), wk =   0.0416667
        k(    3) = (   0.0000000   0.2500000   0.0000000), wk =   0.0833333
        k(    4) = (   0.0000000   0.2500000   0.3333333), wk =   0.1666667
        k(    5) = (   0.0000000  -0.5000000   0.0000000), wk =   0.0416667
        k(    6) = (   0.0000000  -0.5000000   0.3333333), wk =   0.0833333
        k(    7) = (   0.2500000   0.2500000   0.0000000), wk =   0.0833333
        k(    8) = (   0.2500000   0.2500000   0.3333333), wk =   0.1666667
        k(    9) = (   0.2500000  -0.5000000   0.0000000), wk =   0.0833333
        k(   10) = (   0.2500000  -0.5000000   0.3333333), wk =   0.1666667
        k(   11) = (  -0.5000000  -0.5000000   0.0000000), wk =   0.0208333
        k(   12) = (  -0.5000000  -0.5000000   0.3333333), wk =   0.0416667

     Dense  grid:   192303 G-vectors     FFT dimensions: (  72,  72,  90)

     Dynamical RAM for                 wfc:      17.95 MB

     Dynamical RAM for     wfc (w. buffer):      53.85 MB

     Dynamical RAM for             U proj.:       3.66 MB

     Dynamical RAM for  U proj. (w. buff.):      10.99 MB

     Dynamical RAM for           str. fact:       8.80 MB

     Dynamical RAM for           local pot:       0.00 MB

     Dynamical RAM for          nlocal pot:      50.19 MB

     Dynamical RAM for                qrad:       9.14 MB

     Dynamical RAM for          rho,v,vnew:      19.48 MB

     Dynamical RAM for               rhoin:       6.49 MB

     Dynamical RAM for            rho*nmix:      46.95 MB

     Dynamical RAM for           G-vectors:       6.24 MB

     Dynamical RAM for          h,s,v(r/c):       1.76 MB

     Dynamical RAM for          <psi|beta>:       0.41 MB

     Dynamical RAM for                 psi:      35.90 MB

     Dynamical RAM for                hpsi:      35.90 MB

     Dynamical RAM for      wfcinit/wfcrot:      36.12 MB

     Estimated static dynamical RAM per process >     186.13 MB

     Estimated max dynamical RAM per process >     307.05 MB

     Estimated total dynamical RAM >       8.22 GB
     Generating pointlists ...
     new r_m :   0.2063 (alat units)  2.2086 (a.u.) for type    1
     new r_m :   0.1660 (alat units)  1.7768 (a.u.) for type    2
     new r_m :   0.1510 (alat units)  1.6164 (a.u.) for type    3
     new r_m :   0.1397 (alat units)  1.4955 (a.u.) for type    4
     new r_m :   0.1397 (alat units)  1.4955 (a.u.) for type    5
     new r_m :   0.1397 (alat units)  1.4955 (a.u.) for type    6

     Initial potential from superposition of free atoms

     starting charge     163.9561, renormalised to     164.0000

     HUBBARD ENERGY =    0.2352  (Ry)

     STARTING HUBBARD OCCUPATIONS:

     =================== HUBBARD OCCUPATIONS ===================
     ------------------------ ATOM    5 ------------------------
     Tr[ns(  5)] (up, down, total) =   5.00000  0.00000  5.00000
     Atomic magnetic moment for atom   5 =   5.00000
     SPIN  1
     eigenvalues:
       1.000  1.000  1.000  1.000  1.000
     eigenvectors (columns):
       1.000  0.000  0.000  0.000  0.000
       0.000  1.000  0.000  0.000  0.000
       0.000  0.000  1.000  0.000  0.000
       0.000  0.000  0.000  1.000  0.000
       0.000  0.000  0.000  0.000  1.000
     occupation matrix ns (before diag.):
       1.000  0.000  0.000  0.000  0.000
       0.000  1.000  0.000  0.000  0.000
       0.000  0.000  1.000  0.000  0.000
       0.000  0.000  0.000  1.000  0.000
       0.000  0.000  0.000  0.000  1.000
     SPIN  2
     eigenvalues:
       0.000  0.000  0.000  0.000  0.000
     eigenvectors (columns):
       1.000  0.000  0.000  0.000  0.000
       0.000  1.000  0.000  0.000  0.000
       0.000  0.000  1.000  0.000  0.000
       0.000  0.000  0.000  1.000  0.000
       0.000  0.000  0.000  0.000  1.000
     occupation matrix ns (before diag.):
       0.000  0.000  0.000  0.000  0.000
       0.000  0.000  0.000  0.000  0.000
       0.000  0.000  0.000  0.000  0.000
       0.000  0.000  0.000  0.000  0.000
       0.000  0.000  0.000  0.000  0.000
     ------------------------ ATOM    6 ------------------------
     Tr[ns(  6)] (up, down, total) =   5.00000  0.00000  5.00000
     Atomic magnetic moment for atom   6 =   5.00000
     SPIN  1
     eigenvalues:
       1.000  1.000  1.000  1.000  1.000
     eigenvectors (columns):
       1.000  0.000  0.000  0.000  0.000
       0.000  1.000  0.000  0.000  0.000
       0.000  0.000  1.000  0.000  0.000
       0.000  0.000  0.000  1.000  0.000
       0.000  0.000  0.000  0.000  1.000
     occupation matrix ns (before diag.):
       1.000  0.000  0.000  0.000  0.000
       0.000  1.000  0.000  0.000  0.000
       0.000  0.000  1.000  0.000  0.000
       0.000  0.000  0.000  1.000  0.000
       0.000  0.000  0.000  0.000  1.000
     SPIN  2
     eigenvalues:
       0.000  0.000  0.000  0.000  0.000
     eigenvectors (columns):
       1.000  0.000  0.000  0.000  0.000
       0.000  1.000  0.000  0.000  0.000
       0.000  0.000  1.000  0.000  0.000
       0.000  0.000  0.000  1.000  0.000
       0.000  0.000  0.000  0.000  1.000
     occupation matrix ns (before diag.):
       0.000  0.000  0.000  0.000  0.000
       0.000  0.000  0.000  0.000  0.000
       0.000  0.000  0.000  0.000  0.000
       0.000  0.000  0.000  0.000  0.000
       0.000  0.000  0.000  0.000  0.000
     ------------------------ ATOM    7 ------------------------
     Tr[ns(  7)] (up, down, total) =   1.00000  5.00000  6.00000
     Atomic magnetic moment for atom   7 =  -4.00000
     SPIN  1
     eigenvalues:
       0.200  0.200  0.200  0.200  0.200
     eigenvectors (columns):
       1.000  0.000  0.000  0.000  0.000
       0.000  1.000  0.000  0.000  0.000
       0.000  0.000  1.000  0.000  0.000
       0.000  0.000  0.000  1.000  0.000
       0.000  0.000  0.000  0.000  1.000
     occupation matrix ns (before diag.):
       0.200  0.000  0.000  0.000  0.000
       0.000  0.200  0.000  0.000  0.000
       0.000  0.000  0.200  0.000  0.000
       0.000  0.000  0.000  0.200  0.000
       0.000  0.000  0.000  0.000  0.200
     SPIN  2
     eigenvalues:
       1.000  1.000  1.000  1.000  1.000
     eigenvectors (columns):
       1.000  0.000  0.000  0.000  0.000
       0.000  1.000  0.000  0.000  0.000
       0.000  0.000  1.000  0.000  0.000
       0.000  0.000  0.000  1.000  0.000
       0.000  0.000  0.000  0.000  1.000
     occupation matrix ns (before diag.):
       1.000  0.000  0.000  0.000  0.000
       0.000  1.000  0.000  0.000  0.000
       0.000  0.000  1.000  0.000  0.000
       0.000  0.000  0.000  1.000  0.000
       0.000  0.000  0.000  0.000  1.000
     ------------------------ ATOM    8 ------------------------
     Tr[ns(  8)] (up, down, total) =   5.00000  1.00000  6.00000
     Atomic magnetic moment for atom   8 =   4.00000
     SPIN  1
     eigenvalues:
       1.000  1.000  1.000  1.000  1.000
     eigenvectors (columns):
       1.000  0.000  0.000  0.000  0.000
       0.000  1.000  0.000  0.000  0.000
       0.000  0.000  1.000  0.000  0.000
       0.000  0.000  0.000  1.000  0.000
       0.000  0.000  0.000  0.000  1.000
     occupation matrix ns (before diag.):
       1.000  0.000  0.000  0.000  0.000
       0.000  1.000  0.000  0.000  0.000
       0.000  0.000  1.000  0.000  0.000
       0.000  0.000  0.000  1.000  0.000
       0.000  0.000  0.000  0.000  1.000
     SPIN  2
     eigenvalues:
       0.200  0.200  0.200  0.200  0.200
     eigenvectors (columns):
       1.000  0.000  0.000  0.000  0.000
       0.000  1.000  0.000  0.000  0.000
       0.000  0.000  1.000  0.000  0.000
       0.000  0.000  0.000  1.000  0.000
       0.000  0.000  0.000  0.000  1.000
     occupation matrix ns (before diag.):
       0.200  0.000  0.000  0.000  0.000
       0.000  0.200  0.000  0.000  0.000
       0.000  0.000  0.200  0.000  0.000
       0.000  0.000  0.000  0.200  0.000
       0.000  0.000  0.000  0.000  0.200

     Number of occupied Hubbard levels =   22.0000

     Atomic wfc used for Hubbard projectors are orthogonalized

     Starting wfcs are  110 randomized atomic wfcs

     total cpu time spent up to now is        4.2 secs

     per-process dynamical memory:   190.1 Mb

     Self-consistent Calculation

     iteration #  1     ecut=    90.00 Ry     beta= 0.30
     Davidson diagonalization with overlap

---- Real-time Memory Report at c_bands before calling an iterative solver
           353 MiB given to the printing process from OS
           191 MiB allocation reported by mallinfo(arena+hblkhd)
        690066 MiB available memory on the node where the printing process lives
------------------
     ethr =  1.00E-02,  avg # of iterations =  3.1

     =================== HUBBARD OCCUPATIONS ===================
     ------------------------ ATOM    5 ------------------------
     Tr[ns(  5)] (up, down, total) =   4.96042  0.20862  5.16904
     Atomic magnetic moment for atom   5 =   4.75179
     SPIN  1
     eigenvalues:
       0.983  0.991  0.995  0.995  0.996
     eigenvectors (columns):
      -1.000  0.000 -0.000  0.000 -0.000
      -0.000 -0.000  0.572  0.820 -0.000
      -0.000 -0.000  0.820 -0.572 -0.000
       0.000 -0.187 -0.000  0.000 -0.982
       0.000  0.982 -0.000 -0.000 -0.187
     occupation matrix ns (before diag.):
       0.983 -0.000 -0.000  0.000  0.000
      -0.000  0.995 -0.000  0.000  0.000
      -0.000 -0.000  0.995  0.000  0.000
       0.000  0.000  0.000  0.996  0.001
       0.000  0.000  0.000  0.001  0.991
     SPIN  2
     eigenvalues:
       0.026  0.027  0.027  0.049  0.080
     eigenvectors (columns):
      -0.000 -0.000  0.000  1.000  0.000
      -0.000 -0.477 -0.879 -0.000  0.000
      -0.000 -0.879  0.477 -0.000  0.000
       0.975 -0.000 -0.000  0.000 -0.224
       0.224 -0.000 -0.000 -0.000  0.975
     occupation matrix ns (before diag.):
       0.049 -0.000 -0.000  0.000  0.000
      -0.000  0.027 -0.000  0.000  0.000
      -0.000 -0.000  0.027  0.000  0.000
       0.000  0.000  0.000  0.028 -0.012
       0.000  0.000  0.000 -0.012  0.078
     ------------------------ ATOM    6 ------------------------
     Tr[ns(  6)] (up, down, total) =   4.96233  0.20178  5.16411
     Atomic magnetic moment for atom   6 =   4.76056
     SPIN  1
     eigenvalues:
       0.980  0.995  0.995  0.995  0.997
     eigenvectors (columns):
      -1.000  0.000 -0.000  0.000 -0.000
      -0.000 -0.550  0.835  0.000 -0.000
      -0.000 -0.835 -0.550  0.000 -0.000
       0.000  0.000  0.000  0.075 -0.997
       0.000  0.000  0.000  0.997  0.075
     occupation matrix ns (before diag.):
       0.980 -0.000 -0.000  0.000  0.000
      -0.000  0.995 -0.000  0.000  0.000
      -0.000 -0.000  0.995  0.000  0.000
       0.000  0.000  0.000  0.997 -0.000
       0.000  0.000  0.000 -0.000  0.995
     SPIN  2
     eigenvalues:
       0.024  0.025  0.025  0.052  0.075
     eigenvectors (columns):
      -0.000 -0.000  0.000  1.000  0.000
      -0.000 -0.568 -0.823 -0.000  0.000
      -0.000 -0.823  0.568 -0.000  0.000
       0.979 -0.000  0.000  0.000 -0.203
       0.203 -0.000 -0.000 -0.000  0.979
     occupation matrix ns (before diag.):
       0.052 -0.000 -0.000  0.000  0.000
      -0.000  0.025 -0.000  0.000  0.000
      -0.000 -0.000  0.025  0.000  0.000
       0.000  0.000  0.000  0.026 -0.010
       0.000  0.000  0.000 -0.010  0.073
     ------------------------ ATOM    7 ------------------------
     Tr[ns(  7)] (up, down, total) =   0.35551  4.96574  5.32126
     Atomic magnetic moment for atom   7 =  -4.61023
     SPIN  1
     eigenvalues:
       0.041  0.052  0.052  0.089  0.122
     eigenvectors (columns):
      -0.000 -0.000 -0.000 -1.000  0.000
      -0.000 -0.687  0.726  0.000  0.000
      -0.000 -0.726 -0.687  0.000  0.000
       0.970 -0.000  0.000  0.000  0.242
      -0.242  0.000  0.000  0.000  0.970
     occupation matrix ns (before diag.):
       0.089 -0.000 -0.000  0.000  0.000
      -0.000  0.052 -0.000  0.000  0.000
      -0.000 -0.000  0.052  0.000  0.000
       0.000  0.000  0.000  0.046  0.019
       0.000  0.000  0.000  0.019  0.117
     SPIN  2
     eigenvalues:
       0.983  0.993  0.996  0.996  0.997
     eigenvectors (columns):
       1.000  0.000 -0.000  0.000 -0.000
       0.000 -0.000  0.622 -0.783 -0.000
       0.000 -0.000  0.783  0.622 -0.000
      -0.000  0.177 -0.000  0.000 -0.984
      -0.000  0.984  0.000  0.000  0.177
     occupation matrix ns (before diag.):
       0.983 -0.000 -0.000  0.000  0.000
      -0.000  0.996 -0.000  0.000  0.000
      -0.000 -0.000  0.996  0.000  0.000
       0.000  0.000  0.000  0.997 -0.001
       0.000  0.000  0.000 -0.001  0.993
     ------------------------ ATOM    8 ------------------------
     Tr[ns(  8)] (up, down, total) =   4.97178  0.32289  5.29467
     Atomic magnetic moment for atom   8 =   4.64888
     SPIN  1
     eigenvalues:
       0.986  0.994  0.997  0.997  0.998
     eigenvectors (columns):
       1.000  0.000 -0.000 -0.000 -0.000
       0.000 -0.000  0.633 -0.774 -0.000
       0.000 -0.000  0.774  0.633 -0.000
      -0.000  0.168 -0.000  0.000 -0.986
      -0.000  0.986  0.000  0.000  0.168
     occupation matrix ns (before diag.):
       0.986 -0.000 -0.000  0.000  0.000
      -0.000  0.997 -0.000  0.000  0.000
      -0.000 -0.000  0.997  0.000  0.000
       0.000  0.000  0.000  0.998 -0.001
       0.000  0.000  0.000 -0.001  0.994
     SPIN  2
     eigenvalues:
       0.038  0.045  0.045  0.080  0.114
     eigenvectors (columns):
      -0.000 -0.000 -0.000 -1.000  0.000
      -0.000 -0.508  0.861  0.000  0.000
      -0.000 -0.861 -0.508  0.000  0.000
       0.976 -0.000  0.000  0.000  0.220
      -0.220  0.000  0.000  0.000  0.976
     occupation matrix ns (before diag.):
       0.080 -0.000 -0.000  0.000  0.000
      -0.000  0.045 -0.000  0.000  0.000
      -0.000 -0.000  0.045  0.000  0.000
       0.000  0.000  0.000  0.042  0.016
       0.000  0.000  0.000  0.016  0.110

     Number of occupied Hubbard levels =   20.9491

     HUBBARD ENERGY =    0.1692  (Ry)

     total cpu time spent up to now is        9.3 secs

     total energy              =   -1544.61564807 Ry
     estimated scf accuracy    <       5.86052582 Ry

     total magnetization       =    10.00 Bohr mag/cell
     absolute magnetization    =    19.48 Bohr mag/cell

     iteration #  2     ecut=    90.00 Ry     beta= 0.30
     Davidson diagonalization with overlap

---- Real-time Memory Report at c_bands before calling an iterative solver
           414 MiB given to the printing process from OS
           257 MiB allocation reported by mallinfo(arena+hblkhd)
        688645 MiB available memory on the node where the printing process lives
------------------
     ethr =  3.57E-03,  avg # of iterations =  1.0

     =================== HUBBARD OCCUPATIONS ===================
     ------------------------ ATOM    5 ------------------------
     Tr[ns(  5)] (up, down, total) =   4.95385  0.26040  5.21425
     Atomic magnetic moment for atom   5 =   4.69345
     SPIN  1
     eigenvalues:
       0.980  0.989  0.995  0.995  0.996
     eigenvectors (columns):
      -1.000  0.000 -0.000 -0.000 -0.000
      -0.000 -0.000  0.503  0.864 -0.000
      -0.000 -0.000  0.864 -0.503 -0.000
       0.000 -0.216 -0.000 -0.000 -0.976
       0.000  0.976 -0.000 -0.000 -0.216
     occupation matrix ns (before diag.):
       0.980 -0.000 -0.000  0.000  0.000
      -0.000  0.995 -0.000  0.000  0.000
      -0.000 -0.000  0.995  0.000  0.000
       0.000  0.000  0.000  0.995  0.001
       0.000  0.000  0.000  0.001  0.989
     SPIN  2
     eigenvalues:
       0.033  0.035  0.035  0.059  0.098
     eigenvectors (columns):
      -0.000 -0.000  0.000  1.000  0.000
      -0.000 -0.446 -0.895 -0.000  0.000
      -0.000 -0.895  0.446 -0.000  0.000
       0.975 -0.000 -0.000  0.000 -0.222
       0.222 -0.000 -0.000 -0.000  0.975
     occupation matrix ns (before diag.):
       0.059 -0.000 -0.000  0.000  0.000
      -0.000  0.035 -0.000  0.000  0.000
      -0.000 -0.000  0.035  0.000  0.000
       0.000  0.000  0.000  0.036 -0.014
       0.000  0.000  0.000 -0.014  0.095
     ------------------------ ATOM    6 ------------------------
     Tr[ns(  6)] (up, down, total) =   4.95700  0.25107  5.20806
     Atomic magnetic moment for atom   6 =   4.70593
     SPIN  1
     eigenvalues:
       0.977  0.994  0.995  0.995  0.997
     eigenvectors (columns):
       1.000  0.000 -0.000  0.000 -0.000
       0.000 -0.000  0.656 -0.755 -0.000
       0.000 -0.000  0.755  0.656 -0.000
      -0.000 -0.041 -0.000 -0.000 -0.999
      -0.000  0.999  0.000  0.000 -0.041
     occupation matrix ns (before diag.):
       0.977 -0.000 -0.000  0.000  0.000
      -0.000  0.995 -0.000  0.000  0.000
      -0.000 -0.000  0.995  0.000  0.000
       0.000  0.000  0.000  0.997  0.000
       0.000  0.000  0.000  0.000  0.994
     SPIN  2
     eigenvalues:
       0.031  0.033  0.033  0.063  0.091
     eigenvectors (columns):
      -0.000 -0.000  0.000  1.000  0.000
      -0.000 -0.504 -0.864 -0.000  0.000
      -0.000 -0.864  0.504 -0.000  0.000
       0.981 -0.000 -0.000  0.000 -0.196
       0.196 -0.000 -0.000 -0.000  0.981
     occupation matrix ns (before diag.):
       0.063 -0.000 -0.000  0.000  0.000
      -0.000  0.033 -0.000  0.000  0.000
      -0.000 -0.000  0.033  0.000  0.000
       0.000  0.000  0.000  0.034 -0.011
       0.000  0.000  0.000 -0.011  0.089
     ------------------------ ATOM    7 ------------------------
     Tr[ns(  7)] (up, down, total) =   0.45807  4.96845  5.42652
     Atomic magnetic moment for atom   7 =  -4.51038
     SPIN  1
     eigenvalues:
       0.052  0.068  0.068  0.114  0.156
     eigenvectors (columns):
      -0.000 -0.000 -0.000 -1.000  0.000
      -0.000 -0.530  0.848  0.000  0.000
      -0.000 -0.848 -0.530  0.000  0.000
       0.970 -0.000  0.000  0.000  0.245
      -0.245  0.000  0.000  0.000  0.970
     occupation matrix ns (before diag.):
       0.114 -0.000 -0.000  0.000  0.000
      -0.000  0.068 -0.000  0.000  0.000
      -0.000 -0.000  0.068  0.000  0.000
       0.000  0.000  0.000  0.058  0.025
       0.000  0.000  0.000  0.025  0.149
     SPIN  2
     eigenvalues:
       0.985  0.992  0.997  0.997  0.998
     eigenvectors (columns):
       1.000  0.000 -0.000  0.000 -0.000
       0.000 -0.000  0.564 -0.826 -0.000
       0.000 -0.000  0.826  0.564 -0.000
      -0.000  0.190 -0.000  0.000 -0.982
      -0.000  0.982  0.000  0.000  0.190
     occupation matrix ns (before diag.):
       0.985 -0.000 -0.000  0.000  0.000
      -0.000  0.997 -0.000  0.000  0.000
      -0.000 -0.000  0.997  0.000  0.000
       0.000  0.000  0.000  0.998 -0.001
       0.000  0.000  0.000 -0.001  0.993
     ------------------------ ATOM    8 ------------------------
     Tr[ns(  8)] (up, down, total) =   4.97383  0.40869  5.38251
     Atomic magnetic moment for atom   8 =   4.56514
     SPIN  1
     eigenvalues:
       0.987  0.994  0.997  0.997  0.998
     eigenvectors (columns):
       1.000  0.000 -0.000 -0.000 -0.000
       0.000 -0.000  0.621 -0.784 -0.000
       0.000 -0.000  0.784  0.621 -0.000
      -0.000  0.184 -0.000  0.000 -0.983
      -0.000  0.983  0.000  0.000  0.184
     occupation matrix ns (before diag.):
       0.987 -0.000 -0.000  0.000  0.000
      -0.000  0.997 -0.000  0.000  0.000
      -0.000 -0.000  0.997  0.000  0.000
       0.000  0.000  0.000  0.998 -0.001
       0.000  0.000  0.000 -0.001  0.994
     SPIN  2
     eigenvalues:
       0.048  0.058  0.058  0.101  0.143
     eigenvectors (columns):
      -0.000 -0.000 -0.000 -1.000  0.000
      -0.000 -0.639  0.769  0.000  0.000
      -0.000 -0.769 -0.639  0.000  0.000
       0.976 -0.000  0.000  0.000  0.216
      -0.216  0.000  0.000  0.000  0.976
     occupation matrix ns (before diag.):
       0.101 -0.000 -0.000  0.000  0.000
      -0.000  0.058 -0.000  0.000  0.000
      -0.000 -0.000  0.058  0.000  0.000
       0.000  0.000  0.000  0.053  0.020
       0.000  0.000  0.000  0.020  0.138

     Number of occupied Hubbard levels =   21.2313

     HUBBARD ENERGY =    0.1974  (Ry)

     total cpu time spent up to now is       13.6 secs

     total energy              =   -1543.94411021 Ry
     estimated scf accuracy    <       2.37664461 Ry

     total magnetization       =    10.00 Bohr mag/cell
     absolute magnetization    =    19.38 Bohr mag/cell

     iteration #  3     ecut=    90.00 Ry     beta= 0.30
     Davidson diagonalization with overlap

---- Real-time Memory Report at c_bands before calling an iterative solver
           438 MiB given to the printing process from OS
           263 MiB allocation reported by mallinfo(arena+hblkhd)
        688577 MiB available memory on the node where the printing process lives
------------------
     ethr =  1.45E-03,  avg # of iterations =  2.4

     =================== HUBBARD OCCUPATIONS ===================
     ------------------------ ATOM    5 ------------------------
     Tr[ns(  5)] (up, down, total) =   4.92946  0.33840  5.26786
     Atomic magnetic moment for atom   5 =   4.59106
     SPIN  1
     eigenvalues:
       0.972  0.975  0.994  0.994  0.995
     eigenvectors (columns):
      -0.000  1.000 -0.000 -0.000 -0.000
      -0.000  0.000  0.658  0.753 -0.000
      -0.000  0.000  0.753 -0.658 -0.000
      -0.249 -0.000 -0.000  0.000 -0.969
       0.969  0.000 -0.000  0.000 -0.249
     occupation matrix ns (before diag.):
       0.975 -0.000 -0.000  0.000  0.000
      -0.000  0.994 -0.000  0.000  0.000
      -0.000 -0.000  0.994  0.000  0.000
       0.000  0.000  0.000  0.993  0.005
       0.000  0.000  0.000  0.005  0.974
     SPIN  2
     eigenvalues:
       0.045  0.049  0.049  0.073  0.123
     eigenvectors (columns):
      -0.000 -0.000  0.000  1.000  0.000
      -0.000 -0.647 -0.763 -0.000  0.000
      -0.000 -0.763  0.647 -0.000  0.000
       0.977 -0.000  0.000  0.000 -0.214
       0.214 -0.000 -0.000 -0.000  0.977
     occupation matrix ns (before diag.):
       0.073 -0.000 -0.000  0.000  0.000
      -0.000  0.049 -0.000  0.000  0.000
      -0.000 -0.000  0.049  0.000  0.000
       0.000  0.000  0.000  0.049 -0.016
       0.000  0.000  0.000 -0.016  0.120
     ------------------------ ATOM    6 ------------------------
     Tr[ns(  6)] (up, down, total) =   4.94498  0.32339  5.26837
     Atomic magnetic moment for atom   6 =   4.62159
     SPIN  1
     eigenvalues:
       0.969  0.992  0.994  0.994  0.997
     eigenvectors (columns):
       1.000  0.000 -0.000  0.000 -0.000
       0.000 -0.000  0.638 -0.770 -0.000
       0.000 -0.000  0.770  0.638 -0.000
      -0.000 -0.128 -0.000 -0.000 -0.992
      -0.000  0.992  0.000  0.000 -0.128
     occupation matrix ns (before diag.):
       0.969 -0.000 -0.000  0.000  0.000
      -0.000  0.994 -0.000  0.000  0.000
      -0.000 -0.000  0.994  0.000  0.000
       0.000  0.000  0.000  0.997  0.001
       0.000  0.000  0.000  0.001  0.992
     SPIN  2
     eigenvalues:
       0.043  0.045  0.045  0.080  0.110
     eigenvectors (columns):
      -0.000 -0.000  0.000  1.000  0.000
      -0.000 -0.614 -0.789 -0.000  0.000
      -0.000 -0.789  0.614 -0.000  0.000
       0.985 -0.000  0.000  0.000 -0.173
       0.173 -0.000 -0.000 -0.000  0.985
     occupation matrix ns (before diag.):
       0.080 -0.000 -0.000  0.000  0.000
      -0.000  0.045 -0.000  0.000  0.000
      -0.000 -0.000  0.045  0.000  0.000
       0.000  0.000  0.000  0.045 -0.011
       0.000  0.000  0.000 -0.011  0.108
     ------------------------ ATOM    7 ------------------------
     Tr[ns(  7)] (up, down, total) =   0.94071  4.97150  5.91221
     Atomic magnetic moment for atom   7 =  -4.03079
     SPIN  1
     eigenvalues:
       0.106  0.163  0.163  0.229  0.280
     eigenvectors (columns):
      -0.000 -0.000 -0.000 -1.000  0.000
      -0.000 -0.586  0.811  0.000  0.000
      -0.000 -0.811 -0.586  0.000  0.000
       0.965 -0.000  0.000  0.000  0.261
      -0.261  0.000  0.000  0.000  0.965
     occupation matrix ns (before diag.):
       0.229 -0.000 -0.000  0.000  0.000
      -0.000  0.163 -0.000  0.000  0.000
      -0.000 -0.000  0.163  0.000  0.000
       0.000  0.000  0.000  0.118  0.044
       0.000  0.000  0.000  0.044  0.268
     SPIN  2
     eigenvalues:
       0.988  0.992  0.997  0.997  0.998
     eigenvectors (columns):
       1.000  0.000 -0.000 -0.000 -0.000
       0.000 -0.000  0.593 -0.805 -0.000
       0.000 -0.000  0.805  0.593 -0.000
      -0.000  0.189 -0.000  0.000 -0.982
      -0.000  0.982  0.000  0.000  0.189
     occupation matrix ns (before diag.):
       0.988 -0.000 -0.000  0.000  0.000
      -0.000  0.997 -0.000  0.000  0.000
      -0.000 -0.000  0.997  0.000  0.000
       0.000  0.000  0.000  0.998 -0.001
       0.000  0.000  0.000 -0.001  0.992
     ------------------------ ATOM    8 ------------------------
     Tr[ns(  8)] (up, down, total) =   4.97494  0.79995  5.77488
     Atomic magnetic moment for atom   8 =   4.17499
     SPIN  1
     eigenvalues:
       0.990  0.993  0.997  0.997  0.998
     eigenvectors (columns):
       1.000  0.000 -0.000 -0.000 -0.000
       0.000 -0.000  0.582 -0.813 -0.000
       0.000 -0.000  0.813  0.582 -0.000
      -0.000  0.187 -0.000  0.000 -0.982
      -0.000  0.982  0.000  0.000  0.187
     occupation matrix ns (before diag.):
       0.990 -0.000 -0.000  0.000  0.000
      -0.000  0.997 -0.000  0.000  0.000
      -0.000 -0.000  0.997  0.000  0.000
       0.000  0.000  0.000  0.998 -0.001
       0.000  0.000  0.000 -0.001  0.993
     SPIN  2
     eigenvalues:
       0.100  0.129  0.129  0.192  0.250
     eigenvectors (columns):
      -0.000 -0.000 -0.000 -1.000  0.000
      -0.000 -0.571  0.821  0.000  0.000
      -0.000 -0.821 -0.571  0.000  0.000
       0.979 -0.000  0.000  0.000  0.204
      -0.204  0.000  0.000  0.000  0.979
     occupation matrix ns (before diag.):
       0.192 -0.000 -0.000  0.000  0.000
      -0.000  0.129 -0.000  0.000  0.000
      -0.000 -0.000  0.129  0.000  0.000
       0.000  0.000  0.000  0.106  0.030
       0.000  0.000  0.000  0.030  0.243

     Number of occupied Hubbard levels =   22.2233

     HUBBARD ENERGY =    0.2525  (Ry)

     total cpu time spent up to now is       18.9 secs

     total energy              =   -1544.38523966 Ry
     estimated scf accuracy    <       0.15835164 Ry

     total magnetization       =    10.00 Bohr mag/cell
     absolute magnetization    =    19.10 Bohr mag/cell

     iteration #  4     ecut=    90.00 Ry     beta= 0.30
     Davidson diagonalization with overlap

---- Real-time Memory Report at c_bands before calling an iterative solver
           443 MiB given to the printing process from OS
           269 MiB allocation reported by mallinfo(arena+hblkhd)
        688587 MiB available memory on the node where the printing process lives
------------------
     ethr =  9.66E-05,  avg # of iterations =  9.6

     =================== HUBBARD OCCUPATIONS ===================
     ------------------------ ATOM    5 ------------------------
     Tr[ns(  5)] (up, down, total) =   4.92928  0.32312  5.25240
     Atomic magnetic moment for atom   5 =   4.60616
     SPIN  1
     eigenvalues:
       0.973  0.974  0.994  0.994  0.995
     eigenvectors (columns):
      -0.000  1.000 -0.000 -0.000 -0.000
      -0.000  0.000  0.500  0.866 -0.000
      -0.000  0.000  0.866 -0.500 -0.000
      -0.252 -0.000 -0.000 -0.000 -0.968
       0.968  0.000 -0.000 -0.000 -0.252
     occupation matrix ns (before diag.):
       0.974 -0.000 -0.000  0.000  0.000
      -0.000  0.994 -0.000  0.000  0.000
      -0.000 -0.000  0.994  0.000  0.000
       0.000  0.000  0.000  0.994  0.005
       0.000  0.000  0.000  0.005  0.974
     SPIN  2
     eigenvalues:
       0.042  0.046  0.046  0.070  0.120
     eigenvectors (columns):
      -0.000 -0.000 -0.000  1.000  0.000
      -0.000 -0.510 -0.860 -0.000  0.000
      -0.000 -0.860  0.510 -0.000  0.000
       0.977 -0.000 -0.000  0.000 -0.213
       0.213 -0.000 -0.000 -0.000  0.977
     occupation matrix ns (before diag.):
       0.070 -0.000 -0.000  0.000  0.000
      -0.000  0.046 -0.000  0.000  0.000
      -0.000 -0.000  0.046  0.000  0.000
       0.000  0.000  0.000  0.046 -0.016
       0.000  0.000  0.000 -0.016  0.116
     ------------------------ ATOM    6 ------------------------
     Tr[ns(  6)] (up, down, total) =   4.94360  0.30787  5.25147
     Atomic magnetic moment for atom   6 =   4.63574
     SPIN  1
     eigenvalues:
       0.968  0.992  0.994  0.994  0.997
     eigenvectors (columns):
       1.000  0.000 -0.000 -0.000 -0.000
       0.000 -0.000  0.706 -0.708 -0.000
       0.000 -0.000  0.708  0.706 -0.000
      -0.000 -0.130 -0.000 -0.000 -0.991
      -0.000  0.991  0.000  0.000 -0.130
     occupation matrix ns (before diag.):
       0.968 -0.000 -0.000  0.000  0.000
      -0.000  0.994 -0.000  0.000  0.000
      -0.000 -0.000  0.994  0.000  0.000
       0.000  0.000  0.000  0.997  0.001
       0.000  0.000  0.000  0.001  0.992
     SPIN  2
     eigenvalues:
       0.040  0.042  0.042  0.077  0.107
     eigenvectors (columns):
      -0.000 -0.000  0.000  1.000  0.000
      -0.000 -0.671 -0.741 -0.000  0.000
      -0.000 -0.741  0.671 -0.000  0.000
       0.985 -0.000  0.000  0.000 -0.173
       0.173 -0.000 -0.000 -0.000  0.985
     occupation matrix ns (before diag.):
       0.077 -0.000 -0.000  0.000  0.000
      -0.000  0.042 -0.000  0.000  0.000
      -0.000 -0.000  0.042  0.000  0.000
       0.000  0.000  0.000  0.042 -0.011
       0.000  0.000  0.000 -0.011  0.105
     ------------------------ ATOM    7 ------------------------
     Tr[ns(  7)] (up, down, total) =   0.89674  4.97093  5.86767
     Atomic magnetic moment for atom   7 =  -4.07418
     SPIN  1
     eigenvalues:
       0.097  0.152  0.152  0.221  0.274
     eigenvectors (columns):
      -0.000 -0.000 -0.000 -1.000  0.000
      -0.000 -0.556  0.831  0.000  0.000
      -0.000 -0.831 -0.556  0.000  0.000
       0.966 -0.000  0.000  0.000  0.260
      -0.260  0.000  0.000  0.000  0.966
     occupation matrix ns (before diag.):
       0.221 -0.000 -0.000  0.000  0.000
      -0.000  0.152 -0.000  0.000  0.000
      -0.000 -0.000  0.152  0.000  0.000
       0.000  0.000  0.000  0.109  0.044
       0.000  0.000  0.000  0.044  0.262
     SPIN  2
     eigenvalues:
       0.987  0.992  0.997  0.997  0.998
     eigenvectors (columns):
       1.000  0.000 -0.000 -0.000 -0.000
       0.000 -0.000  0.519  0.855 -0.000
       0.000 -0.000  0.855 -0.519 -0.000
      -0.000  0.191 -0.000 -0.000 -0.982
      -0.000  0.982  0.000  0.000  0.191
     occupation matrix ns (before diag.):
       0.987 -0.000 -0.000  0.000  0.000
      -0.000  0.997 -0.000  0.000  0.000
      -0.000 -0.000  0.997  0.000  0.000
       0.000  0.000  0.000  0.998 -0.001
       0.000  0.000  0.000 -0.001  0.992
     ------------------------ ATOM    8 ------------------------
     Tr[ns(  8)] (up, down, total) =   4.97480  0.78270  5.75750
     Atomic magnetic moment for atom   8 =   4.19211
     SPIN  1
     eigenvalues:
       0.990  0.993  0.997  0.997  0.998
     eigenvectors (columns):
       1.000  0.000 -0.000 -0.000 -0.000
       0.000 -0.000  0.625 -0.781 -0.000
       0.000 -0.000  0.781  0.625 -0.000
      -0.000  0.188 -0.000  0.000 -0.982
      -0.000  0.982  0.000  0.000  0.188
     occupation matrix ns (before diag.):
       0.990 -0.000 -0.000  0.000  0.000
      -0.000  0.997 -0.000  0.000  0.000
      -0.000 -0.000  0.997  0.000  0.000
       0.000  0.000  0.000  0.998 -0.001
       0.000  0.000  0.000 -0.001  0.993
     SPIN  2
     eigenvalues:
       0.095  0.125  0.125  0.189  0.249
     eigenvectors (columns):
      -0.000 -0.000 -0.000 -1.000  0.000
      -0.000 -0.519  0.855  0.000  0.000
      -0.000 -0.855 -0.519  0.000  0.000
       0.979 -0.000  0.000  0.000  0.203
      -0.203  0.000  0.000  0.000  0.979
     occupation matrix ns (before diag.):
       0.189 -0.000 -0.000  0.000  0.000
      -0.000  0.125 -0.000  0.000  0.000
      -0.000 -0.000  0.125  0.000  0.000
       0.000  0.000  0.000  0.101  0.031
       0.000  0.000  0.000  0.031  0.243

     Number of occupied Hubbard levels =   22.1290

     HUBBARD ENERGY =    0.3331  (Ry)

     total cpu time spent up to now is       25.1 secs

     total energy              =   -1544.39050199 Ry
     estimated scf accuracy    <       0.06732162 Ry

     total magnetization       =    10.00 Bohr mag/cell
     absolute magnetization    =    19.16 Bohr mag/cell

     iteration #  5     ecut=    90.00 Ry     beta= 0.30
     Davidson diagonalization with overlap

---- Real-time Memory Report at c_bands before calling an iterative solver
           449 MiB given to the printing process from OS
           274 MiB allocation reported by mallinfo(arena+hblkhd)
        688628 MiB available memory on the node where the printing process lives
------------------
     ethr =  4.10E-05,  avg # of iterations =  2.5

     =================== HUBBARD OCCUPATIONS ===================
     ------------------------ ATOM    5 ------------------------
     Tr[ns(  5)] (up, down, total) =   4.92398  0.31512  5.23911
     Atomic magnetic moment for atom   5 =   4.60886
     SPIN  1
     eigenvalues:
       0.969  0.972  0.994  0.994  0.995
     eigenvectors (columns):
      -0.000 -1.000 -0.000  0.000 -0.000
      -0.000 -0.000  0.596 -0.803 -0.000
      -0.000 -0.000  0.803  0.596 -0.000
      -0.260  0.000 -0.000 -0.000 -0.966
       0.966 -0.000 -0.000  0.000 -0.260
     occupation matrix ns (before diag.):
       0.972 -0.000 -0.000  0.000  0.000
      -0.000  0.994 -0.000  0.000  0.000
      -0.000 -0.000  0.994  0.000  0.000
       0.000  0.000  0.000  0.993  0.006
       0.000  0.000  0.000  0.006  0.971
     SPIN  2
     eigenvalues:
       0.040  0.044  0.044  0.068  0.119
     eigenvectors (columns):
      -0.000  0.000 -0.000  1.000  0.000
      -0.000  0.520  0.854 -0.000  0.000
      -0.000  0.854 -0.520 -0.000  0.000
       0.977  0.000  0.000  0.000 -0.211
       0.211  0.000  0.000 -0.000  0.977
     occupation matrix ns (before diag.):
       0.068 -0.000 -0.000  0.000  0.000
      -0.000  0.044 -0.000  0.000  0.000
      -0.000 -0.000  0.044  0.000  0.000
       0.000  0.000  0.000  0.044 -0.016
       0.000  0.000  0.000 -0.016  0.115
     ------------------------ ATOM    6 ------------------------
     Tr[ns(  6)] (up, down, total) =   4.93969  0.29743  5.23711
     Atomic magnetic moment for atom   6 =   4.64226
     SPIN  1
     eigenvalues:
       0.964  0.991  0.994  0.994  0.997
     eigenvectors (columns):
       1.000  0.000 -0.000  0.000 -0.000
       0.000 -0.000  0.635 -0.772 -0.000
       0.000 -0.000  0.772  0.635 -0.000
      -0.000 -0.138 -0.000 -0.000 -0.990
      -0.000  0.990  0.000  0.000 -0.138
     occupation matrix ns (before diag.):
       0.964 -0.000 -0.000  0.000  0.000
      -0.000  0.994 -0.000  0.000  0.000
      -0.000 -0.000  0.994  0.000  0.000
       0.000  0.000  0.000  0.997  0.001
       0.000  0.000  0.000  0.001  0.991
     SPIN  2
     eigenvalues:
       0.039  0.040  0.040  0.075  0.104
     eigenvectors (columns):
      -0.000 -0.000  0.000  1.000  0.000
      -0.000 -0.597 -0.803 -0.000  0.000
      -0.000 -0.803  0.597 -0.000  0.000
       0.986 -0.000  0.000  0.000 -0.168
       0.168 -0.000 -0.000 -0.000  0.986
     occupation matrix ns (before diag.):
       0.075 -0.000 -0.000  0.000  0.000
      -0.000  0.040 -0.000  0.000  0.000
      -0.000 -0.000  0.040  0.000  0.000
       0.000  0.000  0.000  0.040 -0.011
       0.000  0.000  0.000 -0.011  0.102
     ------------------------ ATOM    7 ------------------------
     Tr[ns(  7)] (up, down, total) =   0.94739  4.97054  5.91793
     Atomic magnetic moment for atom   7 =  -4.02315
     SPIN  1
     eigenvalues:
       0.096  0.161  0.161  0.238  0.292
     eigenvectors (columns):
      -0.000 -0.000 -0.000 -1.000  0.000
      -0.000 -0.535  0.845  0.000  0.000
      -0.000 -0.845 -0.535  0.000  0.000
       0.965 -0.000  0.000  0.000  0.262
      -0.262  0.000  0.000  0.000  0.965
     occupation matrix ns (before diag.):
       0.238 -0.000 -0.000  0.000  0.000
      -0.000  0.161 -0.000  0.000  0.000
      -0.000 -0.000  0.161  0.000  0.000
       0.000  0.000  0.000  0.109  0.050
       0.000  0.000  0.000  0.050  0.278
     SPIN  2
     eigenvalues:
       0.987  0.992  0.997  0.997  0.998
     eigenvectors (columns):
       1.000  0.000 -0.000  0.000 -0.000
       0.000 -0.000  0.602 -0.798 -0.000
       0.000 -0.000  0.798  0.602 -0.000
      -0.000  0.191 -0.000  0.000 -0.982
      -0.000  0.982  0.000  0.000  0.191
     occupation matrix ns (before diag.):
       0.987 -0.000 -0.000  0.000  0.000
      -0.000  0.997 -0.000  0.000  0.000
      -0.000 -0.000  0.997  0.000  0.000
       0.000  0.000  0.000  0.998 -0.001
       0.000  0.000  0.000 -0.001  0.992
     ------------------------ ATOM    8 ------------------------
     Tr[ns(  8)] (up, down, total) =   4.97463  0.85993  5.83456
     Atomic magnetic moment for atom   8 =   4.11470
     SPIN  1
     eigenvalues:
       0.990  0.993  0.997  0.997  0.998
     eigenvectors (columns):
       1.000  0.000 -0.000  0.000 -0.000
       0.000 -0.000  0.424 -0.906 -0.000
       0.000 -0.000  0.906  0.424 -0.000
      -0.000  0.189 -0.000  0.000 -0.982
      -0.000  0.982  0.000 -0.000  0.189
     occupation matrix ns (before diag.):
       0.990 -0.000 -0.000  0.000  0.000
      -0.000  0.997 -0.000  0.000  0.000
      -0.000 -0.000  0.997  0.000  0.000
       0.000  0.000  0.000  0.998 -0.001
       0.000  0.000  0.000 -0.001  0.993
     SPIN  2
     eigenvalues:
       0.100  0.137  0.137  0.211  0.275
     eigenvectors (columns):
      -0.000 -0.000 -0.000 -1.000  0.000
      -0.000 -0.625  0.780  0.000  0.000
      -0.000 -0.780 -0.625  0.000  0.000
       0.980 -0.000  0.000  0.000  0.199
      -0.199  0.000  0.000  0.000  0.980
     occupation matrix ns (before diag.):
       0.211 -0.000 -0.000  0.000  0.000
      -0.000  0.137 -0.000  0.000  0.000
      -0.000 -0.000  0.137  0.000  0.000
       0.000  0.000  0.000  0.107  0.034
       0.000  0.000  0.000  0.034  0.268

     Number of occupied Hubbard levels =   22.2287

     HUBBARD ENERGY =    0.3340  (Ry)

     total cpu time spent up to now is       30.7 secs

     total energy              =   -1544.39524200 Ry
     estimated scf accuracy    <       0.01702402 Ry

     total magnetization       =    10.00 Bohr mag/cell
     absolute magnetization    =    19.20 Bohr mag/cell

     iteration #  6     ecut=    90.00 Ry     beta= 0.30
     Davidson diagonalization with overlap

---- Real-time Memory Report at c_bands before calling an iterative solver
           455 MiB given to the printing process from OS
           280 MiB allocation reported by mallinfo(arena+hblkhd)
        688524 MiB available memory on the node where the printing process lives
------------------
     ethr =  1.04E-05,  avg # of iterations =  5.8

     =================== HUBBARD OCCUPATIONS ===================
     ------------------------ ATOM    5 ------------------------
     Tr[ns(  5)] (up, down, total) =   4.92230  0.31925  5.24155
     Atomic magnetic moment for atom   5 =   4.60305
     SPIN  1
     eigenvalues:
       0.968  0.972  0.993  0.993  0.995
     eigenvectors (columns):
      -0.000 -1.000 -0.000 -0.000 -0.000
      -0.000 -0.000  0.595 -0.804 -0.000
      -0.000 -0.000  0.804  0.595 -0.000
      -0.260  0.000 -0.000 -0.000 -0.966
       0.966 -0.000 -0.000  0.000 -0.260
     occupation matrix ns (before diag.):
       0.972 -0.000 -0.000  0.000  0.000
      -0.000  0.993 -0.000  0.000  0.000
      -0.000 -0.000  0.993  0.000  0.000
       0.000  0.000  0.000  0.993  0.007
       0.000  0.000  0.000  0.007  0.970
     SPIN  2
     eigenvalues:
       0.041  0.045  0.045  0.069  0.119
     eigenvectors (columns):
      -0.000 -0.000  0.000  1.000  0.000
      -0.000 -0.621 -0.784 -0.000  0.000
      -0.000 -0.784  0.621 -0.000  0.000
       0.977 -0.000  0.000  0.000 -0.212
       0.212 -0.000 -0.000 -0.000  0.977
     occupation matrix ns (before diag.):
       0.069 -0.000 -0.000  0.000  0.000
      -0.000  0.045 -0.000  0.000  0.000
      -0.000 -0.000  0.045  0.000  0.000
       0.000  0.000  0.000  0.045 -0.016
       0.000  0.000  0.000 -0.016  0.116
     ------------------------ ATOM    6 ------------------------
     Tr[ns(  6)] (up, down, total) =   4.93888  0.30074  5.23963
     Atomic magnetic moment for atom   6 =   4.63814
     SPIN  1
     eigenvalues:
       0.963  0.991  0.994  0.994  0.997
     eigenvectors (columns):
       1.000  0.000 -0.000 -0.000 -0.000
       0.000 -0.000  0.624 -0.782 -0.000
       0.000 -0.000  0.782  0.624 -0.000
      -0.000 -0.140 -0.000 -0.000 -0.990
      -0.000  0.990  0.000  0.000 -0.140
     occupation matrix ns (before diag.):
       0.963 -0.000 -0.000  0.000  0.000
      -0.000  0.994 -0.000  0.000  0.000
      -0.000 -0.000  0.994  0.000  0.000
       0.000  0.000  0.000  0.997  0.001
       0.000  0.000  0.000  0.001  0.991
     SPIN  2
     eigenvalues:
       0.039  0.041  0.041  0.076  0.103
     eigenvectors (columns):
      -0.000 -0.000  0.000  1.000  0.000
      -0.000 -0.603 -0.798 -0.000  0.000
      -0.000 -0.798  0.603 -0.000  0.000
       0.986 -0.000  0.000  0.000 -0.166
       0.166 -0.000 -0.000 -0.000  0.986
     occupation matrix ns (before diag.):
       0.076 -0.000 -0.000  0.000  0.000
      -0.000  0.041 -0.000  0.000  0.000
      -0.000 -0.000  0.041  0.000  0.000
       0.000  0.000  0.000  0.041 -0.010
       0.000  0.000  0.000 -0.010  0.102
     ------------------------ ATOM    7 ------------------------
     Tr[ns(  7)] (up, down, total) =   0.98802  4.97040  5.95842
     Atomic magnetic moment for atom   7 =  -3.98238
     SPIN  1
     eigenvalues:
       0.099  0.169  0.169  0.249  0.302
     eigenvectors (columns):
      -0.000 -0.000 -0.000 -1.000  0.000
      -0.000 -0.603  0.798  0.000  0.000
      -0.000 -0.798 -0.603  0.000  0.000
       0.965 -0.000  0.000  0.000  0.263
      -0.263  0.000  0.000  0.000  0.965
     occupation matrix ns (before diag.):
       0.249 -0.000 -0.000  0.000  0.000
      -0.000  0.169 -0.000  0.000  0.000
      -0.000 -0.000  0.169  0.000  0.000
       0.000  0.000  0.000  0.113  0.051
       0.000  0.000  0.000  0.051  0.288
     SPIN  2
     eigenvalues:
       0.987  0.992  0.997  0.997  0.998
     eigenvectors (columns):
       1.000  0.000 -0.000  0.000 -0.000
       0.000 -0.000  0.661 -0.750 -0.000
       0.000 -0.000  0.750  0.661 -0.000
      -0.000  0.190 -0.000  0.000 -0.982
      -0.000  0.982  0.000  0.000  0.190
     occupation matrix ns (before diag.):
       0.987 -0.000 -0.000  0.000  0.000
      -0.000  0.997 -0.000  0.000  0.000
      -0.000 -0.000  0.997  0.000  0.000
       0.000  0.000  0.000  0.998 -0.001
       0.000  0.000  0.000 -0.001  0.992
     ------------------------ ATOM    8 ------------------------
     Tr[ns(  8)] (up, down, total) =   4.97447  0.89879  5.87326
     Atomic magnetic moment for atom   8 =   4.07568
     SPIN  1
     eigenvalues:
       0.990  0.993  0.997  0.997  0.998
     eigenvectors (columns):
       1.000  0.000 -0.000  0.000 -0.000
       0.000 -0.000  0.474 -0.880 -0.000
       0.000 -0.000  0.880  0.474 -0.000
      -0.000  0.188 -0.000  0.000 -0.982
      -0.000  0.982  0.000 -0.000  0.188
     occupation matrix ns (before diag.):
       0.990 -0.000 -0.000  0.000  0.000
      -0.000  0.997 -0.000  0.000  0.000
      -0.000 -0.000  0.997  0.000  0.000
       0.000  0.000  0.000  0.998 -0.001
       0.000  0.000  0.000 -0.001  0.993
     SPIN  2
     eigenvalues:
       0.104  0.145  0.145  0.221  0.284
     eigenvectors (columns):
      -0.000 -0.000 -0.000 -1.000  0.000
      -0.000 -0.531  0.847  0.000  0.000
      -0.000 -0.847 -0.531  0.000  0.000
       0.980 -0.000  0.000  0.000  0.198
      -0.198  0.000  0.000  0.000  0.980
     occupation matrix ns (before diag.):
       0.221 -0.000 -0.000  0.000  0.000
      -0.000  0.145 -0.000  0.000  0.000
      -0.000 -0.000  0.145  0.000  0.000
       0.000  0.000  0.000  0.111  0.035
       0.000  0.000  0.000  0.035  0.277

     Number of occupied Hubbard levels =   22.3129

     HUBBARD ENERGY =    0.3289  (Ry)

     total cpu time spent up to now is       36.9 secs

     total energy              =   -1544.39528487 Ry
     estimated scf accuracy    <       0.00724369 Ry

     total magnetization       =    10.00 Bohr mag/cell
     absolute magnetization    =    19.20 Bohr mag/cell

     iteration #  7     ecut=    90.00 Ry     beta= 0.30
     Davidson diagonalization with overlap

---- Real-time Memory Report at c_bands before calling an iterative solver
           461 MiB given to the printing process from OS
           286 MiB allocation reported by mallinfo(arena+hblkhd)
        688498 MiB available memory on the node where the printing process lives
------------------
     ethr =  4.42E-06,  avg # of iterations =  4.1

     =================== HUBBARD OCCUPATIONS ===================
     ------------------------ ATOM    5 ------------------------
     Tr[ns(  5)] (up, down, total) =   4.92702  0.32452  5.25154
     Atomic magnetic moment for atom   5 =   4.60249
     SPIN  1
     eigenvalues:
       0.971  0.973  0.994  0.994  0.995
     eigenvectors (columns):
      -0.000 -1.000 -0.000 -0.000 -0.000
      -0.000 -0.000  0.601 -0.799 -0.000
      -0.000 -0.000  0.799  0.601 -0.000
      -0.259  0.000 -0.000 -0.000 -0.966
       0.966 -0.000 -0.000  0.000 -0.259
     occupation matrix ns (before diag.):
       0.973 -0.000 -0.000  0.000  0.000
      -0.000  0.994 -0.000  0.000  0.000
      -0.000 -0.000  0.994  0.000  0.000
       0.000  0.000  0.000  0.994  0.006
       0.000  0.000  0.000  0.006  0.973
     SPIN  2
     eigenvalues:
       0.042  0.046  0.046  0.070  0.120
     eigenvectors (columns):
      -0.000 -0.000 -0.000  1.000  0.000
      -0.000 -0.533 -0.846 -0.000  0.000
      -0.000 -0.846  0.533 -0.000  0.000
       0.977 -0.000 -0.000  0.000 -0.212
       0.212 -0.000 -0.000 -0.000  0.977
     occupation matrix ns (before diag.):
       0.070 -0.000 -0.000  0.000  0.000
      -0.000  0.046 -0.000  0.000  0.000
      -0.000 -0.000  0.046  0.000  0.000
       0.000  0.000  0.000  0.046 -0.016
       0.000  0.000  0.000 -0.016  0.117
     ------------------------ ATOM    6 ------------------------
     Tr[ns(  6)] (up, down, total) =   4.94093  0.30565  5.24658
     Atomic magnetic moment for atom   6 =   4.63529
     SPIN  1
     eigenvalues:
       0.965  0.991  0.994  0.994  0.997
     eigenvectors (columns):
       1.000  0.000 -0.000  0.000 -0.000
       0.000 -0.000  0.569 -0.822 -0.000
       0.000 -0.000  0.822  0.569 -0.000
      -0.000 -0.135 -0.000 -0.000 -0.991
      -0.000  0.991  0.000  0.000 -0.135
     occupation matrix ns (before diag.):
       0.965 -0.000 -0.000  0.000  0.000
      -0.000  0.994 -0.000  0.000  0.000
      -0.000 -0.000  0.994  0.000  0.000
       0.000  0.000  0.000  0.997  0.001
       0.000  0.000  0.000  0.001  0.991
     SPIN  2
     eigenvalues:
       0.040  0.042  0.042  0.077  0.104
     eigenvectors (columns):
      -0.000 -0.000  0.000  1.000  0.000
      -0.000 -0.645 -0.764 -0.000  0.000
      -0.000 -0.764  0.645 -0.000  0.000
       0.986 -0.000  0.000  0.000 -0.166
       0.166 -0.000 -0.000 -0.000  0.986
     occupation matrix ns (before diag.):
       0.077 -0.000 -0.000  0.000  0.000
      -0.000  0.042 -0.000  0.000  0.000
      -0.000 -0.000  0.042  0.000  0.000
       0.000  0.000  0.000  0.042 -0.011
       0.000  0.000  0.000 -0.011  0.103
     ------------------------ ATOM    7 ------------------------
     Tr[ns(  7)] (up, down, total) =   0.95111  4.96952  5.92063
     Atomic magnetic moment for atom   7 =  -4.01841
     SPIN  1
     eigenvalues:
       0.094  0.160  0.160  0.242  0.294
     eigenvectors (columns):
      -0.000 -0.000  0.000 -1.000  0.000
      -0.000 -0.479  0.878  0.000  0.000
      -0.000 -0.878 -0.479  0.000  0.000
       0.966 -0.000  0.000  0.000  0.260
      -0.260  0.000  0.000  0.000  0.966
     occupation matrix ns (before diag.):
       0.242 -0.000 -0.000  0.000  0.000
      -0.000  0.160 -0.000  0.000  0.000
      -0.000 -0.000  0.160  0.000  0.000
       0.000  0.000  0.000  0.108  0.050
       0.000  0.000  0.000  0.050  0.281
     SPIN  2
     eigenvalues:
       0.986  0.991  0.997  0.997  0.998
     eigenvectors (columns):
       1.000  0.000 -0.000  0.000 -0.000
       0.000 -0.000  0.626 -0.780 -0.000
       0.000 -0.000  0.780  0.626 -0.000
      -0.000  0.191 -0.000  0.000 -0.982
      -0.000  0.982  0.000  0.000  0.191
     occupation matrix ns (before diag.):
       0.986 -0.000 -0.000  0.000  0.000
      -0.000  0.997 -0.000  0.000  0.000
      -0.000 -0.000  0.997  0.000  0.000
       0.000  0.000  0.000  0.998 -0.001
       0.000  0.000  0.000 -0.001  0.992
     ------------------------ ATOM    8 ------------------------
     Tr[ns(  8)] (up, down, total) =   4.97423  0.87202  5.84626
     Atomic magnetic moment for atom   8 =   4.10221
     SPIN  1
     eigenvalues:
       0.989  0.993  0.997  0.997  0.998
     eigenvectors (columns):
       1.000  0.000 -0.000 -0.000 -0.000
       0.000 -0.000  0.537  0.844 -0.000
       0.000 -0.000  0.844 -0.537 -0.000
      -0.000  0.190 -0.000 -0.000 -0.982
      -0.000  0.982  0.000  0.000  0.190
     occupation matrix ns (before diag.):
       0.989 -0.000 -0.000  0.000  0.000
      -0.000  0.997 -0.000  0.000  0.000
      -0.000 -0.000  0.997  0.000  0.000
       0.000  0.000  0.000  0.998 -0.001
       0.000  0.000  0.000 -0.001  0.993
     SPIN  2
     eigenvalues:
       0.100  0.139  0.139  0.216  0.279
     eigenvectors (columns):
      -0.000 -0.000 -0.000 -1.000  0.000
      -0.000 -0.500  0.866  0.000  0.000
      -0.000 -0.866 -0.500  0.000  0.000
       0.980 -0.000  0.000  0.000  0.197
      -0.197  0.000  0.000  0.000  0.980
     occupation matrix ns (before diag.):
       0.216 -0.000 -0.000  0.000  0.000
      -0.000  0.139 -0.000  0.000  0.000
      -0.000 -0.000  0.139  0.000  0.000
       0.000  0.000  0.000  0.107  0.035
       0.000  0.000  0.000  0.035  0.272

     Number of occupied Hubbard levels =   22.2650

     HUBBARD ENERGY =    0.3286  (Ry)

     total cpu time spent up to now is       42.4 secs

     total energy              =   -1544.39636068 Ry
     estimated scf accuracy    <       0.00058608 Ry

     total magnetization       =    10.00 Bohr mag/cell
     absolute magnetization    =    19.23 Bohr mag/cell

     iteration #  8     ecut=    90.00 Ry     beta= 0.30
     Davidson diagonalization with overlap

---- Real-time Memory Report at c_bands before calling an iterative solver
           467 MiB given to the printing process from OS
           292 MiB allocation reported by mallinfo(arena+hblkhd)
        688482 MiB available memory on the node where the printing process lives
------------------
     ethr =  3.57E-07,  avg # of iterations =  4.9

     =================== HUBBARD OCCUPATIONS ===================
     ------------------------ ATOM    5 ------------------------
     Tr[ns(  5)] (up, down, total) =   4.92759  0.32456  5.25214
     Atomic magnetic moment for atom   5 =   4.60303
     SPIN  1
     eigenvalues:
       0.972  0.973  0.994  0.994  0.995
     eigenvectors (columns):
      -0.000 -1.000 -0.000  0.000 -0.000
      -0.000 -0.000  0.602 -0.799 -0.000
      -0.000 -0.000  0.799  0.602 -0.000
      -0.258  0.000 -0.000 -0.000 -0.966
       0.966 -0.000 -0.000  0.000 -0.258
     occupation matrix ns (before diag.):
       0.973 -0.000 -0.000  0.000  0.000
      -0.000  0.994 -0.000  0.000  0.000
      -0.000 -0.000  0.994  0.000  0.000
       0.000  0.000  0.000  0.994  0.006
       0.000  0.000  0.000  0.006  0.973
     SPIN  2
     eigenvalues:
       0.042  0.046  0.046  0.070  0.121
     eigenvectors (columns):
      -0.000 -0.000  0.000  1.000  0.000
      -0.000 -0.709 -0.705 -0.000  0.000
      -0.000 -0.705  0.709 -0.000  0.000
       0.977 -0.000  0.000  0.000 -0.212
       0.212 -0.000 -0.000 -0.000  0.977
     occupation matrix ns (before diag.):
       0.070 -0.000 -0.000  0.000  0.000
      -0.000  0.046 -0.000  0.000  0.000
      -0.000 -0.000  0.046  0.000  0.000
       0.000  0.000  0.000  0.045 -0.016
       0.000  0.000  0.000 -0.016  0.117
     ------------------------ ATOM    6 ------------------------
     Tr[ns(  6)] (up, down, total) =   4.94120  0.30575  5.24695
     Atomic magnetic moment for atom   6 =   4.63546
     SPIN  1
     eigenvalues:
       0.965  0.991  0.994  0.994  0.997
     eigenvectors (columns):
       1.000  0.000 -0.000 -0.000 -0.000
       0.000 -0.000  0.596 -0.803 -0.000
       0.000 -0.000  0.803  0.596 -0.000
      -0.000 -0.133 -0.000 -0.000 -0.991
      -0.000  0.991  0.000  0.000 -0.133
     occupation matrix ns (before diag.):
       0.965 -0.000 -0.000  0.000  0.000
      -0.000  0.994 -0.000  0.000  0.000
      -0.000 -0.000  0.994  0.000  0.000
       0.000  0.000  0.000  0.997  0.001
       0.000  0.000  0.000  0.001  0.991
     SPIN  2
     eigenvalues:
       0.040  0.042  0.042  0.077  0.105
     eigenvectors (columns):
      -0.000 -0.000  0.000  1.000  0.000
      -0.000 -0.491 -0.871 -0.000  0.000
      -0.000 -0.871  0.491 -0.000  0.000
       0.986 -0.000 -0.000  0.000 -0.167
       0.167 -0.000 -0.000 -0.000  0.986
     occupation matrix ns (before diag.):
       0.077 -0.000 -0.000  0.000  0.000
      -0.000  0.042 -0.000  0.000  0.000
      -0.000 -0.000  0.042  0.000  0.000
       0.000  0.000  0.000  0.042 -0.011
       0.000  0.000  0.000 -0.011  0.103
     ------------------------ ATOM    7 ------------------------
     Tr[ns(  7)] (up, down, total) =   0.94039  4.96941  5.90981
     Atomic magnetic moment for atom   7 =  -4.02902
     SPIN  1
     eigenvalues:
       0.093  0.158  0.158  0.240  0.292
     eigenvectors (columns):
      -0.000 -0.000 -0.000 -1.000  0.000
      -0.000 -0.672  0.741  0.000  0.000
      -0.000 -0.741 -0.672  0.000  0.000
       0.966 -0.000  0.000  0.000  0.259
      -0.259  0.000  0.000  0.000  0.966
     occupation matrix ns (before diag.):
       0.240 -0.000 -0.000  0.000  0.000
      -0.000  0.158 -0.000  0.000  0.000
      -0.000 -0.000  0.158  0.000  0.000
       0.000  0.000  0.000  0.107  0.050
       0.000  0.000  0.000  0.050  0.279
     SPIN  2
     eigenvalues:
       0.986  0.991  0.997  0.997  0.998
     eigenvectors (columns):
       1.000  0.000 -0.000  0.000 -0.000
       0.000 -0.000  0.609 -0.793 -0.000
       0.000 -0.000  0.793  0.609 -0.000
      -0.000  0.192 -0.000  0.000 -0.981
      -0.000  0.981  0.000  0.000  0.192
     occupation matrix ns (before diag.):
       0.986 -0.000 -0.000  0.000  0.000
      -0.000  0.997 -0.000  0.000  0.000
      -0.000 -0.000  0.997  0.000  0.000
       0.000  0.000  0.000  0.998 -0.001
       0.000  0.000  0.000 -0.001  0.992
     ------------------------ ATOM    8 ------------------------
     Tr[ns(  8)] (up, down, total) =   4.97422  0.86293  5.83714
     Atomic magnetic moment for atom   8 =   4.11129
     SPIN  1
     eigenvalues:
       0.989  0.993  0.997  0.997  0.998
     eigenvectors (columns):
       1.000  0.000 -0.000 -0.000 -0.000
       0.000 -0.000  0.655 -0.756 -0.000
       0.000 -0.000  0.756  0.655 -0.000
      -0.000  0.190 -0.000  0.000 -0.982
      -0.000  0.982  0.000  0.000  0.190
     occupation matrix ns (before diag.):
       0.989 -0.000 -0.000  0.000  0.000
      -0.000  0.997 -0.000  0.000  0.000
      -0.000 -0.000  0.997  0.000  0.000
       0.000  0.000  0.000  0.998 -0.001
       0.000  0.000  0.000 -0.001  0.993
     SPIN  2
     eigenvalues:
       0.098  0.137  0.137  0.214  0.277
     eigenvectors (columns):
      -0.000 -0.000  0.000 -1.000  0.000
      -0.000 -0.506  0.862  0.000  0.000
      -0.000 -0.862 -0.506  0.000  0.000
       0.980 -0.000  0.000  0.000  0.197
      -0.197  0.000  0.000  0.000  0.980
     occupation matrix ns (before diag.):
       0.214 -0.000 -0.000  0.000  0.000
      -0.000  0.137 -0.000  0.000  0.000
      -0.000 -0.000  0.137  0.000  0.000
       0.000  0.000  0.000  0.105  0.034
       0.000  0.000  0.000  0.034  0.270

     Number of occupied Hubbard levels =   22.2460

     HUBBARD ENERGY =    0.3249  (Ry)

     total cpu time spent up to now is       48.3 secs

     total energy              =   -1544.39624506 Ry
     estimated scf accuracy    <       0.00080161 Ry

     total magnetization       =    10.00 Bohr mag/cell
     absolute magnetization    =    19.24 Bohr mag/cell

     iteration #  9     ecut=    90.00 Ry     beta= 0.30
     Davidson diagonalization with overlap

---- Real-time Memory Report at c_bands before calling an iterative solver
           473 MiB given to the printing process from OS
           298 MiB allocation reported by mallinfo(arena+hblkhd)
        688409 MiB available memory on the node where the printing process lives
------------------
     ethr =  3.57E-07,  avg # of iterations =  2.2

     =================== HUBBARD OCCUPATIONS ===================
     ------------------------ ATOM    5 ------------------------
     Tr[ns(  5)] (up, down, total) =   4.92697  0.32538  5.25235
     Atomic magnetic moment for atom   5 =   4.60159
     SPIN  1
     eigenvalues:
       0.971  0.973  0.994  0.994  0.995
     eigenvectors (columns):
      -0.000  1.000 -0.000 -0.000 -0.000
      -0.000  0.000  0.557  0.830 -0.000
      -0.000  0.000  0.830 -0.557 -0.000
      -0.259 -0.000 -0.000  0.000 -0.966
       0.966  0.000 -0.000 -0.000 -0.259
     occupation matrix ns (before diag.):
       0.973 -0.000 -0.000  0.000  0.000
      -0.000  0.994 -0.000  0.000  0.000
      -0.000 -0.000  0.994  0.000  0.000
       0.000  0.000  0.000  0.994  0.006
       0.000  0.000  0.000  0.006  0.973
     SPIN  2
     eigenvalues:
       0.042  0.046  0.046  0.070  0.121
     eigenvectors (columns):
      -0.000 -0.000  0.000  1.000  0.000
      -0.000 -0.621 -0.784 -0.000  0.000
      -0.000 -0.784  0.621 -0.000  0.000
       0.977 -0.000  0.000  0.000 -0.212
       0.212 -0.000 -0.000 -0.000  0.977
     occupation matrix ns (before diag.):
       0.070 -0.000 -0.000  0.000  0.000
      -0.000  0.046 -0.000  0.000  0.000
      -0.000 -0.000  0.046  0.000  0.000
       0.000  0.000  0.000  0.046 -0.016
       0.000  0.000  0.000 -0.016  0.117
     ------------------------ ATOM    6 ------------------------
     Tr[ns(  6)] (up, down, total) =   4.94108  0.30710  5.24818
     Atomic magnetic moment for atom   6 =   4.63398
     SPIN  1
     eigenvalues:
       0.965  0.991  0.994  0.994  0.997
     eigenvectors (columns):
       1.000  0.000 -0.000  0.000 -0.000
       0.000 -0.000  0.517 -0.856 -0.000
       0.000 -0.000  0.856  0.517 -0.000
      -0.000 -0.134 -0.000  0.000 -0.991
      -0.000  0.991  0.000  0.000 -0.134
     occupation matrix ns (before diag.):
       0.965 -0.000 -0.000  0.000  0.000
      -0.000  0.994 -0.000  0.000  0.000
      -0.000 -0.000  0.994  0.000  0.000
       0.000  0.000  0.000  0.997  0.001
       0.000  0.000  0.000  0.001  0.991
     SPIN  2
     eigenvalues:
       0.040  0.042  0.042  0.078  0.105
     eigenvectors (columns):
      -0.000 -0.000  0.000  1.000  0.000
      -0.000 -0.755 -0.656 -0.000  0.000
      -0.000 -0.656  0.755 -0.000  0.000
       0.986 -0.000  0.000  0.000 -0.166
       0.166 -0.000  0.000 -0.000  0.986
     occupation matrix ns (before diag.):
       0.078 -0.000 -0.000  0.000  0.000
      -0.000  0.042 -0.000  0.000  0.000
      -0.000 -0.000  0.042  0.000  0.000
       0.000  0.000  0.000  0.042 -0.011
       0.000  0.000  0.000 -0.011  0.103
     ------------------------ ATOM    7 ------------------------
     Tr[ns(  7)] (up, down, total) =   0.94774  4.96955  5.91729
     Atomic magnetic moment for atom   7 =  -4.02181
     SPIN  1
     eigenvalues:
       0.094  0.159  0.159  0.242  0.294
     eigenvectors (columns):
      -0.000 -0.000 -0.000 -1.000  0.000
      -0.000 -0.622  0.783  0.000  0.000
      -0.000 -0.783 -0.622  0.000  0.000
       0.966 -0.000  0.000  0.000  0.259
      -0.259  0.000  0.000  0.000  0.966
     occupation matrix ns (before diag.):
       0.242 -0.000 -0.000  0.000  0.000
      -0.000  0.159 -0.000  0.000  0.000
      -0.000 -0.000  0.159  0.000  0.000
       0.000  0.000  0.000  0.108  0.050
       0.000  0.000  0.000  0.050  0.281
     SPIN  2
     eigenvalues:
       0.986  0.991  0.997  0.997  0.998
     eigenvectors (columns):
       1.000  0.000 -0.000  0.000 -0.000
       0.000 -0.000  0.598 -0.802 -0.000
       0.000 -0.000  0.802  0.598 -0.000
      -0.000  0.191 -0.000  0.000 -0.982
      -0.000  0.982  0.000  0.000  0.191
     occupation matrix ns (before diag.):
       0.986 -0.000 -0.000  0.000  0.000
      -0.000  0.997 -0.000  0.000  0.000
      -0.000 -0.000  0.997  0.000  0.000
       0.000  0.000  0.000  0.998 -0.001
       0.000  0.000  0.000 -0.001  0.992
     ------------------------ ATOM    8 ------------------------
     Tr[ns(  8)] (up, down, total) =   4.97417  0.86780  5.84198
     Atomic magnetic moment for atom   8 =   4.10637
     SPIN  1
     eigenvalues:
       0.989  0.993  0.997  0.997  0.998
     eigenvectors (columns):
       1.000  0.000 -0.000  0.000 -0.000
       0.000 -0.000  0.598 -0.801 -0.000
       0.000 -0.000  0.801  0.598 -0.000
      -0.000  0.190 -0.000  0.000 -0.982
      -0.000  0.982  0.000  0.000  0.190
     occupation matrix ns (before diag.):
       0.989 -0.000 -0.000  0.000  0.000
      -0.000  0.997 -0.000  0.000  0.000
      -0.000 -0.000  0.997  0.000  0.000
       0.000  0.000  0.000  0.998 -0.001
       0.000  0.000  0.000 -0.001  0.993
     SPIN  2
     eigenvalues:
       0.099  0.138  0.138  0.215  0.278
     eigenvectors (columns):
      -0.000 -0.000 -0.000 -1.000  0.000
      -0.000 -0.650  0.760  0.000  0.000
      -0.000 -0.760 -0.650  0.000  0.000
       0.980 -0.000  0.000  0.000  0.197
      -0.197  0.000  0.000  0.000  0.980
     occupation matrix ns (before diag.):
       0.215 -0.000 -0.000  0.000  0.000
      -0.000  0.138 -0.000  0.000  0.000
      -0.000 -0.000  0.138  0.000  0.000
       0.000  0.000  0.000  0.106  0.035
       0.000  0.000  0.000  0.035  0.271

     Number of occupied Hubbard levels =   22.2598

     HUBBARD ENERGY =    0.3246  (Ry)

     total cpu time spent up to now is       53.5 secs

     total energy              =   -1544.39635825 Ry
     estimated scf accuracy    <       0.00008003 Ry

     total magnetization       =    10.00 Bohr mag/cell
     absolute magnetization    =    19.24 Bohr mag/cell

     iteration # 10     ecut=    90.00 Ry     beta= 0.30
     Davidson diagonalization with overlap

---- Real-time Memory Report at c_bands before calling an iterative solver
           479 MiB given to the printing process from OS
           304 MiB allocation reported by mallinfo(arena+hblkhd)
        688445 MiB available memory on the node where the printing process lives
------------------
     ethr =  4.88E-08,  avg # of iterations =  3.2

     =================== HUBBARD OCCUPATIONS ===================
     ------------------------ ATOM    5 ------------------------
     Tr[ns(  5)] (up, down, total) =   4.92716  0.32553  5.25269
     Atomic magnetic moment for atom   5 =   4.60164
     SPIN  1
     eigenvalues:
       0.972  0.973  0.994  0.994  0.995
     eigenvectors (columns):
      -0.000 -1.000 -0.000  0.000 -0.000
      -0.000 -0.000  0.602 -0.799 -0.000
      -0.000 -0.000  0.799  0.602 -0.000
      -0.259  0.000 -0.000 -0.000 -0.966
       0.966 -0.000 -0.000  0.000 -0.259
     occupation matrix ns (before diag.):
       0.973 -0.000 -0.000  0.000  0.000
      -0.000  0.994 -0.000  0.000  0.000
      -0.000 -0.000  0.994  0.000  0.000
       0.000  0.000  0.000  0.994  0.006
       0.000  0.000  0.000  0.006  0.973
     SPIN  2
     eigenvalues:
       0.042  0.046  0.046  0.070  0.121
     eigenvectors (columns):
      -0.000 -0.000  0.000  1.000  0.000
      -0.000 -0.598 -0.801 -0.000  0.000
      -0.000 -0.801  0.598 -0.000  0.000
       0.977 -0.000  0.000  0.000 -0.212
       0.212 -0.000 -0.000 -0.000  0.977
     occupation matrix ns (before diag.):
       0.070 -0.000 -0.000  0.000  0.000
      -0.000  0.046 -0.000  0.000  0.000
      -0.000 -0.000  0.046  0.000  0.000
       0.000  0.000  0.000  0.046 -0.016
       0.000  0.000  0.000 -0.016  0.117
     ------------------------ ATOM    6 ------------------------
     Tr[ns(  6)] (up, down, total) =   4.94118  0.30752  5.24870
     Atomic magnetic moment for atom   6 =   4.63366
     SPIN  1
     eigenvalues:
       0.965  0.991  0.994  0.994  0.997
     eigenvectors (columns):
       1.000  0.000 -0.000 -0.000 -0.000
       0.000 -0.000  0.656 -0.754 -0.000
       0.000 -0.000  0.754  0.656 -0.000
      -0.000 -0.134 -0.000 -0.000 -0.991
      -0.000  0.991  0.000  0.000 -0.134
     occupation matrix ns (before diag.):
       0.965 -0.000 -0.000  0.000  0.000
      -0.000  0.994 -0.000  0.000  0.000
      -0.000 -0.000  0.994  0.000  0.000
       0.000  0.000  0.000  0.997  0.001
       0.000  0.000  0.000  0.001  0.991
     SPIN  2
     eigenvalues:
       0.040  0.042  0.042  0.078  0.105
     eigenvectors (columns):
      -0.000 -0.000  0.000  1.000  0.000
      -0.000 -0.584 -0.812 -0.000  0.000
      -0.000 -0.812  0.584 -0.000  0.000
       0.986 -0.000  0.000  0.000 -0.166
       0.166 -0.000 -0.000 -0.000  0.986
     occupation matrix ns (before diag.):
       0.078 -0.000 -0.000  0.000  0.000
      -0.000  0.042 -0.000  0.000  0.000
      -0.000 -0.000  0.042  0.000  0.000
       0.000  0.000  0.000  0.042 -0.011
       0.000  0.000  0.000 -0.011  0.104
     ------------------------ ATOM    7 ------------------------
     Tr[ns(  7)] (up, down, total) =   0.94436  4.96949  5.91386
     Atomic magnetic moment for atom   7 =  -4.02513
     SPIN  1
     eigenvalues:
       0.094  0.158  0.158  0.241  0.293
     eigenvectors (columns):
      -0.000 -0.000 -0.000 -1.000  0.000
      -0.000 -0.523  0.852  0.000  0.000
      -0.000 -0.852 -0.523  0.000  0.000
       0.966 -0.000  0.000  0.000  0.259
      -0.259  0.000  0.000  0.000  0.966
     occupation matrix ns (before diag.):
       0.241 -0.000 -0.000  0.000  0.000
      -0.000  0.158 -0.000  0.000  0.000
      -0.000 -0.000  0.158  0.000  0.000
       0.000  0.000  0.000  0.107  0.050
       0.000  0.000  0.000  0.050  0.280
     SPIN  2
     eigenvalues:
       0.986  0.991  0.997  0.997  0.998
     eigenvectors (columns):
       1.000  0.000 -0.000 -0.000 -0.000
       0.000 -0.000  0.528  0.849 -0.000
       0.000 -0.000  0.849 -0.528 -0.000
      -0.000  0.191 -0.000 -0.000 -0.982
      -0.000  0.982  0.000  0.000  0.191
     occupation matrix ns (before diag.):
       0.986 -0.000 -0.000  0.000  0.000
      -0.000  0.997 -0.000  0.000  0.000
      -0.000 -0.000  0.997  0.000  0.000
       0.000  0.000  0.000  0.998 -0.001
       0.000  0.000  0.000 -0.001  0.992
     ------------------------ ATOM    8 ------------------------
     Tr[ns(  8)] (up, down, total) =   4.97415  0.86472  5.83888
     Atomic magnetic moment for atom   8 =   4.10943
     SPIN  1
     eigenvalues:
       0.989  0.993  0.997  0.997  0.998
     eigenvectors (columns):
       1.000  0.000 -0.000 -0.000 -0.000
       0.000 -0.000  0.538  0.843 -0.000
       0.000 -0.000  0.843 -0.538 -0.000
      -0.000  0.190 -0.000 -0.000 -0.982
      -0.000  0.982  0.000  0.000  0.190
     occupation matrix ns (before diag.):
       0.989 -0.000 -0.000  0.000  0.000
      -0.000  0.997 -0.000  0.000  0.000
      -0.000 -0.000  0.997  0.000  0.000
       0.000  0.000  0.000  0.998 -0.001
       0.000  0.000  0.000 -0.001  0.993
     SPIN  2
     eigenvalues:
       0.098  0.137  0.137  0.215  0.277
     eigenvectors (columns):
      -0.000 -0.000 -0.000 -1.000  0.000
      -0.000 -0.686  0.727  0.000  0.000
      -0.000 -0.727 -0.686  0.000  0.000
       0.980 -0.000  0.000  0.000  0.197
      -0.197  0.000  0.000  0.000  0.980
     occupation matrix ns (before diag.):
       0.215 -0.000 -0.000  0.000  0.000
      -0.000  0.137 -0.000  0.000  0.000
      -0.000 -0.000  0.137  0.000  0.000
       0.000  0.000  0.000  0.105  0.034
       0.000  0.000  0.000  0.034  0.270

     Number of occupied Hubbard levels =   22.2541

     HUBBARD ENERGY =    0.3244  (Ry)

     total cpu time spent up to now is       58.6 secs

     total energy              =   -1544.39634677 Ry
     estimated scf accuracy    <       0.00005528 Ry

     total magnetization       =    10.00 Bohr mag/cell
     absolute magnetization    =    19.24 Bohr mag/cell

     iteration # 11     ecut=    90.00 Ry     beta= 0.30
     Davidson diagonalization with overlap

---- Real-time Memory Report at c_bands before calling an iterative solver
           485 MiB given to the printing process from OS
           304 MiB allocation reported by mallinfo(arena+hblkhd)
        688510 MiB available memory on the node where the printing process lives
------------------
     ethr =  3.37E-08,  avg # of iterations =  2.1

     =================== HUBBARD OCCUPATIONS ===================
     ------------------------ ATOM    5 ------------------------
     Tr[ns(  5)] (up, down, total) =   4.92667  0.32488  5.25154
     Atomic magnetic moment for atom   5 =   4.60179
     SPIN  1
     eigenvalues:
       0.971  0.973  0.994  0.994  0.995
     eigenvectors (columns):
      -0.000 -1.000 -0.000  0.000 -0.000
      -0.000 -0.000  0.601 -0.799 -0.000
      -0.000 -0.000  0.799  0.601 -0.000
      -0.259  0.000 -0.000 -0.000 -0.966
       0.966 -0.000 -0.000  0.000 -0.259
     occupation matrix ns (before diag.):
       0.973 -0.000 -0.000  0.000  0.000
      -0.000  0.994 -0.000  0.000  0.000
      -0.000 -0.000  0.994  0.000  0.000
       0.000  0.000  0.000  0.994  0.006
       0.000  0.000  0.000  0.006  0.973
     SPIN  2
     eigenvalues:
       0.042  0.046  0.046  0.070  0.121
     eigenvectors (columns):
      -0.000 -0.000  0.000  1.000  0.000
      -0.000 -0.545 -0.839 -0.000  0.000
      -0.000 -0.839  0.545 -0.000  0.000
       0.977 -0.000 -0.000  0.000 -0.212
       0.212 -0.000 -0.000 -0.000  0.977
     occupation matrix ns (before diag.):
       0.070 -0.000 -0.000  0.000  0.000
      -0.000  0.046 -0.000  0.000  0.000
      -0.000 -0.000  0.046  0.000  0.000
       0.000  0.000  0.000  0.045 -0.016
       0.000  0.000  0.000 -0.016  0.117
     ------------------------ ATOM    6 ------------------------
     Tr[ns(  6)] (up, down, total) =   4.94097  0.30706  5.24803
     Atomic magnetic moment for atom   6 =   4.63392
     SPIN  1
     eigenvalues:
       0.965  0.991  0.994  0.994  0.997
     eigenvectors (columns):
       1.000  0.000 -0.000  0.000 -0.000
       0.000 -0.000  0.583 -0.813 -0.000
       0.000 -0.000  0.813  0.583 -0.000
      -0.000 -0.134 -0.000 -0.000 -0.991
      -0.000  0.991  0.000  0.000 -0.134
     occupation matrix ns (before diag.):
       0.965 -0.000 -0.000  0.000  0.000
      -0.000  0.994 -0.000  0.000  0.000
      -0.000 -0.000  0.994  0.000  0.000
       0.000  0.000  0.000  0.997  0.001
       0.000  0.000  0.000  0.001  0.991
     SPIN  2
     eigenvalues:
       0.040  0.042  0.042  0.078  0.105
     eigenvectors (columns):
      -0.000 -0.000 -0.000  1.000  0.000
      -0.000 -0.462 -0.887 -0.000  0.000
      -0.000 -0.887  0.462 -0.000  0.000
       0.986 -0.000 -0.000  0.000 -0.166
       0.166 -0.000 -0.000 -0.000  0.986
     occupation matrix ns (before diag.):
       0.078 -0.000 -0.000  0.000  0.000
      -0.000  0.042 -0.000  0.000  0.000
      -0.000 -0.000  0.042  0.000  0.000
       0.000  0.000  0.000  0.042 -0.011
       0.000  0.000  0.000 -0.011  0.104
     ------------------------ ATOM    7 ------------------------
     Tr[ns(  7)] (up, down, total) =   0.94672  4.96957  5.91628
     Atomic magnetic moment for atom   7 =  -4.02285
     SPIN  1
     eigenvalues:
       0.094  0.158  0.158  0.242  0.294
     eigenvectors (columns):
      -0.000 -0.000 -0.000 -1.000  0.000
      -0.000 -0.489  0.872  0.000  0.000
      -0.000 -0.872 -0.489  0.000  0.000
       0.966 -0.000  0.000  0.000  0.259
      -0.259  0.000  0.000  0.000  0.966
     occupation matrix ns (before diag.):
       0.242 -0.000 -0.000  0.000  0.000
      -0.000  0.158 -0.000  0.000  0.000
      -0.000 -0.000  0.158  0.000  0.000
       0.000  0.000  0.000  0.108  0.050
       0.000  0.000  0.000  0.050  0.281
     SPIN  2
     eigenvalues:
       0.986  0.991  0.997  0.997  0.998
     eigenvectors (columns):
       1.000  0.000 -0.000  0.000 -0.000
       0.000 -0.000  0.599 -0.800 -0.000
       0.000 -0.000  0.800  0.599 -0.000
      -0.000  0.191 -0.000  0.000 -0.982
      -0.000  0.982  0.000  0.000  0.191
     occupation matrix ns (before diag.):
       0.986 -0.000 -0.000  0.000  0.000
      -0.000  0.997 -0.000  0.000  0.000
      -0.000 -0.000  0.997  0.000  0.000
       0.000  0.000  0.000  0.998 -0.001
       0.000  0.000  0.000 -0.001  0.992
     ------------------------ ATOM    8 ------------------------
     Tr[ns(  8)] (up, down, total) =   4.97420  0.86563  5.83983
     Atomic magnetic moment for atom   8 =   4.10856
     SPIN  1
     eigenvalues:
       0.989  0.993  0.997  0.997  0.998
     eigenvectors (columns):
       1.000  0.000 -0.000 -0.000 -0.000
       0.000 -0.000  0.688 -0.726 -0.000
       0.000 -0.000  0.726  0.688 -0.000
      -0.000  0.189 -0.000 -0.000 -0.982
      -0.000  0.982  0.000  0.000  0.189
     occupation matrix ns (before diag.):
       0.989 -0.000 -0.000  0.000  0.000
      -0.000  0.997 -0.000  0.000  0.000
      -0.000 -0.000  0.997  0.000  0.000
       0.000  0.000  0.000  0.998 -0.001
       0.000  0.000  0.000 -0.001  0.993
     SPIN  2
     eigenvalues:
       0.099  0.137  0.137  0.215  0.277
     eigenvectors (columns):
      -0.000 -0.000 -0.000 -1.000  0.000
      -0.000 -0.753  0.658  0.000  0.000
      -0.000 -0.658 -0.753  0.000  0.000
       0.980 -0.000 -0.000  0.000  0.197
      -0.197  0.000  0.000  0.000  0.980
     occupation matrix ns (before diag.):
       0.215 -0.000 -0.000  0.000  0.000
      -0.000  0.137 -0.000  0.000  0.000
      -0.000 -0.000  0.137  0.000  0.000
       0.000  0.000  0.000  0.106  0.034
       0.000  0.000  0.000  0.034  0.270

     Number of occupied Hubbard levels =   22.2557

     HUBBARD ENERGY =    0.3241  (Ry)

     total cpu time spent up to now is       63.8 secs

     total energy              =   -1544.39635431 Ry
     estimated scf accuracy    <       0.00001768 Ry

     total magnetization       =    10.00 Bohr mag/cell
     absolute magnetization    =    19.23 Bohr mag/cell

     iteration # 12     ecut=    90.00 Ry     beta= 0.30
     Davidson diagonalization with overlap

---- Real-time Memory Report at c_bands before calling an iterative solver
           485 MiB given to the printing process from OS
           304 MiB allocation reported by mallinfo(arena+hblkhd)
        688471 MiB available memory on the node where the printing process lives
------------------
     ethr =  1.08E-08,  avg # of iterations =  2.0

     =================== HUBBARD OCCUPATIONS ===================
     ------------------------ ATOM    5 ------------------------
     Tr[ns(  5)] (up, down, total) =   4.92674  0.32504  5.25178
     Atomic magnetic moment for atom   5 =   4.60170
     SPIN  1
     eigenvalues:
       0.971  0.973  0.994  0.994  0.995
     eigenvectors (columns):
      -0.000  1.000 -0.000  0.000 -0.000
      -0.000  0.000  0.658  0.753 -0.000
      -0.000  0.000  0.753 -0.658 -0.000
      -0.259 -0.000 -0.000  0.000 -0.966
       0.966  0.000 -0.000  0.000 -0.259
     occupation matrix ns (before diag.):
       0.973 -0.000 -0.000  0.000  0.000
      -0.000  0.994 -0.000  0.000  0.000
      -0.000 -0.000  0.994  0.000  0.000
       0.000  0.000  0.000  0.994  0.006
       0.000  0.000  0.000  0.006  0.973
     SPIN  2
     eigenvalues:
       0.042  0.046  0.046  0.070  0.121
     eigenvectors (columns):
      -0.000 -0.000  0.000  1.000  0.000
      -0.000 -0.525 -0.851 -0.000  0.000
      -0.000 -0.851  0.525 -0.000  0.000
       0.977 -0.000 -0.000  0.000 -0.212
       0.212 -0.000 -0.000 -0.000  0.977
     occupation matrix ns (before diag.):
       0.070 -0.000 -0.000  0.000  0.000
      -0.000  0.046 -0.000  0.000  0.000
      -0.000 -0.000  0.046  0.000  0.000
       0.000  0.000  0.000  0.045 -0.016
       0.000  0.000  0.000 -0.016  0.117
     ------------------------ ATOM    6 ------------------------
     Tr[ns(  6)] (up, down, total) =   4.94103  0.30722  5.24825
     Atomic magnetic moment for atom   6 =   4.63381
     SPIN  1
     eigenvalues:
       0.965  0.991  0.994  0.994  0.997
     eigenvectors (columns):
       1.000  0.000 -0.000  0.000 -0.000
       0.000 -0.000  0.654 -0.756 -0.000
       0.000 -0.000  0.756  0.654 -0.000
      -0.000 -0.134 -0.000 -0.000 -0.991
      -0.000  0.991  0.000  0.000 -0.134
     occupation matrix ns (before diag.):
       0.965 -0.000 -0.000  0.000  0.000
      -0.000  0.994 -0.000  0.000  0.000
      -0.000 -0.000  0.994  0.000  0.000
       0.000  0.000  0.000  0.997  0.001
       0.000  0.000  0.000  0.001  0.991
     SPIN  2
     eigenvalues:
       0.040  0.042  0.042  0.078  0.105
     eigenvectors (columns):
      -0.000 -0.000  0.000  1.000  0.000
      -0.000 -0.574 -0.819 -0.000  0.000
      -0.000 -0.819  0.574 -0.000  0.000
       0.986 -0.000  0.000  0.000 -0.166
       0.166 -0.000 -0.000 -0.000  0.986
     occupation matrix ns (before diag.):
       0.078 -0.000 -0.000  0.000  0.000
      -0.000  0.042 -0.000  0.000  0.000
      -0.000 -0.000  0.042  0.000  0.000
       0.000  0.000  0.000  0.042 -0.011
       0.000  0.000  0.000 -0.011  0.104
     ------------------------ ATOM    7 ------------------------
     Tr[ns(  7)] (up, down, total) =   0.94621  4.96956  5.91576
     Atomic magnetic moment for atom   7 =  -4.02335
     SPIN  1
     eigenvalues:
       0.094  0.158  0.158  0.242  0.294
     eigenvectors (columns):
      -0.000 -0.000 -0.000 -1.000  0.000
      -0.000 -0.533  0.846  0.000  0.000
      -0.000 -0.846 -0.533  0.000  0.000
       0.966 -0.000  0.000  0.000  0.259
      -0.259  0.000  0.000  0.000  0.966
     occupation matrix ns (before diag.):
       0.242 -0.000 -0.000  0.000  0.000
      -0.000  0.158 -0.000  0.000  0.000
      -0.000 -0.000  0.158  0.000  0.000
       0.000  0.000  0.000  0.108  0.050
       0.000  0.000  0.000  0.050  0.281
     SPIN  2
     eigenvalues:
       0.986  0.991  0.997  0.997  0.998
     eigenvectors (columns):
       1.000  0.000 -0.000 -0.000 -0.000
       0.000 -0.000  0.528  0.849 -0.000
       0.000 -0.000  0.849 -0.528 -0.000
      -0.000  0.191 -0.000 -0.000 -0.982
      -0.000  0.982  0.000  0.000  0.191
     occupation matrix ns (before diag.):
       0.986 -0.000 -0.000  0.000  0.000
      -0.000  0.997 -0.000  0.000  0.000
      -0.000 -0.000  0.997  0.000  0.000
       0.000  0.000  0.000  0.998 -0.001
       0.000  0.000  0.000 -0.001  0.992
     ------------------------ ATOM    8 ------------------------
     Tr[ns(  8)] (up, down, total) =   4.97419  0.86589  5.84008
     Atomic magnetic moment for atom   8 =   4.10830
     SPIN  1
     eigenvalues:
       0.989  0.993  0.997  0.997  0.998
     eigenvectors (columns):
       1.000  0.000 -0.000 -0.000 -0.000
       0.000 -0.000  0.538  0.843 -0.000
       0.000 -0.000  0.843 -0.538 -0.000
      -0.000  0.190 -0.000 -0.000 -0.982
      -0.000  0.982  0.000  0.000  0.190
     occupation matrix ns (before diag.):
       0.989 -0.000 -0.000  0.000  0.000
      -0.000  0.997 -0.000  0.000  0.000
      -0.000 -0.000  0.997  0.000  0.000
       0.000  0.000  0.000  0.998 -0.001
       0.000  0.000  0.000 -0.001  0.993
     SPIN  2
     eigenvalues:
       0.099  0.137  0.137  0.215  0.277
     eigenvectors (columns):
      -0.000 -0.000 -0.000 -1.000  0.000
      -0.000 -0.649  0.761  0.000  0.000
      -0.000 -0.761 -0.649  0.000  0.000
       0.980 -0.000  0.000  0.000  0.197
      -0.197  0.000  0.000  0.000  0.980
     occupation matrix ns (before diag.):
       0.215 -0.000 -0.000  0.000  0.000
      -0.000  0.137 -0.000  0.000  0.000
      -0.000 -0.000  0.137  0.000  0.000
       0.000  0.000  0.000  0.106  0.034
       0.000  0.000  0.000  0.034  0.271

     Number of occupied Hubbard levels =   22.2559

     HUBBARD ENERGY =    0.3243  (Ry)

     total cpu time spent up to now is       68.5 secs

     total energy              =   -1544.39635386 Ry
     estimated scf accuracy    <       0.00000563 Ry

     total magnetization       =    10.00 Bohr mag/cell
     absolute magnetization    =    19.24 Bohr mag/cell

     iteration # 13     ecut=    90.00 Ry     beta= 0.30
     Davidson diagonalization with overlap

---- Real-time Memory Report at c_bands before calling an iterative solver
           485 MiB given to the printing process from OS
           304 MiB allocation reported by mallinfo(arena+hblkhd)
        688522 MiB available memory on the node where the printing process lives
------------------
     ethr =  3.43E-09,  avg # of iterations =  2.6

     =================== HUBBARD OCCUPATIONS ===================
     ------------------------ ATOM    5 ------------------------
     Tr[ns(  5)] (up, down, total) =   4.92677  0.32511  5.25189
     Atomic magnetic moment for atom   5 =   4.60166
     SPIN  1
     eigenvalues:
       0.971  0.973  0.994  0.994  0.995
     eigenvectors (columns):
      -0.000 -1.000 -0.000 -0.000 -0.000
      -0.000 -0.000  0.602 -0.799 -0.000
      -0.000 -0.000  0.799  0.602 -0.000
      -0.259  0.000 -0.000 -0.000 -0.966
       0.966 -0.000 -0.000  0.000 -0.259
     occupation matrix ns (before diag.):
       0.973 -0.000 -0.000  0.000  0.000
      -0.000  0.994 -0.000  0.000  0.000
      -0.000 -0.000  0.994  0.000  0.000
       0.000  0.000  0.000  0.994  0.006
       0.000  0.000  0.000  0.006  0.973
     SPIN  2
     eigenvalues:
       0.042  0.046  0.046  0.070  0.121
     eigenvectors (columns):
      -0.000 -0.000  0.000  1.000  0.000
      -0.000 -0.643 -0.766 -0.000  0.000
      -0.000 -0.766  0.643 -0.000  0.000
       0.977 -0.000  0.000  0.000 -0.212
       0.212 -0.000 -0.000 -0.000  0.977
     occupation matrix ns (before diag.):
       0.070 -0.000 -0.000  0.000  0.000
      -0.000  0.046 -0.000  0.000  0.000
      -0.000 -0.000  0.046  0.000  0.000
       0.000  0.000  0.000  0.045 -0.016
       0.000  0.000  0.000 -0.016  0.117
     ------------------------ ATOM    6 ------------------------
     Tr[ns(  6)] (up, down, total) =   4.94108  0.30730  5.24838
     Atomic magnetic moment for atom   6 =   4.63379
     SPIN  1
     eigenvalues:
       0.965  0.991  0.994  0.994  0.997
     eigenvectors (columns):
       1.000  0.000 -0.000  0.000 -0.000
       0.000 -0.000  0.635 -0.772 -0.000
       0.000 -0.000  0.772  0.635 -0.000
      -0.000 -0.134 -0.000 -0.000 -0.991
      -0.000  0.991  0.000  0.000 -0.134
     occupation matrix ns (before diag.):
       0.965 -0.000 -0.000  0.000  0.000
      -0.000  0.994 -0.000  0.000  0.000
      -0.000 -0.000  0.994  0.000  0.000
       0.000  0.000  0.000  0.997  0.001
       0.000  0.000  0.000  0.001  0.991
     SPIN  2
     eigenvalues:
       0.040  0.042  0.042  0.078  0.105
     eigenvectors (columns):
      -0.000 -0.000  0.000  1.000  0.000
      -0.000 -0.602 -0.799 -0.000  0.000
      -0.000 -0.799  0.602 -0.000  0.000
       0.986 -0.000  0.000  0.000 -0.166
       0.166 -0.000 -0.000 -0.000  0.986
     occupation matrix ns (before diag.):
       0.078 -0.000 -0.000  0.000  0.000
      -0.000  0.042 -0.000  0.000  0.000
      -0.000 -0.000  0.042  0.000  0.000
       0.000  0.000  0.000  0.042 -0.011
       0.000  0.000  0.000 -0.011  0.104
     ------------------------ ATOM    7 ------------------------
     Tr[ns(  7)] (up, down, total) =   0.94583  4.96954  5.91537
     Atomic magnetic moment for atom   7 =  -4.02371
     SPIN  1
     eigenvalues:
       0.094  0.158  0.158  0.241  0.294
     eigenvectors (columns):
      -0.000 -0.000 -0.000 -1.000  0.000
      -0.000 -0.598  0.801  0.000  0.000
      -0.000 -0.801 -0.598  0.000  0.000
       0.966 -0.000  0.000  0.000  0.259
      -0.259  0.000  0.000  0.000  0.966
     occupation matrix ns (before diag.):
       0.241 -0.000 -0.000  0.000  0.000
      -0.000  0.158 -0.000  0.000  0.000
      -0.000 -0.000  0.158  0.000  0.000
       0.000  0.000  0.000  0.108  0.050
       0.000  0.000  0.000  0.050  0.281
     SPIN  2
     eigenvalues:
       0.986  0.991  0.997  0.997  0.998
     eigenvectors (columns):
       1.000  0.000 -0.000 -0.000 -0.000
       0.000 -0.000  0.528  0.849 -0.000
       0.000 -0.000  0.849 -0.528 -0.000
      -0.000  0.191 -0.000 -0.000 -0.982
      -0.000  0.982  0.000  0.000  0.191
     occupation matrix ns (before diag.):
       0.986 -0.000 -0.000  0.000  0.000
      -0.000  0.997 -0.000  0.000  0.000
      -0.000 -0.000  0.997  0.000  0.000
       0.000  0.000  0.000  0.998 -0.001
       0.000  0.000  0.000 -0.001  0.992
     ------------------------ ATOM    8 ------------------------
     Tr[ns(  8)] (up, down, total) =   4.97419  0.86642  5.84061
     Atomic magnetic moment for atom   8 =   4.10777
     SPIN  1
     eigenvalues:
       0.989  0.993  0.997  0.997  0.998
     eigenvectors (columns):
       1.000  0.000 -0.000  0.000 -0.000
       0.000 -0.000  0.677 -0.736 -0.000
       0.000 -0.000  0.736  0.677 -0.000
      -0.000  0.190 -0.000  0.000 -0.982
      -0.000  0.982  0.000  0.000  0.190
     occupation matrix ns (before diag.):
       0.989 -0.000 -0.000  0.000  0.000
      -0.000  0.997 -0.000  0.000  0.000
      -0.000 -0.000  0.997  0.000  0.000
       0.000  0.000  0.000  0.998 -0.001
       0.000  0.000  0.000 -0.001  0.993
     SPIN  2
     eigenvalues:
       0.099  0.137  0.137  0.215  0.278
     eigenvectors (columns):
      -0.000 -0.000 -0.000 -1.000  0.000
      -0.000 -0.556  0.831  0.000  0.000
      -0.000 -0.831 -0.556  0.000  0.000
       0.980 -0.000  0.000  0.000  0.197
      -0.197  0.000  0.000  0.000  0.980
     occupation matrix ns (before diag.):
       0.215 -0.000 -0.000  0.000  0.000
      -0.000  0.137 -0.000  0.000  0.000
      -0.000 -0.000  0.137  0.000  0.000
       0.000  0.000  0.000  0.106  0.034
       0.000  0.000  0.000  0.034  0.271

     Number of occupied Hubbard levels =   22.2562

     HUBBARD ENERGY =    0.3244  (Ry)

     total cpu time spent up to now is       73.6 secs

     total energy              =   -1544.39635466 Ry
     estimated scf accuracy    <       0.00000101 Ry

     total magnetization       =    10.00 Bohr mag/cell
     absolute magnetization    =    19.24 Bohr mag/cell

     iteration # 14     ecut=    90.00 Ry     beta= 0.30
     Davidson diagonalization with overlap

---- Real-time Memory Report at c_bands before calling an iterative solver
           485 MiB given to the printing process from OS
           304 MiB allocation reported by mallinfo(arena+hblkhd)
        688477 MiB available memory on the node where the printing process lives
------------------
     ethr =  6.15E-10,  avg # of iterations =  4.0

     =================== HUBBARD OCCUPATIONS ===================
     ------------------------ ATOM    5 ------------------------
     Tr[ns(  5)] (up, down, total) =   4.92675  0.32508  5.25182
     Atomic magnetic moment for atom   5 =   4.60167
     SPIN  1
     eigenvalues:
       0.971  0.973  0.994  0.994  0.995
     eigenvectors (columns):
      -0.000  1.000 -0.000 -0.000 -0.000
      -0.000  0.000  0.553  0.833 -0.000
      -0.000  0.000  0.833 -0.553 -0.000
      -0.259 -0.000 -0.000  0.000 -0.966
       0.966  0.000 -0.000 -0.000 -0.259
     occupation matrix ns (before diag.):
       0.973 -0.000 -0.000  0.000  0.000
      -0.000  0.994 -0.000  0.000  0.000
      -0.000 -0.000  0.994  0.000  0.000
       0.000  0.000  0.000  0.994  0.006
       0.000  0.000  0.000  0.006  0.973
     SPIN  2
     eigenvalues:
       0.042  0.046  0.046  0.070  0.121
     eigenvectors (columns):
      -0.000 -0.000  0.000  1.000  0.000
      -0.000 -0.627 -0.779 -0.000  0.000
      -0.000 -0.779  0.627 -0.000  0.000
       0.977 -0.000  0.000  0.000 -0.212
       0.212 -0.000 -0.000 -0.000  0.977
     occupation matrix ns (before diag.):
       0.070 -0.000 -0.000  0.000  0.000
      -0.000  0.046 -0.000  0.000  0.000
      -0.000 -0.000  0.046  0.000  0.000
       0.000  0.000  0.000  0.045 -0.016
       0.000  0.000  0.000 -0.016  0.117
     ------------------------ ATOM    6 ------------------------
     Tr[ns(  6)] (up, down, total) =   4.94108  0.30727  5.24835
     Atomic magnetic moment for atom   6 =   4.63380
     SPIN  1
     eigenvalues:
       0.965  0.991  0.994  0.994  0.997
     eigenvectors (columns):
       1.000  0.000 -0.000  0.000 -0.000
       0.000 -0.000  0.471 -0.882 -0.000
       0.000 -0.000  0.882  0.471 -0.000
      -0.000 -0.134 -0.000  0.000 -0.991
      -0.000  0.991  0.000  0.000 -0.134
     occupation matrix ns (before diag.):
       0.965 -0.000 -0.000  0.000  0.000
      -0.000  0.994 -0.000  0.000  0.000
      -0.000 -0.000  0.994  0.000  0.000
       0.000  0.000  0.000  0.997  0.001
       0.000  0.000  0.000  0.001  0.991
     SPIN  2
     eigenvalues:
       0.040  0.042  0.042  0.078  0.105
     eigenvectors (columns):
      -0.000 -0.000  0.000  1.000  0.000
      -0.000 -0.580 -0.815 -0.000  0.000
      -0.000 -0.815  0.580 -0.000  0.000
       0.986 -0.000  0.000  0.000 -0.166
       0.166 -0.000 -0.000 -0.000  0.986
     occupation matrix ns (before diag.):
       0.078 -0.000 -0.000  0.000  0.000
      -0.000  0.042 -0.000  0.000  0.000
      -0.000 -0.000  0.042  0.000  0.000
       0.000  0.000  0.000  0.042 -0.011
       0.000  0.000  0.000 -0.011  0.104
     ------------------------ ATOM    7 ------------------------
     Tr[ns(  7)] (up, down, total) =   0.94597  4.96955  5.91552
     Atomic magnetic moment for atom   7 =  -4.02357
     SPIN  1
     eigenvalues:
       0.094  0.158  0.158  0.241  0.294
     eigenvectors (columns):
      -0.000 -0.000 -0.000 -1.000  0.000
      -0.000 -0.631  0.776  0.000  0.000
      -0.000 -0.776 -0.631  0.000  0.000
       0.966 -0.000  0.000  0.000  0.259
      -0.259  0.000  0.000  0.000  0.966
     occupation matrix ns (before diag.):
       0.241 -0.000 -0.000  0.000  0.000
      -0.000  0.158 -0.000  0.000  0.000
      -0.000 -0.000  0.158  0.000  0.000
       0.000  0.000  0.000  0.108  0.050
       0.000  0.000  0.000  0.050  0.281
     SPIN  2
     eigenvalues:
       0.986  0.991  0.997  0.997  0.998
     eigenvectors (columns):
       1.000  0.000 -0.000  0.000 -0.000
       0.000 -0.000  0.646 -0.763 -0.000
       0.000 -0.000  0.763  0.646 -0.000
      -0.000  0.191 -0.000  0.000 -0.982
      -0.000  0.982  0.000  0.000  0.191
     occupation matrix ns (before diag.):
       0.986 -0.000 -0.000  0.000  0.000
      -0.000  0.997 -0.000  0.000  0.000
      -0.000 -0.000  0.997  0.000  0.000
       0.000  0.000  0.000  0.998 -0.001
       0.000  0.000  0.000 -0.001  0.992
     ------------------------ ATOM    8 ------------------------
     Tr[ns(  8)] (up, down, total) =   4.97420  0.86629  5.84049
     Atomic magnetic moment for atom   8 =   4.10790
     SPIN  1
     eigenvalues:
       0.989  0.993  0.997  0.997  0.998
     eigenvectors (columns):
       1.000  0.000 -0.000 -0.000 -0.000
       0.000 -0.000  0.538  0.843 -0.000
       0.000 -0.000  0.843 -0.538 -0.000
      -0.000  0.190 -0.000 -0.000 -0.982
      -0.000  0.982  0.000  0.000  0.190
     occupation matrix ns (before diag.):
       0.989 -0.000 -0.000  0.000  0.000
      -0.000  0.997 -0.000  0.000  0.000
      -0.000 -0.000  0.997  0.000  0.000
       0.000  0.000  0.000  0.998 -0.001
       0.000  0.000  0.000 -0.001  0.993
     SPIN  2
     eigenvalues:
       0.099  0.137  0.137  0.215  0.278
     eigenvectors (columns):
      -0.000 -0.000 -0.000 -1.000  0.000
      -0.000 -0.518  0.855  0.000  0.000
      -0.000 -0.855 -0.518  0.000  0.000
       0.980 -0.000  0.000  0.000  0.197
      -0.197  0.000  0.000  0.000  0.980
     occupation matrix ns (before diag.):
       0.215 -0.000 -0.000  0.000  0.000
      -0.000  0.137 -0.000  0.000  0.000
      -0.000 -0.000  0.137  0.000  0.000
       0.000  0.000  0.000  0.106  0.034
       0.000  0.000  0.000  0.034  0.271

     Number of occupied Hubbard levels =   22.2562

     HUBBARD ENERGY =    0.3245  (Ry)

     total cpu time spent up to now is       78.9 secs

     total energy              =   -1544.39635483 Ry
     estimated scf accuracy    <       0.00000045 Ry

     total magnetization       =    10.00 Bohr mag/cell
     absolute magnetization    =    19.24 Bohr mag/cell

     iteration # 15     ecut=    90.00 Ry     beta= 0.30
     Davidson diagonalization with overlap

---- Real-time Memory Report at c_bands before calling an iterative solver
           485 MiB given to the printing process from OS
           304 MiB allocation reported by mallinfo(arena+hblkhd)
        688399 MiB available memory on the node where the printing process lives
------------------
     ethr =  2.76E-10,  avg # of iterations =  2.0

     =================== HUBBARD OCCUPATIONS ===================
     ------------------------ ATOM    5 ------------------------
     Tr[ns(  5)] (up, down, total) =   4.92677  0.32513  5.25189
     Atomic magnetic moment for atom   5 =   4.60164
     SPIN  1
     eigenvalues:
       0.971  0.973  0.994  0.994  0.995
     eigenvectors (columns):
      -0.000  1.000 -0.000 -0.000 -0.000
      -0.000  0.000  0.558  0.830 -0.000
      -0.000  0.000  0.830 -0.558 -0.000
      -0.259 -0.000 -0.000  0.000 -0.966
       0.966  0.000 -0.000 -0.000 -0.259
     occupation matrix ns (before diag.):
       0.973 -0.000 -0.000  0.000  0.000
      -0.000  0.994 -0.000  0.000  0.000
      -0.000 -0.000  0.994  0.000  0.000
       0.000  0.000  0.000  0.994  0.006
       0.000  0.000  0.000  0.006  0.973
     SPIN  2
     eigenvalues:
       0.042  0.046  0.046  0.070  0.121
     eigenvectors (columns):
      -0.000 -0.000  0.000  1.000  0.000
      -0.000 -0.650 -0.760 -0.000  0.000
      -0.000 -0.760  0.650 -0.000  0.000
       0.977 -0.000  0.000  0.000 -0.212
       0.212 -0.000 -0.000 -0.000  0.977
     occupation matrix ns (before diag.):
       0.070 -0.000 -0.000  0.000  0.000
      -0.000  0.046 -0.000  0.000  0.000
      -0.000 -0.000  0.046  0.000  0.000
       0.000  0.000  0.000  0.045 -0.016
       0.000  0.000  0.000 -0.016  0.117
     ------------------------ ATOM    6 ------------------------
     Tr[ns(  6)] (up, down, total) =   4.94110  0.30730  5.24840
     Atomic magnetic moment for atom   6 =   4.63379
     SPIN  1
     eigenvalues:
       0.965  0.991  0.994  0.994  0.997
     eigenvectors (columns):
       1.000  0.000 -0.000 -0.000 -0.000
       0.000 -0.000  0.663 -0.749 -0.000
       0.000 -0.000  0.749  0.663 -0.000
      -0.000 -0.134 -0.000 -0.000 -0.991
      -0.000  0.991  0.000  0.000 -0.134
     occupation matrix ns (before diag.):
       0.965 -0.000 -0.000  0.000  0.000
      -0.000  0.994 -0.000  0.000  0.000
      -0.000 -0.000  0.994  0.000  0.000
       0.000  0.000  0.000  0.997  0.001
       0.000  0.000  0.000  0.001  0.991
     SPIN  2
     eigenvalues:
       0.040  0.042  0.042  0.078  0.105
     eigenvectors (columns):
      -0.000 -0.000  0.000  1.000  0.000
      -0.000 -0.543 -0.839 -0.000  0.000
      -0.000 -0.839  0.543 -0.000  0.000
       0.986 -0.000 -0.000  0.000 -0.166
       0.166 -0.000 -0.000 -0.000  0.986
     occupation matrix ns (before diag.):
       0.078 -0.000 -0.000  0.000  0.000
      -0.000  0.042 -0.000  0.000  0.000
      -0.000 -0.000  0.042  0.000  0.000
       0.000  0.000  0.000  0.042 -0.011
       0.000  0.000  0.000 -0.011  0.104
     ------------------------ ATOM    7 ------------------------
     Tr[ns(  7)] (up, down, total) =   0.94595  4.96954  5.91549
     Atomic magnetic moment for atom   7 =  -4.02359
     SPIN  1
     eigenvalues:
       0.094  0.158  0.158  0.241  0.294
     eigenvectors (columns):
      -0.000 -0.000 -0.000 -1.000  0.000
      -0.000 -0.619  0.785  0.000  0.000
      -0.000 -0.785 -0.619  0.000  0.000
       0.966 -0.000  0.000  0.000  0.259
      -0.259  0.000  0.000  0.000  0.966
     occupation matrix ns (before diag.):
       0.241 -0.000 -0.000  0.000  0.000
      -0.000  0.158 -0.000  0.000  0.000
      -0.000 -0.000  0.158  0.000  0.000
       0.000  0.000  0.000  0.108  0.050
       0.000  0.000  0.000  0.050  0.281
     SPIN  2
     eigenvalues:
       0.986  0.991  0.997  0.997  0.998
     eigenvectors (columns):
       1.000  0.000 -0.000 -0.000 -0.000
       0.000 -0.000  0.528  0.849 -0.000
       0.000 -0.000  0.849 -0.528 -0.000
      -0.000  0.191 -0.000 -0.000 -0.982
      -0.000  0.982  0.000  0.000  0.191
     occupation matrix ns (before diag.):
       0.986 -0.000 -0.000  0.000  0.000
      -0.000  0.997 -0.000  0.000  0.000
      -0.000 -0.000  0.997  0.000  0.000
       0.000  0.000  0.000  0.998 -0.001
       0.000  0.000  0.000 -0.001  0.992
     ------------------------ ATOM    8 ------------------------
     Tr[ns(  8)] (up, down, total) =   4.97419  0.86645  5.84064
     Atomic magnetic moment for atom   8 =   4.10775
     SPIN  1
     eigenvalues:
       0.989  0.993  0.997  0.997  0.998
     eigenvectors (columns):
       1.000  0.000 -0.000 -0.000 -0.000
       0.000 -0.000  0.651 -0.759 -0.000
       0.000 -0.000  0.759  0.651 -0.000
      -0.000  0.190 -0.000  0.000 -0.982
      -0.000  0.982  0.000  0.000  0.190
     occupation matrix ns (before diag.):
       0.989 -0.000 -0.000  0.000  0.000
      -0.000  0.997 -0.000  0.000  0.000
      -0.000 -0.000  0.997  0.000  0.000
       0.000  0.000  0.000  0.998 -0.001
       0.000  0.000  0.000 -0.001  0.993
     SPIN  2
     eigenvalues:
       0.099  0.137  0.137  0.215  0.278
     eigenvectors (columns):
      -0.000 -0.000 -0.000 -1.000  0.000
      -0.000 -0.644  0.765  0.000  0.000
      -0.000 -0.765 -0.644  0.000  0.000
       0.980 -0.000  0.000  0.000  0.197
      -0.197  0.000  0.000  0.000  0.980
     occupation matrix ns (before diag.):
       0.215 -0.000 -0.000  0.000  0.000
      -0.000  0.137 -0.000  0.000  0.000
      -0.000 -0.000  0.137  0.000  0.000
       0.000  0.000  0.000  0.106  0.034
       0.000  0.000  0.000  0.034  0.271

     Number of occupied Hubbard levels =   22.2564

     HUBBARD ENERGY =    0.3245  (Ry)

     Magnetic moment per site  (integrated on atomic sphere of radius R)
     atom   1 (R=0.206)  charge=  6.8280  magn=  0.0012
     atom   2 (R=0.206)  charge=  6.8280  magn=  0.0012
     atom   3 (R=0.166)  charge=  7.2881  magn=  0.0035
     atom   4 (R=0.166)  charge=  7.2881  magn=  0.0035
     atom   5 (R=0.151)  charge= 12.2812  magn=  4.0335
     atom   6 (R=0.151)  charge= 12.2854  magn=  4.0668
     atom   7 (R=0.140)  charge= 12.8349  magn= -3.7183
     atom   8 (R=0.140)  charge= 12.8016  magn=  3.8133
     atom   9 (R=0.140)  charge=  5.2905  magn= -0.1160
     atom  10 (R=0.140)  charge=  5.2954  magn=  0.1909
     atom  11 (R=0.140)  charge=  5.2967  magn=  0.1455
     atom  12 (R=0.140)  charge=  5.2967  magn=  0.1455
     atom  13 (R=0.140)  charge=  5.2967  magn=  0.1455
     atom  14 (R=0.140)  charge=  5.2967  magn=  0.1455
     atom  15 (R=0.140)  charge=  5.2930  magn= -0.0782
     atom  16 (R=0.140)  charge=  5.2930  magn= -0.0782
     atom  17 (R=0.140)  charge=  5.2930  magn= -0.0782
     atom  18 (R=0.140)  charge=  5.2930  magn= -0.0782

     total cpu time spent up to now is       83.8 secs

     End of self-consistent calculation

 ------ SPIN UP ------------


          k = 0.0000 0.0000 0.0000 ( 24031 PWs)   bands (ev):

   -80.8066 -75.7151 -69.5713 -69.5346 -47.0240 -46.8759 -46.8759 -41.7509
   -41.5844 -41.5844 -38.6137 -38.5826 -38.4413 -38.4413 -38.4089 -38.4089
   -30.3520 -30.3374 -15.9739 -15.8415 -10.7695 -10.7695 -10.7684 -10.4936
   -10.4278 -10.4278  -7.1017  -6.8328  -6.4689  -6.2588  -6.2443  -6.2130
    -6.2130  -5.8757  -5.8399  -5.8399  -1.5918  -1.5918  -1.1407  -1.1237
    -0.9937  -0.9937   3.1807   3.3483   3.3707   3.3891   3.3891   4.5923
     5.1613   5.4594   5.5976   5.9055   5.9145   5.9543   5.9543   6.0995
     6.0995   6.3244   6.4594   6.9141   6.9141   7.1399   7.2486   7.2486
     7.6144   7.7274   8.1484   8.2231   8.2231   8.5839   8.5839   8.8106
     8.9437   8.9437   9.0891   9.0947   9.0947   9.2109   9.2204   9.2204
     9.2946   9.5087   9.6459   9.6459   9.9642  10.5123  11.6580  12.7419
    12.7987  12.7987  13.0380  13.3753  13.6758  14.2031  14.5433  14.6428
    15.3393  15.6994

     occupation numbers 
     1.0000   1.0000   1.0000   1.0000   1.0000   1.0000   1.0000   1.0000
     1.0000   1.0000   1.0000   1.0000   1.0000   1.0000   1.0000   1.0000
     1.0000   1.0000   1.0000   1.0000   1.0000   1.0000   1.0000   1.0000
     1.0000   1.0000   1.0000   1.0000   1.0000   1.0000   1.0000   1.0000
     1.0000   1.0000   1.0000   1.0000   1.0000   1.0000   1.0000   1.0000
     1.0000   1.0000   1.0000   1.0000   1.0000   1.0000   1.0000   1.0000
     1.0000   1.0000   1.0000   1.0000   1.0000   1.0000   1.0000   1.0000
     1.0000   1.0000   1.0000   1.0000   1.0000   1.0000   1.0000   1.0000
     1.0000   1.0000   1.0000   1.0000   1.0000   1.0000   1.0000   1.0000
     1.0000   1.0000   1.0000   1.0000   1.0000   1.0000   1.0000   1.0000
     1.0000   1.0000   1.0000   1.0000   1.0000   1.0000   1.0000   0.0000
     0.0000   0.0000   0.0000   0.0000   0.0000   0.0000   0.0000   0.0000
     0.0000   0.0000

          k = 0.0000 0.0000 0.2456 ( 23984 PWs)   bands (ev):

   -80.8066 -75.7151 -69.5713 -69.5346 -47.0240 -46.8759 -46.8759 -41.7509
   -41.5844 -41.5844 -38.6137 -38.5826 -38.4413 -38.4413 -38.4089 -38.4089
   -30.3520 -30.3375 -15.9744 -15.8422 -10.7693 -10.7693 -10.7611 -10.4907
   -10.4279 -10.4279  -7.1243  -6.8597  -6.5114  -6.2582  -6.2265  -6.2264
    -6.1524  -5.8805  -5.8257  -5.8256  -1.5911  -1.5910  -1.1520  -1.1484
    -0.9943  -0.9941   3.1568   3.3555   3.3811   3.3871   3.3884   4.4850
     5.0731   5.7027   5.7149   5.9180   5.9416   5.9489   6.1027   6.1099
     6.1546   6.2202   6.4754   6.8697   6.8813   6.8960   7.2885   7.3022
     7.7326   7.9761   8.1040   8.1342   8.1717   8.6862   8.7513   8.7575
     8.8022   8.8850   8.9357   9.0335   9.0969   9.1548   9.2179   9.3548
     9.3687   9.3793   9.5700   9.6365   9.8069  10.4941  11.6579  12.6046
    12.7984  12.8039  13.0363  13.6837  13.8553  14.2064  14.8996  15.1027
    15.5229  15.8397

     occupation numbers 
     1.0000   1.0000   1.0000   1.0000   1.0000   1.0000   1.0000   1.0000
     1.0000   1.0000   1.0000   1.0000   1.0000   1.0000   1.0000   1.0000
     1.0000   1.0000   1.0000   1.0000   1.0000   1.0000   1.0000   1.0000
     1.0000   1.0000   1.0000   1.0000   1.0000   1.0000   1.0000   1.0000
     1.0000   1.0000   1.0000   1.0000   1.0000   1.0000   1.0000   1.0000
     1.0000   1.0000   1.0000   1.0000   1.0000   1.0000   1.0000   1.0000
     1.0000   1.0000   1.0000   1.0000   1.0000   1.0000   1.0000   1.0000
     1.0000   1.0000   1.0000   1.0000   1.0000   1.0000   1.0000   1.0000
     1.0000   1.0000   1.0000   1.0000   1.0000   1.0000   1.0000   1.0000
     1.0000   1.0000   1.0000   1.0000   1.0000   1.0000   1.0000   1.0000
     1.0000   1.0000   1.0000   1.0000   1.0000   1.0000   1.0000   0.0000
     0.0000   0.0000   0.0000   0.0000   0.0000   0.0000   0.0000   0.0000
     0.0000   0.0000

          k = 0.0000 0.2500 0.0000 ( 24008 PWs)   bands (ev):

   -80.8066 -75.7151 -69.5713 -69.5346 -47.0240 -46.8759 -46.8759 -41.7509
   -41.5844 -41.5844 -38.6137 -38.5826 -38.4414 -38.4413 -38.4090 -38.4090
   -30.3499 -30.3396 -15.9527 -15.8591 -10.7347 -10.7268 -10.7178 -10.5344
   -10.4889 -10.4802  -7.0169  -6.8351  -6.5226  -6.2657  -6.2428  -6.2423
    -6.1862  -5.9708  -5.9005  -5.8210  -1.5109  -1.3358  -1.1380  -1.1244
    -1.0874  -0.8917   3.2188   3.3196   3.3572   3.3782   3.4143   4.8389
     5.3049   5.5659   5.6779   5.8253   5.8754   5.8969   5.9998   6.1063
     6.1206   6.3291   6.5485   6.7390   6.8254   7.1615   7.2645   7.2790
     7.4959   7.8863   7.9806   8.0814   8.2529   8.3859   8.4068   8.4958
     8.6850   8.8409   8.9042   8.9429   9.0288   9.0986   9.1370   9.2461
     9.2623   9.3323   9.5057   9.8628  10.1172  10.5891  11.3319  12.7569
    12.8750  12.9006  13.0490  13.9271  14.0093  14.2393  14.7823  15.0144
    15.6251  15.6752

     occupation numbers 
     1.0000   1.0000   1.0000   1.0000   1.0000   1.0000   1.0000   1.0000
     1.0000   1.0000   1.0000   1.0000   1.0000   1.0000   1.0000   1.0000
     1.0000   1.0000   1.0000   1.0000   1.0000   1.0000   1.0000   1.0000
     1.0000   1.0000   1.0000   1.0000   1.0000   1.0000   1.0000   1.0000
     1.0000   1.0000   1.0000   1.0000   1.0000   1.0000   1.0000   1.0000
     1.0000   1.0000   1.0000   1.0000   1.0000   1.0000   1.0000   1.0000
     1.0000   1.0000   1.0000   1.0000   1.0000   1.0000   1.0000   1.0000
     1.0000   1.0000   1.0000   1.0000   1.0000   1.0000   1.0000   1.0000
     1.0000   1.0000   1.0000   1.0000   1.0000   1.0000   1.0000   1.0000
     1.0000   1.0000   1.0000   1.0000   1.0000   1.0000   1.0000   1.0000
     1.0000   1.0000   1.0000   1.0000   1.0000   1.0000   1.0000   0.0000
     0.0000   0.0000   0.0000   0.0000   0.0000   0.0000   0.0000   0.0000
     0.0000   0.0000

          k = 0.0000 0.2500 0.2456 ( 24026 PWs)   bands (ev):

   -80.8066 -75.7151 -69.5713 -69.5346 -47.0240 -46.8759 -46.8759 -41.7509
   -41.5844 -41.5844 -38.6137 -38.5826 -38.4414 -38.4413 -38.4090 -38.4090
   -30.3499 -30.3396 -15.9532 -15.8597 -10.7323 -10.7260 -10.7144 -10.5312
   -10.4891 -10.4801  -7.0044  -6.8793  -6.5774  -6.2697  -6.2441  -6.2169
    -6.1385  -5.9729  -5.8960  -5.8138  -1.5089  -1.3316  -1.1437  -1.1408
    -1.0853  -0.8898   3.1898   3.3207   3.3564   3.3798   3.4169   4.7378
     5.2398   5.6925   5.7555   5.8307   5.8894   5.9322   6.0105   6.0857
     6.2064   6.3646   6.5506   6.7196   6.9294   7.0158   7.1538   7.2630
     7.5478   7.8204   7.9099   8.0812   8.2025   8.4268   8.5917   8.6320
     8.7465   8.8010   8.8886   8.9914   9.0173   9.1159   9.1726   9.2405
     9.3179   9.3859   9.4636   9.7945   9.8668  10.5834  11.3287  12.6915
    12.7712  12.8597  13.0477  13.9989  14.0987  14.3677  15.1490  15.3467
    15.4732  15.6304

     occupation numbers 
     1.0000   1.0000   1.0000   1.0000   1.0000   1.0000   1.0000   1.0000
     1.0000   1.0000   1.0000   1.0000   1.0000   1.0000   1.0000   1.0000
     1.0000   1.0000   1.0000   1.0000   1.0000   1.0000   1.0000   1.0000
     1.0000   1.0000   1.0000   1.0000   1.0000   1.0000   1.0000   1.0000
     1.0000   1.0000   1.0000   1.0000   1.0000   1.0000   1.0000   1.0000
     1.0000   1.0000   1.0000   1.0000   1.0000   1.0000   1.0000   1.0000
     1.0000   1.0000   1.0000   1.0000   1.0000   1.0000   1.0000   1.0000
     1.0000   1.0000   1.0000   1.0000   1.0000   1.0000   1.0000   1.0000
     1.0000   1.0000   1.0000   1.0000   1.0000   1.0000   1.0000   1.0000
     1.0000   1.0000   1.0000   1.0000   1.0000   1.0000   1.0000   1.0000
     1.0000   1.0000   1.0000   1.0000   1.0000   1.0000   1.0000   0.0000
     0.0000   0.0000   0.0000   0.0000   0.0000   0.0000   0.0000   0.0000
     0.0000   0.0000

          k = 0.0000-0.5000 0.0000 ( 24016 PWs)   bands (ev):

   -80.8066 -75.7151 -69.5713 -69.5346 -47.0240 -46.8759 -46.8759 -41.7509
   -41.5845 -41.5844 -38.6137 -38.5826 -38.4414 -38.4413 -38.4090 -38.4090
   -30.3450 -30.3447 -15.9043 -15.9040 -10.6378 -10.6332 -10.6207 -10.6197
   -10.6003 -10.5968  -7.0095  -6.7034  -6.5391  -6.3948  -6.2361  -6.2322
    -6.1347  -6.1083  -5.9412  -5.8170  -1.3218  -1.2906  -1.1316  -1.1299
    -0.9400  -0.9144   3.2571   3.2572   3.3547   3.3899   3.4399   5.1353
     5.4502   5.6960   5.7297   5.8124   5.8607   5.8690   6.0750   6.1053
     6.2414   6.3059   6.3983   6.5144   6.5720   7.1491   7.4520   7.4834
     7.6078   7.7000   7.7400   8.0246   8.0909   8.1058   8.2968   8.4218
     8.4966   8.5761   8.7679   8.7828   8.9660   8.9850   9.0956   9.1793
     9.1992   9.2950   9.4767  10.1953  10.2823  10.6452  10.8703  12.7554
    12.9955  13.0145  13.0368  13.8200  14.8336  15.0769  15.2795  15.3797
    15.7125  15.7902

     occupation numbers 
     1.0000   1.0000   1.0000   1.0000   1.0000   1.0000   1.0000   1.0000
     1.0000   1.0000   1.0000   1.0000   1.0000   1.0000   1.0000   1.0000
     1.0000   1.0000   1.0000   1.0000   1.0000   1.0000   1.0000   1.0000
     1.0000   1.0000   1.0000   1.0000   1.0000   1.0000   1.0000   1.0000
     1.0000   1.0000   1.0000   1.0000   1.0000   1.0000   1.0000   1.0000
     1.0000   1.0000   1.0000   1.0000   1.0000   1.0000   1.0000   1.0000
     1.0000   1.0000   1.0000   1.0000   1.0000   1.0000   1.0000   1.0000
     1.0000   1.0000   1.0000   1.0000   1.0000   1.0000   1.0000   1.0000
     1.0000   1.0000   1.0000   1.0000   1.0000   1.0000   1.0000   1.0000
     1.0000   1.0000   1.0000   1.0000   1.0000   1.0000   1.0000   1.0000
     1.0000   1.0000   1.0000   1.0000   1.0000   1.0000   1.0000   0.0000
     0.0000   0.0000   0.0000   0.0000   0.0000   0.0000   0.0000   0.0000
     0.0000   0.0000

          k = 0.0000-0.5000 0.2456 ( 24042 PWs)   bands (ev):

   -80.8066 -75.7151 -69.5713 -69.5346 -47.0240 -46.8759 -46.8759 -41.7509
   -41.5845 -41.5844 -38.6137 -38.5826 -38.4414 -38.4413 -38.4090 -38.4090
   -30.3449 -30.3447 -15.9047 -15.9046 -10.6345 -10.6301 -10.6204 -10.6191
   -10.5996 -10.5958  -7.0044  -6.6764  -6.5803  -6.4907  -6.2299  -6.2105
    -6.1030  -6.0895  -5.9346  -5.8123  -1.3186  -1.2874  -1.1356  -1.1329
    -0.9337  -0.9090   3.2229   3.2614   3.3534   3.3869   3.4397   5.0569
     5.3296   5.6876   5.7253   5.8026   5.8490   5.9499   6.0999   6.1603
     6.2797   6.3775   6.5083   6.6381   6.6382   6.9870   7.1939   7.4188
     7.4455   7.5502   7.6948   7.9409   8.2922   8.2987   8.4355   8.5307
     8.5762   8.6957   8.7215   8.8900   9.0523   9.0661   9.1697   9.1839
     9.2343   9.3275   9.4861   9.8852  10.2460  10.6302  10.8616  12.7587
    12.7730  12.9662  13.0365  13.8100  14.7457  14.9621  15.4683  15.6267
    15.7489  15.7664

     occupation numbers 
     1.0000   1.0000   1.0000   1.0000   1.0000   1.0000   1.0000   1.0000
     1.0000   1.0000   1.0000   1.0000   1.0000   1.0000   1.0000   1.0000
     1.0000   1.0000   1.0000   1.0000   1.0000   1.0000   1.0000   1.0000
     1.0000   1.0000   1.0000   1.0000   1.0000   1.0000   1.0000   1.0000
     1.0000   1.0000   1.0000   1.0000   1.0000   1.0000   1.0000   1.0000
     1.0000   1.0000   1.0000   1.0000   1.0000   1.0000   1.0000   1.0000
     1.0000   1.0000   1.0000   1.0000   1.0000   1.0000   1.0000   1.0000
     1.0000   1.0000   1.0000   1.0000   1.0000   1.0000   1.0000   1.0000
     1.0000   1.0000   1.0000   1.0000   1.0000   1.0000   1.0000   1.0000
     1.0000   1.0000   1.0000   1.0000   1.0000   1.0000   1.0000   1.0000
     1.0000   1.0000   1.0000   1.0000   1.0000   1.0000   1.0000   0.0000
     0.0000   0.0000   0.0000   0.0000   0.0000   0.0000   0.0000   0.0000
     0.0000   0.0000

          k = 0.2500 0.2500 0.0000 ( 23973 PWs)   bands (ev):

   -80.8066 -75.7151 -69.5713 -69.5346 -47.0240 -46.8759 -46.8759 -41.7509
   -41.5844 -41.5844 -38.6137 -38.5826 -38.4414 -38.4413 -38.4090 -38.4089
   -30.3484 -30.3412 -15.9370 -15.8708 -10.7850 -10.6955 -10.6269 -10.6006
   -10.5556 -10.4226  -7.0258  -6.7961  -6.5689  -6.3514  -6.3308  -6.2325
    -6.1138  -5.9518  -5.9216  -5.8399  -1.2994  -1.2428  -1.1325  -1.1218
    -0.9972  -0.9136   3.2261   3.2812   3.3528   3.3754   3.4155   4.9447
     5.2975   5.6193   5.7506   5.7937   5.8926   5.9645   6.0191   6.0963
     6.1476   6.2811   6.4270   6.8750   6.9450   7.1225   7.2125   7.4044
     7.5391   7.8200   7.9217   8.0525   8.0916   8.2065   8.3578   8.4352
     8.4825   8.5515   8.7232   8.7974   8.9345   9.0569   9.0817   9.1889
     9.3501   9.4316   9.5329   9.6954  10.2113  10.4779  10.9395  12.8049
    12.8062  12.9851  13.0878  13.6803  14.4574  14.7485  15.0024  15.2664
    15.5611  15.7129

     occupation numbers 
     1.0000   1.0000   1.0000   1.0000   1.0000   1.0000   1.0000   1.0000
     1.0000   1.0000   1.0000   1.0000   1.0000   1.0000   1.0000   1.0000
     1.0000   1.0000   1.0000   1.0000   1.0000   1.0000   1.0000   1.0000
     1.0000   1.0000   1.0000   1.0000   1.0000   1.0000   1.0000   1.0000
     1.0000   1.0000   1.0000   1.0000   1.0000   1.0000   1.0000   1.0000
     1.0000   1.0000   1.0000   1.0000   1.0000   1.0000   1.0000   1.0000
     1.0000   1.0000   1.0000   1.0000   1.0000   1.0000   1.0000   1.0000
     1.0000   1.0000   1.0000   1.0000   1.0000   1.0000   1.0000   1.0000
     1.0000   1.0000   1.0000   1.0000   1.0000   1.0000   1.0000   1.0000
     1.0000   1.0000   1.0000   1.0000   1.0000   1.0000   1.0000   1.0000
     1.0000   1.0000   1.0000   1.0000   1.0000   1.0000   1.0000   0.0000
     0.0000   0.0000   0.0000   0.0000   0.0000   0.0000   0.0000   0.0000
     0.0000   0.0000

          k = 0.2500 0.2500 0.2456 ( 24022 PWs)   bands (ev):

   -80.8066 -75.7151 -69.5713 -69.5346 -47.0240 -46.8759 -46.8759 -41.7509
   -41.5844 -41.5844 -38.6137 -38.5826 -38.4414 -38.4413 -38.4090 -38.4089
   -30.3484 -30.3412 -15.9375 -15.8714 -10.7846 -10.6899 -10.6268 -10.6005
   -10.5522 -10.4226  -7.0192  -6.8145  -6.6520  -6.3467  -6.2862  -6.2292
    -6.0961  -5.9477  -5.9160  -5.8352  -1.2980  -1.2376  -1.1399  -1.1334
    -0.9930  -0.9142   3.1999   3.2826   3.3531   3.3734   3.4159   4.8517
     5.2433   5.7233   5.7800   5.8370   5.8660   6.0073   6.0687   6.0951
     6.2004   6.2688   6.5201   6.8805   6.9858   7.0499   7.2033   7.2647
     7.4090   7.7687   7.8553   7.9558   8.1492   8.2707   8.4651   8.4809
     8.6074   8.6880   8.7393   8.8457   8.9610   9.0694   9.1321   9.2593
     9.3783   9.4252   9.5004   9.6505   9.9380  10.4702  10.9349  12.7612
    12.7980  12.8067  13.0879  13.6776  14.5434  14.7961  15.2879  15.5981
    15.7116  15.7460

     occupation numbers 
     1.0000   1.0000   1.0000   1.0000   1.0000   1.0000   1.0000   1.0000
     1.0000   1.0000   1.0000   1.0000   1.0000   1.0000   1.0000   1.0000
     1.0000   1.0000   1.0000   1.0000   1.0000   1.0000   1.0000   1.0000
     1.0000   1.0000   1.0000   1.0000   1.0000   1.0000   1.0000   1.0000
     1.0000   1.0000   1.0000   1.0000   1.0000   1.0000   1.0000   1.0000
     1.0000   1.0000   1.0000   1.0000   1.0000   1.0000   1.0000   1.0000
     1.0000   1.0000   1.0000   1.0000   1.0000   1.0000   1.0000   1.0000
     1.0000   1.0000   1.0000   1.0000   1.0000   1.0000   1.0000   1.0000
     1.0000   1.0000   1.0000   1.0000   1.0000   1.0000   1.0000   1.0000
     1.0000   1.0000   1.0000   1.0000   1.0000   1.0000   1.0000   1.0000
     1.0000   1.0000   1.0000   1.0000   1.0000   1.0000   1.0000   0.0000
     0.0000   0.0000   0.0000   0.0000   0.0000   0.0000   0.0000   0.0000
     0.0000   0.0000

          k = 0.2500-0.5000 0.0000 ( 23984 PWs)   bands (ev):

   -80.8067 -75.7151 -69.5713 -69.5346 -47.0240 -46.8759 -46.8759 -41.7509
   -41.5844 -41.5844 -38.6137 -38.5826 -38.4414 -38.4413 -38.4090 -38.4090
   -30.3450 -30.3448 -15.9020 -15.9019 -10.7471 -10.7460 -10.6235 -10.6223
   -10.4758 -10.4750  -7.0615  -6.7377  -6.5291  -6.4253  -6.3622  -6.3481
    -6.0457  -5.9976  -5.9092  -5.8409  -1.1478  -1.1251  -1.1214  -1.1060
    -0.9165  -0.8944   3.2275   3.2475   3.3439   3.3648   3.4292   5.0035
     5.2996   5.6578   5.6770   5.7839   5.8896   6.0772   6.1049   6.1556
     6.2231   6.2799   6.5827   6.7094   6.7990   7.1877   7.2731   7.5437
     7.5907   7.6610   7.7429   7.9363   8.1152   8.1624   8.2252   8.2845
     8.3900   8.4374   8.5421   8.6506   8.7482   8.8016   9.1516   9.2414
     9.3719   9.4468   9.5290   9.8682  10.1991  10.4231  10.4809  12.7670
    12.8874  13.0647  13.0789  13.4436  15.1727  15.2412  15.4096  15.4981
    15.7537  15.7809

     occupation numbers 
     1.0000   1.0000   1.0000   1.0000   1.0000   1.0000   1.0000   1.0000
     1.0000   1.0000   1.0000   1.0000   1.0000   1.0000   1.0000   1.0000
     1.0000   1.0000   1.0000   1.0000   1.0000   1.0000   1.0000   1.0000
     1.0000   1.0000   1.0000   1.0000   1.0000   1.0000   1.0000   1.0000
     1.0000   1.0000   1.0000   1.0000   1.0000   1.0000   1.0000   1.0000
     1.0000   1.0000   1.0000   1.0000   1.0000   1.0000   1.0000   1.0000
     1.0000   1.0000   1.0000   1.0000   1.0000   1.0000   1.0000   1.0000
     1.0000   1.0000   1.0000   1.0000   1.0000   1.0000   1.0000   1.0000
     1.0000   1.0000   1.0000   1.0000   1.0000   1.0000   1.0000   1.0000
     1.0000   1.0000   1.0000   1.0000   1.0000   1.0000   1.0000   1.0000
     1.0000   1.0000   1.0000   1.0000   1.0000   1.0000   1.0000   0.0000
     0.0000   0.0000   0.0000   0.0000   0.0000   0.0000   0.0000   0.0000
     0.0000   0.0000

          k = 0.2500-0.5000 0.2456 ( 24006 PWs)   bands (ev):

   -80.8066 -75.7151 -69.5713 -69.5346 -47.0240 -46.8759 -46.8759 -41.7509
   -41.5844 -41.5844 -38.6137 -38.5826 -38.4414 -38.4413 -38.4090 -38.4090
   -30.3449 -30.3448 -15.9024 -15.9023 -10.7468 -10.7457 -10.6192 -10.6180
   -10.4758 -10.4750  -7.0676  -6.7505  -6.5519  -6.4850  -6.3534  -6.2985
    -6.0561  -5.9815  -5.8910  -5.8325  -1.1488  -1.1342  -1.1253  -1.1038
    -0.9133  -0.8916   3.2171   3.2344   3.3426   3.3657   3.4289   4.9286
     5.2261   5.7229   5.7453   5.7853   5.8810   6.0787   6.1184   6.1935
     6.2410   6.3939   6.6299   6.7985   6.8327   7.0851   7.1580   7.4081
     7.4494   7.5744   7.6429   7.9500   8.0688   8.1817   8.3106   8.3963
     8.4693   8.5618   8.6207   8.7323   8.8408   8.9405   9.1802   9.2853
     9.3572   9.4867   9.5352   9.8143   9.9561  10.4008  10.4281  12.7633
    12.8325  12.8838  13.0846  13.4278  15.1157  15.2393  15.5309  15.6596
    15.8287  15.8944

     occupation numbers 
     1.0000   1.0000   1.0000   1.0000   1.0000   1.0000   1.0000   1.0000
     1.0000   1.0000   1.0000   1.0000   1.0000   1.0000   1.0000   1.0000
     1.0000   1.0000   1.0000   1.0000   1.0000   1.0000   1.0000   1.0000
     1.0000   1.0000   1.0000   1.0000   1.0000   1.0000   1.0000   1.0000
     1.0000   1.0000   1.0000   1.0000   1.0000   1.0000   1.0000   1.0000
     1.0000   1.0000   1.0000   1.0000   1.0000   1.0000   1.0000   1.0000
     1.0000   1.0000   1.0000   1.0000   1.0000   1.0000   1.0000   1.0000
     1.0000   1.0000   1.0000   1.0000   1.0000   1.0000   1.0000   1.0000
     1.0000   1.0000   1.0000   1.0000   1.0000   1.0000   1.0000   1.0000
     1.0000   1.0000   1.0000   1.0000   1.0000   1.0000   1.0000   1.0000
     1.0000   1.0000   1.0000   1.0000   1.0000   1.0000   1.0000   0.0000
     0.0000   0.0000   0.0000   0.0000   0.0000   0.0000   0.0000   0.0000
     0.0000   0.0000

          k =-0.5000-0.5000 0.0000 ( 24084 PWs)   bands (ev):

   -80.8067 -75.7152 -69.5713 -69.5346 -47.0240 -46.8759 -46.8759 -41.7509
   -41.5844 -41.5844 -38.6137 -38.5826 -38.4414 -38.4414 -38.4090 -38.4090
   -30.3450 -30.3450 -15.8998 -15.8998 -10.8006 -10.7988 -10.6181 -10.6181
   -10.4178 -10.4172  -7.1123  -6.7790  -6.5140  -6.4485  -6.4217  -6.4217
    -6.0297  -5.9355  -5.8658  -5.8658  -1.1174  -1.1174  -1.0101  -0.9700
    -0.8367  -0.8234   3.2020   3.2658   3.3094   3.3094   3.4323   4.8845
     5.1935   5.6694   5.7024   5.7024   5.8812   6.0003   6.1924   6.1924
     6.2472   6.2775   6.8835   6.9585   6.9585   7.2980   7.2980   7.4027
     7.5248   7.5248   7.6653   7.8055   8.0890   8.0890   8.1025   8.3723
     8.3723   8.3960   8.5490   8.5490   8.7470   8.7470   8.9572   9.2352
     9.3885   9.5124   9.5508   9.5508   9.8689  10.2449  10.3870  12.8065
    12.8065  12.9524  13.1089  13.2779  15.2902  15.2902  15.6709  15.6709
    15.8803  15.8805

     occupation numbers 
     1.0000   1.0000   1.0000   1.0000   1.0000   1.0000   1.0000   1.0000
     1.0000   1.0000   1.0000   1.0000   1.0000   1.0000   1.0000   1.0000
     1.0000   1.0000   1.0000   1.0000   1.0000   1.0000   1.0000   1.0000
     1.0000   1.0000   1.0000   1.0000   1.0000   1.0000   1.0000   1.0000
     1.0000   1.0000   1.0000   1.0000   1.0000   1.0000   1.0000   1.0000
     1.0000   1.0000   1.0000   1.0000   1.0000   1.0000   1.0000   1.0000
     1.0000   1.0000   1.0000   1.0000   1.0000   1.0000   1.0000   1.0000
     1.0000   1.0000   1.0000   1.0000   1.0000   1.0000   1.0000   1.0000
     1.0000   1.0000   1.0000   1.0000   1.0000   1.0000   1.0000   1.0000
     1.0000   1.0000   1.0000   1.0000   1.0000   1.0000   1.0000   1.0000
     1.0000   1.0000   1.0000   1.0000   1.0000   1.0000   1.0000   0.0000
     0.0000   0.0000   0.0000   0.0000   0.0000   0.0000   0.0000   0.0000
     0.0000   0.0000

          k =-0.5000-0.5000 0.2456 ( 23976 PWs)   bands (ev):

   -80.8067 -75.7152 -69.5713 -69.5346 -47.0240 -46.8759 -46.8759 -41.7509
   -41.5844 -41.5844 -38.6137 -38.5826 -38.4414 -38.4414 -38.4090 -38.4090
   -30.3449 -30.3449 -15.9001 -15.9001 -10.8001 -10.7982 -10.6141 -10.6138
   -10.4179 -10.4172  -7.1281  -6.8237  -6.4925  -6.4569  -6.4534  -6.3671
    -6.0668  -5.9432  -5.8382  -5.8309  -1.1366  -1.1247  -1.0077  -0.9684
    -0.8374  -0.8239   3.2019   3.2348   3.3180   3.3189   3.4352   4.8160
     5.1343   5.7326   5.7767   5.8157   5.9407   6.1184   6.1251   6.1336
     6.2761   6.2926   6.7579   7.0189   7.0219   7.2193   7.2724   7.2853
     7.4955   7.5813   7.6285   7.8380   7.9693   8.0317   8.1844   8.2086
     8.3607   8.5133   8.5642   8.6837   8.9409   8.9580   8.9763   9.2360
     9.4072   9.4347   9.5100   9.5620   9.8826  10.1113  10.2144  12.8023
    12.8035  12.9146  12.9507  13.2751  15.3316  15.6661  15.6772  15.7072
    15.8118  15.8446

     occupation numbers 
     1.0000   1.0000   1.0000   1.0000   1.0000   1.0000   1.0000   1.0000
     1.0000   1.0000   1.0000   1.0000   1.0000   1.0000   1.0000   1.0000
     1.0000   1.0000   1.0000   1.0000   1.0000   1.0000   1.0000   1.0000
     1.0000   1.0000   1.0000   1.0000   1.0000   1.0000   1.0000   1.0000
     1.0000   1.0000   1.0000   1.0000   1.0000   1.0000   1.0000   1.0000
     1.0000   1.0000   1.0000   1.0000   1.0000   1.0000   1.0000   1.0000
     1.0000   1.0000   1.0000   1.0000   1.0000   1.0000   1.0000   1.0000
     1.0000   1.0000   1.0000   1.0000   1.0000   1.0000   1.0000   1.0000
     1.0000   1.0000   1.0000   1.0000   1.0000   1.0000   1.0000   1.0000
     1.0000   1.0000   1.0000   1.0000   1.0000   1.0000   1.0000   1.0000
     1.0000   1.0000   1.0000   1.0000   1.0000   1.0000   1.0000   0.0000
     0.0000   0.0000   0.0000   0.0000   0.0000   0.0000   0.0000   0.0000
     0.0000   0.0000

 ------ SPIN DOWN ----------


          k = 0.0000 0.0000 0.0000 ( 24031 PWs)   bands (ev):

   -80.2068 -76.1867 -65.0134 -64.9427 -46.4007 -46.3020 -46.3020 -42.2094
   -42.0380 -42.0380 -33.7907 -33.7669 -33.6057 -33.6057 -33.5148 -33.5148
   -30.3481 -30.3322 -15.9731 -15.8381 -10.7550 -10.7550 -10.7547 -10.4849
   -10.4204 -10.4204  -7.0056  -6.6770  -6.3713  -6.1708  -6.1233  -6.1233
    -6.0730  -5.7880  -5.7880  -5.7455  -1.5667  -1.5667  -1.1221  -1.1174
    -0.9844  -0.9844   3.6800   3.7943   3.8778   3.8778   3.9543   5.0189
     5.3915   6.3884   6.4191   6.5205   6.5205   6.7275   6.9981   6.9981
     7.2823   7.6697   7.7158   7.8677   7.8950   7.8950   8.3775   8.3775
     8.6213   8.6213   8.9487   8.9487   8.9774   9.1273   9.1482   9.1482
     9.3794   9.3794   9.4080   9.5537  10.1157  12.1152  12.4742  12.5161
    12.5161  13.4654  13.6130  13.6628  14.2947  14.6405  15.0072  15.0072
    15.1573  15.2141  15.2141  15.6822  15.7699  15.8535  15.9895  16.0776
    16.0776  16.3264

     occupation numbers 
     1.0000   1.0000   1.0000   1.0000   1.0000   1.0000   1.0000   1.0000
     1.0000   1.0000   1.0000   1.0000   1.0000   1.0000   1.0000   1.0000
     1.0000   1.0000   1.0000   1.0000   1.0000   1.0000   1.0000   1.0000
     1.0000   1.0000   1.0000   1.0000   1.0000   1.0000   1.0000   1.0000
     1.0000   1.0000   1.0000   1.0000   1.0000   1.0000   1.0000   1.0000
     1.0000   1.0000   1.0000   1.0000   1.0000   1.0000   1.0000   1.0000
     1.0000   1.0000   1.0000   1.0000   1.0000   1.0000   1.0000   1.0000
     1.0000   1.0000   1.0000   1.0000   1.0000   1.0000   1.0000   1.0000
     1.0000   1.0000   1.0000   1.0000   1.0000   1.0000   1.0000   1.0000
     1.0000   1.0000   1.0000   1.0000   1.0000   0.0000   0.0000   0.0000
     0.0000   0.0000   0.0000   0.0000   0.0000   0.0000   0.0000   0.0000
     0.0000   0.0000   0.0000   0.0000   0.0000   0.0000   0.0000   0.0000
     0.0000   0.0000

          k = 0.0000 0.0000 0.2456 ( 23984 PWs)   bands (ev):

   -80.2069 -76.1867 -65.0134 -64.9427 -46.4007 -46.3020 -46.3020 -42.2094
   -42.0380 -42.0380 -33.7907 -33.7669 -33.6057 -33.6057 -33.5148 -33.5148
   -30.3481 -30.3322 -15.9737 -15.8383 -10.7548 -10.7548 -10.7477 -10.4823
   -10.4204 -10.4204  -7.0191  -6.7089  -6.4430  -6.1389  -6.1388  -6.0717
    -6.0503  -5.7714  -5.7713  -5.7509  -1.5663  -1.5663  -1.1421  -1.1329
    -0.9848  -0.9847   3.6907   3.8126   3.8751   3.8767   3.9544   4.7979
     5.6880   6.4161   6.5642   6.5706   6.5812   6.8101   6.9430   6.9610
     7.2810   7.6083   7.7054   7.8113   7.8252   7.8519   8.3117   8.3320
     8.5936   8.6056   8.8249   8.8967   9.0787   9.0995   9.1571   9.1863
     9.3424   9.3744   9.3865   9.5724  10.1002  12.2158  12.4734  12.4982
    12.5112  13.4558  13.8611  13.9444  14.2711  14.9790  15.0548  15.0761
    15.1591  15.2578  15.2651  15.6239  15.6615  15.8316  16.0727  16.1557
    16.1656  16.2547

     occupation numbers 
     1.0000   1.0000   1.0000   1.0000   1.0000   1.0000   1.0000   1.0000
     1.0000   1.0000   1.0000   1.0000   1.0000   1.0000   1.0000   1.0000
     1.0000   1.0000   1.0000   1.0000   1.0000   1.0000   1.0000   1.0000
     1.0000   1.0000   1.0000   1.0000   1.0000   1.0000   1.0000   1.0000
     1.0000   1.0000   1.0000   1.0000   1.0000   1.0000   1.0000   1.0000
     1.0000   1.0000   1.0000   1.0000   1.0000   1.0000   1.0000   1.0000
     1.0000   1.0000   1.0000   1.0000   1.0000   1.0000   1.0000   1.0000
     1.0000   1.0000   1.0000   1.0000   1.0000   1.0000   1.0000   1.0000
     1.0000   1.0000   1.0000   1.0000   1.0000   1.0000   1.0000   1.0000
     1.0000   1.0000   1.0000   1.0000   1.0000   0.0000   0.0000   0.0000
     0.0000   0.0000   0.0000   0.0000   0.0000   0.0000   0.0000   0.0000
     0.0000   0.0000   0.0000   0.0000   0.0000   0.0000   0.0000   0.0000
     0.0000   0.0000

          k = 0.0000 0.2500 0.0000 ( 24008 PWs)   bands (ev):

   -80.2068 -76.1867 -65.0134 -64.9427 -46.4007 -46.3020 -46.3020 -42.2094
   -42.0380 -42.0380 -33.7907 -33.7669 -33.6058 -33.6057 -33.5149 -33.5148
   -30.3457 -30.3344 -15.9515 -15.8558 -10.7211 -10.7137 -10.7045 -10.5251
   -10.4807 -10.4713  -6.9078  -6.7071  -6.4246  -6.1763  -6.1497  -6.1025
    -6.0584  -5.9030  -5.7988  -5.7515  -1.4880  -1.3165  -1.1209  -1.1153
    -1.0761  -0.8844   3.7279   3.8046   3.8290   3.8763   3.9277   5.2762
     5.5861   6.3281   6.5296   6.6199   6.6912   6.7872   6.8490   7.1379
     7.3158   7.5176   7.6141   7.6465   7.8056   7.9830   8.2626   8.3646
     8.4783   8.5253   8.6122   8.7320   8.7474   8.9137   8.9728   9.0648
     9.1790   9.2504   9.3704   9.4655  10.1011  12.2335  12.4759  12.4809
    12.5784  13.4432  14.0435  14.2230  14.4789  14.9659  15.0335  15.1749
    15.2560  15.2955  15.5399  15.6393  15.7768  15.8929  16.0941  16.3119
    16.3223  16.5192

     occupation numbers 
     1.0000   1.0000   1.0000   1.0000   1.0000   1.0000   1.0000   1.0000
     1.0000   1.0000   1.0000   1.0000   1.0000   1.0000   1.0000   1.0000
     1.0000   1.0000   1.0000   1.0000   1.0000   1.0000   1.0000   1.0000
     1.0000   1.0000   1.0000   1.0000   1.0000   1.0000   1.0000   1.0000
     1.0000   1.0000   1.0000   1.0000   1.0000   1.0000   1.0000   1.0000
     1.0000   1.0000   1.0000   1.0000   1.0000   1.0000   1.0000   1.0000
     1.0000   1.0000   1.0000   1.0000   1.0000   1.0000   1.0000   1.0000
     1.0000   1.0000   1.0000   1.0000   1.0000   1.0000   1.0000   1.0000
     1.0000   1.0000   1.0000   1.0000   1.0000   1.0000   1.0000   1.0000
     1.0000   1.0000   1.0000   1.0000   1.0000   0.0000   0.0000   0.0000
     0.0000   0.0000   0.0000   0.0000   0.0000   0.0000   0.0000   0.0000
     0.0000   0.0000   0.0000   0.0000   0.0000   0.0000   0.0000   0.0000
     0.0000   0.0000

          k = 0.0000 0.2500 0.2456 ( 24026 PWs)   bands (ev):

   -80.2069 -76.1867 -65.0134 -64.9427 -46.4007 -46.3020 -46.3020 -42.2094
   -42.0380 -42.0380 -33.7907 -33.7669 -33.6058 -33.6057 -33.5149 -33.5148
   -30.3457 -30.3344 -15.9520 -15.8560 -10.7185 -10.7128 -10.7016 -10.5221
   -10.4809 -10.4712  -6.8858  -6.7503  -6.5103  -6.1626  -6.1206  -6.0726
    -6.0415  -5.9048  -5.7865  -5.7498  -1.4862  -1.3132  -1.1315  -1.1264
    -1.0741  -0.8827   3.7326   3.8075   3.8293   3.8746   3.9284   5.0740
     5.8423   6.3090   6.5395   6.7096   6.7687   6.8388   6.8664   7.0966
     7.2877   7.4567   7.4912   7.6943   7.7765   7.9374   8.1756   8.2405
     8.3580   8.5156   8.6536   8.7958   8.8989   8.9071   9.0981   9.1406
     9.1787   9.2906   9.3436   9.4157  10.0986  12.3198  12.4522  12.4675
    12.5789  13.4443  14.1327  14.3510  14.4788  15.0042  15.0944  15.2383
    15.2854  15.3541  15.4832  15.6549  15.7869  15.9895  16.1510  16.2652
    16.3221  16.3717

     occupation numbers 
     1.0000   1.0000   1.0000   1.0000   1.0000   1.0000   1.0000   1.0000
     1.0000   1.0000   1.0000   1.0000   1.0000   1.0000   1.0000   1.0000
     1.0000   1.0000   1.0000   1.0000   1.0000   1.0000   1.0000   1.0000
     1.0000   1.0000   1.0000   1.0000   1.0000   1.0000   1.0000   1.0000
     1.0000   1.0000   1.0000   1.0000   1.0000   1.0000   1.0000   1.0000
     1.0000   1.0000   1.0000   1.0000   1.0000   1.0000   1.0000   1.0000
     1.0000   1.0000   1.0000   1.0000   1.0000   1.0000   1.0000   1.0000
     1.0000   1.0000   1.0000   1.0000   1.0000   1.0000   1.0000   1.0000
     1.0000   1.0000   1.0000   1.0000   1.0000   1.0000   1.0000   1.0000
     1.0000   1.0000   1.0000   1.0000   1.0000   0.0000   0.0000   0.0000
     0.0000   0.0000   0.0000   0.0000   0.0000   0.0000   0.0000   0.0000
     0.0000   0.0000   0.0000   0.0000   0.0000   0.0000   0.0000   0.0000
     0.0000   0.0000

          k = 0.0000-0.5000 0.0000 ( 24016 PWs)   bands (ev):

   -80.2068 -76.1867 -65.0134 -64.9427 -46.4007 -46.3020 -46.3020 -42.2094
   -42.0380 -42.0380 -33.7907 -33.7669 -33.6058 -33.6058 -33.5149 -33.5148
   -30.3401 -30.3398 -15.9018 -15.9015 -10.6253 -10.6222 -10.6096 -10.6086
   -10.5884 -10.5879  -6.8676  -6.6471  -6.4255  -6.2640  -6.1452  -6.1331
    -6.0197  -5.9992  -5.8197  -5.7690  -1.2958  -1.2826  -1.1195  -1.1179
    -0.9226  -0.9113   3.7547   3.7761   3.8380   3.8892   3.8909   5.6942
     5.9243   6.1053   6.1510   6.7844   6.8666   7.0336   7.2039   7.2370
     7.3252   7.4095   7.4186   7.5977   7.7300   7.7597   7.9594   8.0411
     8.1077   8.3636   8.4931   8.6171   8.7163   8.7663   8.8360   8.8844
     9.0490   9.1936   9.3638   9.4228  10.1145  12.3598  12.4320  12.4604
    12.6523  13.4195  14.5077  14.8491  15.0035  15.1095  15.2968  15.3582
    15.4206  15.4581  15.7061  15.7103  15.7523  15.7663  16.1562  16.2032
    16.5497  16.5528

     occupation numbers 
     1.0000   1.0000   1.0000   1.0000   1.0000   1.0000   1.0000   1.0000
     1.0000   1.0000   1.0000   1.0000   1.0000   1.0000   1.0000   1.0000
     1.0000   1.0000   1.0000   1.0000   1.0000   1.0000   1.0000   1.0000
     1.0000   1.0000   1.0000   1.0000   1.0000   1.0000   1.0000   1.0000
     1.0000   1.0000   1.0000   1.0000   1.0000   1.0000   1.0000   1.0000
     1.0000   1.0000   1.0000   1.0000   1.0000   1.0000   1.0000   1.0000
     1.0000   1.0000   1.0000   1.0000   1.0000   1.0000   1.0000   1.0000
     1.0000   1.0000   1.0000   1.0000   1.0000   1.0000   1.0000   1.0000
     1.0000   1.0000   1.0000   1.0000   1.0000   1.0000   1.0000   1.0000
     1.0000   1.0000   1.0000   1.0000   1.0000   0.0000   0.0000   0.0000
     0.0000   0.0000   0.0000   0.0000   0.0000   0.0000   0.0000   0.0000
     0.0000   0.0000   0.0000   0.0000   0.0000   0.0000   0.0000   0.0000
     0.0000   0.0000

          k = 0.0000-0.5000 0.2456 ( 24042 PWs)   bands (ev):

   -80.2069 -76.1867 -65.0134 -64.9427 -46.4007 -46.3020 -46.3020 -42.2094
   -42.0380 -42.0380 -33.7907 -33.7669 -33.6058 -33.6058 -33.5149 -33.5148
   -30.3401 -30.3399 -15.9022 -15.9019 -10.6218 -10.6190 -10.6091 -10.6085
   -10.5878 -10.5870  -6.8578  -6.6173  -6.4779  -6.3894  -6.1237  -6.0637
    -5.9996  -5.9971  -5.8135  -5.7622  -1.2927  -1.2794  -1.1232  -1.1208
    -0.9172  -0.9066   3.7528   3.7748   3.8347   3.8875   3.8914   5.5383
     5.8029   6.2551   6.3551   6.7555   6.8814   7.0342   7.1686   7.2524
     7.2783   7.3290   7.3461   7.5857   7.7285   7.7837   7.9079   7.9600
     8.1321   8.3013   8.5588   8.5840   8.7554   8.7971   9.0276   9.1464
     9.1768   9.2034   9.3150   9.3647  10.1136  12.4066  12.4242  12.4481
    12.6567  13.4229  14.4094  14.6131  15.0657  15.1360  15.2020  15.2199
    15.5323  15.5365  15.6843  15.7130  15.8187  15.8220  16.1596  16.1767
    16.4199  16.4654

     occupation numbers 
     1.0000   1.0000   1.0000   1.0000   1.0000   1.0000   1.0000   1.0000
     1.0000   1.0000   1.0000   1.0000   1.0000   1.0000   1.0000   1.0000
     1.0000   1.0000   1.0000   1.0000   1.0000   1.0000   1.0000   1.0000
     1.0000   1.0000   1.0000   1.0000   1.0000   1.0000   1.0000   1.0000
     1.0000   1.0000   1.0000   1.0000   1.0000   1.0000   1.0000   1.0000
     1.0000   1.0000   1.0000   1.0000   1.0000   1.0000   1.0000   1.0000
     1.0000   1.0000   1.0000   1.0000   1.0000   1.0000   1.0000   1.0000
     1.0000   1.0000   1.0000   1.0000   1.0000   1.0000   1.0000   1.0000
     1.0000   1.0000   1.0000   1.0000   1.0000   1.0000   1.0000   1.0000
     1.0000   1.0000   1.0000   1.0000   1.0000   0.0000   0.0000   0.0000
     0.0000   0.0000   0.0000   0.0000   0.0000   0.0000   0.0000   0.0000
     0.0000   0.0000   0.0000   0.0000   0.0000   0.0000   0.0000   0.0000
     0.0000   0.0000

          k = 0.2500 0.2500 0.0000 ( 23973 PWs)   bands (ev):

   -80.2068 -76.1867 -65.0134 -64.9427 -46.4007 -46.3020 -46.3020 -42.2094
   -42.0380 -42.0380 -33.7907 -33.7669 -33.6058 -33.6058 -33.5149 -33.5149
   -30.3439 -30.3360 -15.9352 -15.8675 -10.7701 -10.6843 -10.6144 -10.5895
   -10.5475 -10.4149  -6.8924  -6.7068  -6.4642  -6.2260  -6.2176  -6.1284
    -6.0033  -5.8927  -5.8217  -5.7607  -1.2824  -1.2250  -1.1163  -1.1106
    -0.9883  -0.9058   3.7529   3.7658   3.8253   3.8648   3.8975   5.4952
     5.7452   6.3263   6.5674   6.6721   6.7505   6.8603   6.9805   7.0794
     7.3213   7.4120   7.4471   7.6307   7.7517   8.0430   8.2134   8.2382
     8.3517   8.4379   8.4626   8.5409   8.6439   8.7343   8.8843   8.9942
     9.0631   9.1137   9.2056   9.3739   9.8770  12.3428  12.4383  12.5197
    12.6665  13.3021  14.3532  14.6186  14.7328  15.0448  15.1647  15.2253
    15.3462  15.3796  15.6351  15.6666  15.7592  16.0138  16.1946  16.3445
    16.4148  16.6954

     occupation numbers 
     1.0000   1.0000   1.0000   1.0000   1.0000   1.0000   1.0000   1.0000
     1.0000   1.0000   1.0000   1.0000   1.0000   1.0000   1.0000   1.0000
     1.0000   1.0000   1.0000   1.0000   1.0000   1.0000   1.0000   1.0000
     1.0000   1.0000   1.0000   1.0000   1.0000   1.0000   1.0000   1.0000
     1.0000   1.0000   1.0000   1.0000   1.0000   1.0000   1.0000   1.0000
     1.0000   1.0000   1.0000   1.0000   1.0000   1.0000   1.0000   1.0000
     1.0000   1.0000   1.0000   1.0000   1.0000   1.0000   1.0000   1.0000
     1.0000   1.0000   1.0000   1.0000   1.0000   1.0000   1.0000   1.0000
     1.0000   1.0000   1.0000   1.0000   1.0000   1.0000   1.0000   1.0000
     1.0000   1.0000   1.0000   1.0000   1.0000   0.0000   0.0000   0.0000
     0.0000   0.0000   0.0000   0.0000   0.0000   0.0000   0.0000   0.0000
     0.0000   0.0000   0.0000   0.0000   0.0000   0.0000   0.0000   0.0000
     0.0000   0.0000

          k = 0.2500 0.2500 0.2456 ( 24022 PWs)   bands (ev):

   -80.2068 -76.1867 -65.0134 -64.9427 -46.4007 -46.3020 -46.3020 -42.2094
   -42.0380 -42.0380 -33.7907 -33.7669 -33.6058 -33.6058 -33.5149 -33.5149
   -30.3439 -30.3360 -15.9357 -15.8677 -10.7697 -10.6787 -10.6143 -10.5895
   -10.5441 -10.4149  -6.8755  -6.7219  -6.5778  -6.2081  -6.1543  -6.1271
    -5.9942  -5.8834  -5.8237  -5.7540  -1.2817  -1.2203  -1.1260  -1.1193
    -0.9844  -0.9063   3.7544   3.7650   3.8294   3.8626   3.8975   5.3002
     5.9420   6.3404   6.6481   6.7484   6.8249   6.9068   6.9690   7.0369
     7.2634   7.3762   7.4502   7.6132   7.7383   7.9097   8.0154   8.1846
     8.2184   8.3429   8.5545   8.6767   8.7528   8.7991   8.9702   9.0497
     9.1237   9.1937   9.2184   9.2833   9.8828  12.3914  12.4577  12.5012
    12.6679  13.3010  14.3030  14.6370  14.7749  15.0464  15.2827  15.2871
    15.3681  15.5827  15.6032  15.6761  15.8560  15.9926  16.1829  16.2599
    16.4439  16.5202

     occupation numbers 
     1.0000   1.0000   1.0000   1.0000   1.0000   1.0000   1.0000   1.0000
     1.0000   1.0000   1.0000   1.0000   1.0000   1.0000   1.0000   1.0000
     1.0000   1.0000   1.0000   1.0000   1.0000   1.0000   1.0000   1.0000
     1.0000   1.0000   1.0000   1.0000   1.0000   1.0000   1.0000   1.0000
     1.0000   1.0000   1.0000   1.0000   1.0000   1.0000   1.0000   1.0000
     1.0000   1.0000   1.0000   1.0000   1.0000   1.0000   1.0000   1.0000
     1.0000   1.0000   1.0000   1.0000   1.0000   1.0000   1.0000   1.0000
     1.0000   1.0000   1.0000   1.0000   1.0000   1.0000   1.0000   1.0000
     1.0000   1.0000   1.0000   1.0000   1.0000   1.0000   1.0000   1.0000
     1.0000   1.0000   1.0000   1.0000   1.0000   0.0000   0.0000   0.0000
     0.0000   0.0000   0.0000   0.0000   0.0000   0.0000   0.0000   0.0000
     0.0000   0.0000   0.0000   0.0000   0.0000   0.0000   0.0000   0.0000
     0.0000   0.0000

          k = 0.2500-0.5000 0.0000 ( 23984 PWs)   bands (ev):

   -80.2068 -76.1867 -65.0134 -64.9427 -46.4007 -46.3020 -46.3020 -42.2094
   -42.0380 -42.0380 -33.7907 -33.7669 -33.6058 -33.6058 -33.5149 -33.5149
   -30.3399 -30.3398 -15.8991 -15.8989 -10.7349 -10.7298 -10.6143 -10.6132
   -10.4678 -10.4649  -6.9159  -6.6779  -6.4118  -6.3063  -6.2649  -6.2191
    -5.9536  -5.8945  -5.8140  -5.7859  -1.1310  -1.1158  -1.1059  -1.0958
    -0.9007  -0.8928   3.7124   3.7859   3.8237   3.8531   3.8716   5.7616
     6.0312   6.2198   6.3266   6.7503   6.7722   7.0636   7.1411   7.1848
     7.2885   7.3717   7.4823   7.6197   7.7171   7.8394   7.9764   8.0795
     8.1340   8.2976   8.3274   8.3667   8.4904   8.6697   8.7745   8.9183
     8.9632   8.9945   9.1942   9.3447   9.7341  12.4482  12.4700  12.4915
    12.7219  13.2091  14.6636  14.9413  15.0672  15.2087  15.2298  15.3278
    15.5140  15.5691  15.6400  15.7613  15.8426  15.8823  16.1182  16.2927
    16.3822  16.4146

     occupation numbers 
     1.0000   1.0000   1.0000   1.0000   1.0000   1.0000   1.0000   1.0000
     1.0000   1.0000   1.0000   1.0000   1.0000   1.0000   1.0000   1.0000
     1.0000   1.0000   1.0000   1.0000   1.0000   1.0000   1.0000   1.0000
     1.0000   1.0000   1.0000   1.0000   1.0000   1.0000   1.0000   1.0000
     1.0000   1.0000   1.0000   1.0000   1.0000   1.0000   1.0000   1.0000
     1.0000   1.0000   1.0000   1.0000   1.0000   1.0000   1.0000   1.0000
     1.0000   1.0000   1.0000   1.0000   1.0000   1.0000   1.0000   1.0000
     1.0000   1.0000   1.0000   1.0000   1.0000   1.0000   1.0000   1.0000
     1.0000   1.0000   1.0000   1.0000   1.0000   1.0000   1.0000   1.0000
     1.0000   1.0000   1.0000   1.0000   1.0000   0.0000   0.0000   0.0000
     0.0000   0.0000   0.0000   0.0000   0.0000   0.0000   0.0000   0.0000
     0.0000   0.0000   0.0000   0.0000   0.0000   0.0000   0.0000   0.0000
     0.0000   0.0000

          k = 0.2500-0.5000 0.2456 ( 24006 PWs)   bands (ev):

   -80.2068 -76.1867 -65.0134 -64.9427 -46.4007 -46.3020 -46.3020 -42.2094
   -42.0380 -42.0380 -33.7907 -33.7669 -33.6058 -33.6058 -33.5149 -33.5149
   -30.3399 -30.3398 -15.8995 -15.8994 -10.7345 -10.7295 -10.6099 -10.6089
   -10.4679 -10.4650  -6.9215  -6.6884  -6.4461  -6.3887  -6.2101  -6.1747
    -5.9607  -5.8815  -5.8013  -5.7780  -1.1345  -1.1212  -1.1094  -1.0951
    -0.8980  -0.8904   3.7121   3.7849   3.8244   3.8535   3.8719   5.6215
     5.9237   6.4252   6.4989   6.7695   6.8946   7.0468   7.1495   7.1945
     7.2524   7.3042   7.4597   7.6045   7.6909   7.7917   7.8732   7.9282
     8.0043   8.1735   8.3435   8.5557   8.5890   8.6911   8.7890   8.9070
     9.0995   9.1527   9.2227   9.2932   9.7344  12.4459  12.4619  12.5549
    12.7268  13.2002  14.5855  14.7388  15.1323  15.2650  15.3075  15.3573
    15.5707  15.6208  15.6575  15.7791  15.9144  16.0302  16.1166  16.2313
    16.3203  16.4373

     occupation numbers 
     1.0000   1.0000   1.0000   1.0000   1.0000   1.0000   1.0000   1.0000
     1.0000   1.0000   1.0000   1.0000   1.0000   1.0000   1.0000   1.0000
     1.0000   1.0000   1.0000   1.0000   1.0000   1.0000   1.0000   1.0000
     1.0000   1.0000   1.0000   1.0000   1.0000   1.0000   1.0000   1.0000
     1.0000   1.0000   1.0000   1.0000   1.0000   1.0000   1.0000   1.0000
     1.0000   1.0000   1.0000   1.0000   1.0000   1.0000   1.0000   1.0000
     1.0000   1.0000   1.0000   1.0000   1.0000   1.0000   1.0000   1.0000
     1.0000   1.0000   1.0000   1.0000   1.0000   1.0000   1.0000   1.0000
     1.0000   1.0000   1.0000   1.0000   1.0000   1.0000   1.0000   1.0000
     1.0000   1.0000   1.0000   1.0000   1.0000   0.0000   0.0000   0.0000
     0.0000   0.0000   0.0000   0.0000   0.0000   0.0000   0.0000   0.0000
     0.0000   0.0000   0.0000   0.0000   0.0000   0.0000   0.0000   0.0000
     0.0000   0.0000

          k =-0.5000-0.5000 0.0000 ( 24084 PWs)   bands (ev):

   -80.2068 -76.1867 -65.0134 -64.9427 -46.4007 -46.3020 -46.3020 -42.2094
   -42.0380 -42.0380 -33.7907 -33.7669 -33.6058 -33.6058 -33.5149 -33.5149
   -30.3397 -30.3397 -15.8964 -15.8964 -10.7878 -10.7816 -10.6097 -10.6097
   -10.4107 -10.4081  -6.9649  -6.7157  -6.3548  -6.3341  -6.3341  -6.3242
    -5.9098  -5.8398  -5.8082  -5.8082  -1.1038  -1.1038  -0.9937  -0.9692
    -0.8237  -0.8234   3.6665   3.7962   3.7962   3.8136   3.8704   5.8337
     6.0927   6.2841   6.6168   6.6168   6.6506   7.0498   7.0498   7.2105
     7.4106   7.5059   7.5059   7.6606   7.6606   7.7892   7.9343   8.1575
     8.1575   8.2057   8.2231   8.2231   8.2439   8.4783   8.6635   8.6635
     8.9417   9.0213   9.0213   9.3292   9.4041  12.5224  12.5224  12.5488
    12.7423  13.0406  14.8904  15.0419  15.0419  15.1697  15.2600  15.2600
    15.5983  15.6286  15.6286  15.6439  16.0362  16.0362  16.1919  16.2336
    16.2632  16.2632

     occupation numbers 
     1.0000   1.0000   1.0000   1.0000   1.0000   1.0000   1.0000   1.0000
     1.0000   1.0000   1.0000   1.0000   1.0000   1.0000   1.0000   1.0000
     1.0000   1.0000   1.0000   1.0000   1.0000   1.0000   1.0000   1.0000
     1.0000   1.0000   1.0000   1.0000   1.0000   1.0000   1.0000   1.0000
     1.0000   1.0000   1.0000   1.0000   1.0000   1.0000   1.0000   1.0000
     1.0000   1.0000   1.0000   1.0000   1.0000   1.0000   1.0000   1.0000
     1.0000   1.0000   1.0000   1.0000   1.0000   1.0000   1.0000   1.0000
     1.0000   1.0000   1.0000   1.0000   1.0000   1.0000   1.0000   1.0000
     1.0000   1.0000   1.0000   1.0000   1.0000   1.0000   1.0000   1.0000
     1.0000   1.0000   1.0000   1.0000   1.0000   0.0000   0.0000   0.0000
     0.0000   0.0000   0.0000   0.0000   0.0000   0.0000   0.0000   0.0000
     0.0000   0.0000   0.0000   0.0000   0.0000   0.0000   0.0000   0.0000
     0.0000   0.0000

          k =-0.5000-0.5000 0.2456 ( 23976 PWs)   bands (ev):

   -80.2068 -76.1867 -65.0134 -64.9427 -46.4007 -46.3020 -46.3020 -42.2094
   -42.0380 -42.0380 -33.7907 -33.7669 -33.6058 -33.6058 -33.5149 -33.5149
   -30.3398 -30.3398 -15.8969 -15.8969 -10.7873 -10.7811 -10.6056 -10.6052
   -10.4108 -10.4082  -6.9829  -6.7587  -6.3723  -6.3685  -6.3236  -6.2346
    -5.9548  -5.8532  -5.7777  -5.7701  -1.1223  -1.1105  -0.9920  -0.9681
    -0.8242  -0.8240   3.6654   3.8015   3.8027   3.8094   3.8732   5.7160
     6.0174   6.4725   6.7196   6.7611   6.8988   7.0539   7.1001   7.1305
     7.4110   7.4276   7.4433   7.5473   7.6671   7.7252   7.8442   7.9191
     7.9467   8.2990   8.3124   8.3302   8.3502   8.4762   8.5012   8.5470
     8.9149   9.1789   9.2740   9.3120   9.3431  12.4959  12.5101  12.6595
    12.7505  13.0271  14.9233  15.0513  15.0681  15.1256  15.2532  15.5211
    15.6350  15.6868  15.7080  15.8278  16.0080  16.0705  16.0718  16.1952
    16.2237  16.3117

     occupation numbers 
     1.0000   1.0000   1.0000   1.0000   1.0000   1.0000   1.0000   1.0000
     1.0000   1.0000   1.0000   1.0000   1.0000   1.0000   1.0000   1.0000
     1.0000   1.0000   1.0000   1.0000   1.0000   1.0000   1.0000   1.0000
     1.0000   1.0000   1.0000   1.0000   1.0000   1.0000   1.0000   1.0000
     1.0000   1.0000   1.0000   1.0000   1.0000   1.0000   1.0000   1.0000
     1.0000   1.0000   1.0000   1.0000   1.0000   1.0000   1.0000   1.0000
     1.0000   1.0000   1.0000   1.0000   1.0000   1.0000   1.0000   1.0000
     1.0000   1.0000   1.0000   1.0000   1.0000   1.0000   1.0000   1.0000
     1.0000   1.0000   1.0000   1.0000   1.0000   1.0000   1.0000   1.0000
     1.0000   1.0000   1.0000   1.0000   1.0000   0.0000   0.0000   0.0000
     0.0000   0.0000   0.0000   0.0000   0.0000   0.0000   0.0000   0.0000
     0.0000   0.0000   0.0000   0.0000   0.0000   0.0000   0.0000   0.0000
     0.0000   0.0000

     the Fermi energy is    11.8919 ev

!    total energy              =   -1544.39635488 Ry
     estimated scf accuracy    <       0.00000006 Ry
     smearing contrib. (-TS)   =      -0.00000000 Ry
     internal energy E=F+TS    =   -1544.39635487 Ry

     The total energy is F=E-TS. E is the sum of the following terms:
     one-electron contribution =    -732.74140413 Ry
     hartree contribution      =     455.74096048 Ry
     xc contribution           =    -287.66306917 Ry
     ewald contribution        =    -980.05731735 Ry
     Hubbard energy            =       0.32447530 Ry

     total magnetization       =    10.00 Bohr mag/cell
     absolute magnetization    =    19.24 Bohr mag/cell

     convergence has been achieved in  15 iterations

     Writing all to output data dir /tmp/scratch/single/single.save/ :
     XML data file, charge density, pseudopotentials, collected wavefunctions

     init_run     :      3.47s CPU      3.83s WALL (       1 calls)
     electrons    :     71.94s CPU     79.93s WALL (       1 calls)

     Called by init_run:
     wfcinit      :      1.79s CPU      2.02s WALL (       1 calls)
     wfcinit:atom :      0.04s CPU      0.03s WALL (       2 calls)
     wfcinit:wfcr :      1.31s CPU      1.50s WALL (       2 calls)
     potinit      :      0.62s CPU      0.68s WALL (       1 calls)
     hinit0       :      0.85s CPU      0.88s WALL (       1 calls)

     Called by electrons:
     c_bands      :     54.83s CPU     60.39s WALL (      15 calls)
     sum_band     :      8.57s CPU     10.26s WALL (      15 calls)
     v_of_rho     :      3.20s CPU      3.55s WALL (      16 calls)
     v_h          :      0.12s CPU      0.11s WALL (      16 calls)
     v_xc         :      3.08s CPU      3.43s WALL (      16 calls)
     mix_rho      :      2.60s CPU      2.93s WALL (      15 calls)

     Called by c_bands:
     init_us_2    :      0.81s CPU      0.85s WALL (      64 calls)
     cegterg      :     47.93s CPU     53.23s WALL (      30 calls)

     Called by sum_band:
     sum_band:wei :      0.01s CPU      0.01s WALL (      15 calls)
     sum_band:loo :      7.18s CPU      8.23s WALL (      15 calls)
     sum_band:buf :      0.10s CPU      0.10s WALL (      30 calls)
     sum_band:ini :      0.38s CPU      0.39s WALL (      30 calls)

     Called by *egterg:
     cdiaghg      :      0.92s CPU      0.92s WALL (     125 calls)
     cegterg:over :      3.20s CPU      3.38s WALL (      95 calls)
     cegterg:upda :      1.77s CPU      1.79s WALL (      95 calls)
     cegterg:last :      2.87s CPU      3.01s WALL (      58 calls)
     h_psi        :     38.60s CPU     43.63s WALL (     127 calls)
     g_psi        :      0.20s CPU      0.26s WALL (      95 calls)

     Called by h_psi:
     h_psi:calbec :      4.11s CPU      4.23s WALL (     127 calls)
     vloc_psi     :     29.52s CPU     34.18s WALL (     127 calls)
                                        0.00s GPU  (     127 calls)
     add_vuspsi   :      3.74s CPU      3.87s WALL (     127 calls)
     vhpsi        :      0.87s CPU      0.93s WALL (     127 calls)

     General routines
     calbec       :      4.83s CPU      5.03s WALL (     286 calls)
     fft          :      1.45s CPU      1.80s WALL (     302 calls)
     ffts         :      1.21s CPU      1.65s WALL (     480 calls)
     fftw         :     30.22s CPU     35.62s WALL (   17250 calls)

     Parallel routines

     Hubbard U routines
     new_ns       :      0.38s CPU      0.39s WALL (      15 calls)
     vhpsi        :      0.87s CPU      0.93s WALL (     127 calls)

     PWSCF        :   1m15.79s CPU   1m24.37s WALL


   This run was terminated on:   7:43:43   2Oct2026            

=------------------------------------------------------------------------------=
   JOB DONE.
=------------------------------------------------------------------------------=
