
     Program PWSCF v.7.5 starts on  4Oct2026 at 20: 4:33 

     This program is part of the open-source Quantum ESPRESSO suite
     for quantum simulation of materials; please cite
         "P. Giannozzi et al., J. Phys.:Condens. Matter 21 395502 (2009);
         "P. Giannozzi et al., J. Phys.:Condens. Matter 29 465901 (2017);
         "P. Giannozzi et al., J. Chem. Phys. 152 154105 (2020);
          URL http://www.quantum-espresso.org", 
     in publications or presentations arising from this work. More details at
     http://www.quantum-espresso.org/quote

     Parallel version (MPI & OpenMP), running on      32 processor cores
     Number of MPI processes:                32
     Threads/MPI process:                     1

     MPI processes distributed on     1 nodes
     695572 MiB available memory on the printing compute node when the environment starts

     Reading input from /tmp/work/materials/KV_Cr_CN6/runs/A_pbeu_relax_scf_nscf_Ugrid/KVCr_LCM_nscf.repro.in

     Current dimensions of program PWSCF are:
     Max number of different atomic species (ntypx) = 10
     Max number of k-points (npk) =  40000
     Max angular momentum in pseudopotentials (lmaxx) =  4

     Atomic positions and unit cell read from directory:
     /tmp/scratch/21853630/KVCr_LCM/KVCr_LCM.save/

     Message from routine setup:
     using ibrav=0 with symmetry is DISCOURAGED, use correct ibrav instead

     K-points division:     npool     =       8
     R & G space division:  proc/nbgrp/npool/nimage =       4
     Subspace diagonalization in iterative solution of the eigenvalue problem:
     a serial algorithm will be used


     Parallelization info
     --------------------
     sticks:   dense  smooth     PW     G-vecs:    dense   smooth      PW
     Min        1545    1545    415                80210    80210   11183
     Max        1546    1546    417                80212    80212   11185
     Sum        6181    6181   1663               320843   320843   44735

     Using Slab Decomposition



     bravais-lattice index     =            0
     lattice parameter (alat)  =      14.2709  a.u.
     unit-cell volume          =    2055.1352 (a.u.)^3
     number of atoms/cell      =           15
     number of atomic types    =            5
     number of electrons       =        90.00
     number of Kohn-Sham states=           54
     kinetic-energy cutoff     =     110.0000  Ry
     charge density cutoff     =     440.0000  Ry
     Exchange-correlation= PBE
                           (   1   4   3   4   0   0   0)
     Hubbard projectors: ortho-atomic
     Hubbard parameters of DFT+U (Dudarev formulation) in eV:
     U(V-3d) =  3.0000
     U(Cr-3d) =  3.0000

     Internal variables: lda_plus_u =T, lda_plus_u_kind = 0

     Internal variables: orbital_resolved =F, hub_pot_fix =F, apply_U = F

     celldm(1)=  14.270914  celldm(2)=   0.000000  celldm(3)=   0.000000
     celldm(4)=   0.000000  celldm(5)=   0.000000  celldm(6)=   0.000000

     crystal axes: (cart. coord. in units of alat)
               a(1) = (   0.000000   0.707107   0.707107 )  
               a(2) = (   0.707107   0.000000   0.707107 )  
               a(3) = (   0.707107   0.707107   0.000000 )  

     reciprocal axes: (cart. coord. in units 2 pi/alat)
               b(1) = ( -0.707107  0.707107  0.707107 )  
               b(2) = (  0.707107 -0.707107  0.707107 )  
               b(3) = (  0.707107  0.707107 -0.707107 )  


     PseudoPot. # 1 for K  read from file:
     /tmp/pseudo/K.upf
     MD5 check sum: 0aa97b2c023445f040759afc9fdb6c80
     Pseudo is Norm-conserving + core correction, Zval =  9.0
     Generated using ONCVPSP code by D. R. Hamann
     Using radial grid of 2222 points,  6 beta functions with: 
                l(1) =   0
                l(2) =   0
                l(3) =   1
                l(4) =   1
                l(5) =   2
                l(6) =   2

     PseudoPot. # 2 for V  read from file:
     /tmp/pseudo/V.upf
     MD5 check sum: 40fb93c06b4f9d8c28c5ccd071294a04
     Pseudo is Norm-conserving + core correction, Zval = 13.0
     Generated using ONCVPSP code by D. R. Hamann
     Using radial grid of 1536 points,  6 beta functions with: 
                l(1) =   0
                l(2) =   0
                l(3) =   1
                l(4) =   1
                l(5) =   2
                l(6) =   2

     PseudoPot. # 3 for Cr read from file:
     /tmp/pseudo/Cr.upf
     MD5 check sum: 41892f80c335c8b1e803fd21ab4016b0
     Pseudo is Norm-conserving + core correction, Zval = 14.0
     Generated using ONCVPSP code by D. R. Hamann
     Using radial grid of 1638 points,  6 beta functions with: 
                l(1) =   0
                l(2) =   0
                l(3) =   1
                l(4) =   1
                l(5) =   2
                l(6) =   2

     PseudoPot. # 4 for C  read from file:
     /tmp/pseudo/C.upf
     MD5 check sum: 34a24e64c0a39f27c6c36b90a16ac686
     Pseudo is Norm-conserving + core correction, Zval =  4.0
     Generated using ONCVPSP code by D. R. Hamann
     Using radial grid of 1248 points,  4 beta functions with: 
                l(1) =   0
                l(2) =   0
                l(3) =   1
                l(4) =   1

     PseudoPot. # 5 for N  read from file:
     /tmp/pseudo/N.upf
     MD5 check sum: d34365f73bb0e2ee98afc20ec3e87676
     Pseudo is Norm-conserving + core correction, Zval =  5.0
     Generated using ONCVPSP code by D. R. Hamann
     Using radial grid of 1058 points,  4 beta functions with: 
                l(1) =   0
                l(2) =   0
                l(3) =   1
                l(4) =   1

     atomic species   valence    mass     pseudopotential
     K                 9.00    39.09830     K ( 1.00)
     V                13.00    50.94150     V ( 1.00)
     Cr               14.00    51.99610     Cr( 1.00)
     C                 4.00    12.01100     C ( 1.00)
     N                 5.00    14.00700     N ( 1.00)

     Starting magnetic structure 
     atomic species   magnetization
     K               0.000
     V              -0.231
     Cr              0.214
     C               0.000
     N               0.000

     24 Sym. Ops. (no inversion) found


                                    s                        frac. trans.

      isym =  1     identity                                     

 cryst.   s( 1) = (     1          0          0      )
                  (     0          1          0      )
                  (     0          0          1      )

 cart.    s( 1) = (  1.0000000  0.0000000  0.0000000 )
                  (  0.0000000  1.0000000  0.0000000 )
                  (  0.0000000  0.0000000  1.0000000 )


      isym =  2     180 deg rotation - cart. axis [0,0,1]        

 cryst.   s( 2) = (     0          1         -1      )
                  (     1          0         -1      )
                  (     0          0         -1      )

 cart.    s( 2) = ( -1.0000000  0.0000000  0.0000000 )
                  (  0.0000000 -1.0000000  0.0000000 )
                  (  0.0000000  0.0000000  1.0000000 )


      isym =  3     180 deg rotation - cart. axis [0,1,0]        

 cryst.   s( 3) = (     0         -1          1      )
                  (     0         -1          0      )
                  (     1         -1          0      )

 cart.    s( 3) = ( -1.0000000  0.0000000  0.0000000 )
                  (  0.0000000  1.0000000  0.0000000 )
                  (  0.0000000  0.0000000 -1.0000000 )


      isym =  4     180 deg rotation - cart. axis [1,0,0]        

 cryst.   s( 4) = (    -1          0          0      )
                  (    -1          0          1      )
                  (    -1          1          0      )

 cart.    s( 4) = (  1.0000000  0.0000000  0.0000000 )
                  (  0.0000000 -1.0000000  0.0000000 )
                  (  0.0000000  0.0000000 -1.0000000 )


      isym =  5     120 deg rotation - cart. axis [-1,-1,-1]     

 cryst.   s( 5) = (     0          0          1      )
                  (     1          0          0      )
                  (     0          1          0      )

 cart.    s( 5) = (  0.0000000  1.0000000  0.0000000 )
                  (  0.0000000  0.0000000  1.0000000 )
                  (  1.0000000  0.0000000  0.0000000 )


      isym =  6     120 deg rotation - cart. axis [-1,1,1]       

 cryst.   s( 6) = (     1         -1          0      )
                  (     0         -1          1      )
                  (     0         -1          0      )

 cart.    s( 6) = (  0.0000000 -1.0000000  0.0000000 )
                  (  0.0000000  0.0000000  1.0000000 )
                  ( -1.0000000  0.0000000  0.0000000 )


      isym =  7     120 deg rotation - cart. axis [1,1,-1]       

 cryst.   s( 7) = (    -1          1          0      )
                  (    -1          0          0      )
                  (    -1          0          1      )

 cart.    s( 7) = (  0.0000000  1.0000000  0.0000000 )
                  (  0.0000000  0.0000000 -1.0000000 )
                  ( -1.0000000  0.0000000  0.0000000 )


      isym =  8     120 deg rotation - cart. axis [1,-1,1]       

 cryst.   s( 8) = (     0          0         -1      )
                  (     0          1         -1      )
                  (     1          0         -1      )

 cart.    s( 8) = (  0.0000000 -1.0000000  0.0000000 )
                  (  0.0000000  0.0000000 -1.0000000 )
                  (  1.0000000  0.0000000  0.0000000 )


      isym =  9     120 deg rotation - cart. axis [1,1,1]        

 cryst.   s( 9) = (     0          1          0      )
                  (     0          0          1      )
                  (     1          0          0      )

 cart.    s( 9) = (  0.0000000  0.0000000  1.0000000 )
                  (  1.0000000  0.0000000  0.0000000 )
                  (  0.0000000  1.0000000  0.0000000 )


      isym = 10     120 deg rotation - cart. axis [-1,1,-1]      

 cryst.   s(10) = (    -1          0          1      )
                  (    -1          1          0      )
                  (    -1          0          0      )

 cart.    s(10) = (  0.0000000  0.0000000  1.0000000 )
                  ( -1.0000000  0.0000000  0.0000000 )
                  (  0.0000000 -1.0000000  0.0000000 )


      isym = 11     120 deg rotation - cart. axis [1,-1,-1]      

 cryst.   s(11) = (     1          0         -1      )
                  (     0          0         -1      )
                  (     0          1         -1      )

 cart.    s(11) = (  0.0000000  0.0000000 -1.0000000 )
                  ( -1.0000000  0.0000000  0.0000000 )
                  (  0.0000000  1.0000000  0.0000000 )


      isym = 12     120 deg rotation - cart. axis [-1,-1,1]      

 cryst.   s(12) = (     0         -1          0      )
                  (     1         -1          0      )
                  (     0         -1          1      )

 cart.    s(12) = (  0.0000000  0.0000000 -1.0000000 )
                  (  1.0000000  0.0000000  0.0000000 )
                  (  0.0000000 -1.0000000  0.0000000 )


      isym = 13     inv. 180 deg rotation - cart. axis [1,1,0]   

 cryst.   s(13) = (     1          0         -1      )
                  (     0          1         -1      )
                  (     0          0         -1      )

 cart.    s(13) = (  0.0000000 -1.0000000  0.0000000 )
                  ( -1.0000000  0.0000000  0.0000000 )
                  (  0.0000000  0.0000000  1.0000000 )


      isym = 14     inv. 180 deg rotation - cart. axis [1,-1,0]  

 cryst.   s(14) = (     0          1          0      )
                  (     1          0          0      )
                  (     0          0          1      )

 cart.    s(14) = (  0.0000000  1.0000000  0.0000000 )
                  (  1.0000000  0.0000000  0.0000000 )
                  (  0.0000000  0.0000000  1.0000000 )


      isym = 15     inv.  90 deg rotation - cart. axis [0,0,-1]  

 cryst.   s(15) = (     0         -1          0      )
                  (     0         -1          1      )
                  (     1         -1          0      )

 cart.    s(15) = (  0.0000000 -1.0000000  0.0000000 )
                  (  1.0000000  0.0000000  0.0000000 )
                  (  0.0000000  0.0000000 -1.0000000 )


      isym = 16     inv.  90 deg rotation - cart. axis [0,0,1]   

 cryst.   s(16) = (    -1          0          1      )
                  (    -1          0          0      )
                  (    -1          1          0      )

 cart.    s(16) = (  0.0000000  1.0000000  0.0000000 )
                  ( -1.0000000  0.0000000  0.0000000 )
                  (  0.0000000  0.0000000 -1.0000000 )


      isym = 17     inv. 180 deg rotation - cart. axis [1,0,1]   

 cryst.   s(17) = (     1         -1          0      )
                  (     0         -1          0      )
                  (     0         -1          1      )

 cart.    s(17) = (  0.0000000  0.0000000 -1.0000000 )
                  (  0.0000000  1.0000000  0.0000000 )
                  ( -1.0000000  0.0000000  0.0000000 )


      isym = 18     inv. 180 deg rotation - cart. axis [-1,0,1]  

 cryst.   s(18) = (     0          0          1      )
                  (     0          1          0      )
                  (     1          0          0      )

 cart.    s(18) = (  0.0000000  0.0000000  1.0000000 )
                  (  0.0000000  1.0000000  0.0000000 )
                  (  1.0000000  0.0000000  0.0000000 )


      isym = 19     inv.  90 deg rotation - cart. axis [0,1,0]   

 cryst.   s(19) = (     0          0         -1      )
                  (     1          0         -1      )
                  (     0          1         -1      )

 cart.    s(19) = (  0.0000000  0.0000000 -1.0000000 )
                  (  0.0000000 -1.0000000  0.0000000 )
                  (  1.0000000  0.0000000  0.0000000 )


      isym = 20     inv.  90 deg rotation - cart. axis [0,-1,0]  

 cryst.   s(20) = (    -1          1          0      )
                  (    -1          0          1      )
                  (    -1          0          0      )

 cart.    s(20) = (  0.0000000  0.0000000  1.0000000 )
                  (  0.0000000 -1.0000000  0.0000000 )
                  ( -1.0000000  0.0000000  0.0000000 )


      isym = 21     inv. 180 deg rotation - cart. axis [0,1,1]   

 cryst.   s(21) = (    -1          0          0      )
                  (    -1          1          0      )
                  (    -1          0          1      )

 cart.    s(21) = (  1.0000000  0.0000000  0.0000000 )
                  (  0.0000000  0.0000000 -1.0000000 )
                  (  0.0000000 -1.0000000  0.0000000 )


      isym = 22     inv. 180 deg rotation - cart. axis [0,1,-1]  

 cryst.   s(22) = (     1          0          0      )
                  (     0          0          1      )
                  (     0          1          0      )

 cart.    s(22) = (  1.0000000  0.0000000  0.0000000 )
                  (  0.0000000  0.0000000  1.0000000 )
                  (  0.0000000  1.0000000  0.0000000 )


      isym = 23     inv.  90 deg rotation - cart. axis [-1,0,0]  

 cryst.   s(23) = (     0          1         -1      )
                  (     0          0         -1      )
                  (     1          0         -1      )

 cart.    s(23) = ( -1.0000000  0.0000000  0.0000000 )
                  (  0.0000000  0.0000000 -1.0000000 )
                  (  0.0000000  1.0000000  0.0000000 )


      isym = 24     inv.  90 deg rotation - cart. axis [1,0,0]   

 cryst.   s(24) = (     0         -1          1      )
                  (     1         -1          0      )
                  (     0         -1          0      )

 cart.    s(24) = ( -1.0000000  0.0000000  0.0000000 )
                  (  0.0000000  0.0000000  1.0000000 )
                  (  0.0000000 -1.0000000  0.0000000 )


   Cartesian axes

     site n.     atom                  positions (alat units)
         1        K      tau(   1) = (   0.3535534   0.3535534   0.3535534  )
         2        V      tau(   2) = (   0.0000000   0.0000000   0.0000000  )
         3        Cr     tau(   3) = (   0.7071068   0.7071068   0.7071068  )
         4        C      tau(   4) = (   0.4343911   0.7071068   0.7071068  )
         5        C      tau(   5) = (   0.9798225   0.7071068   0.7071068  )
         6        C      tau(   6) = (   0.7071068   0.4343911   0.7071068  )
         7        C      tau(   7) = (   0.7071068   0.9798225   0.7071068  )
         8        C      tau(   8) = (   0.7071068   0.7071068   0.4343911  )
         9        C      tau(   9) = (   0.7071068   0.7071068   0.9798225  )
        10        N      tau(  10) = (   0.2796732   0.7071068   0.7071068  )
        11        N      tau(  11) = (   1.1345404   0.7071068   0.7071068  )
        12        N      tau(  12) = (   0.7071068   0.2796732   0.7071068  )
        13        N      tau(  13) = (   0.7071068   1.1345404   0.7071068  )
        14        N      tau(  14) = (   0.7071068   0.7071068   0.2796732  )
        15        N      tau(  15) = (   0.7071068   0.7071068   1.1345404  )

   Crystallographic axes

     site n.     atom                  positions (cryst. coord.)
         1        K      tau(   1) = (  0.2500000  0.2500000  0.2500000  )
         2        V      tau(   2) = (  0.0000000  0.0000000  0.0000000  )
         3        Cr     tau(   3) = (  0.5000000  0.5000000  0.5000000  )
         4        C      tau(   4) = (  0.6928391  0.3071609  0.3071609  )
         5        C      tau(   5) = (  0.3071609  0.6928391  0.6928391  )
         6        C      tau(   6) = (  0.3071609  0.6928391  0.3071609  )
         7        C      tau(   7) = (  0.6928391  0.3071609  0.6928391  )
         8        C      tau(   8) = (  0.3071609  0.3071609  0.6928391  )
         9        C      tau(   9) = (  0.6928391  0.6928391  0.3071609  )
        10        N      tau(  10) = (  0.8022412  0.1977588  0.1977588  )
        11        N      tau(  11) = (  0.1977588  0.8022412  0.8022412  )
        12        N      tau(  12) = (  0.1977588  0.8022412  0.1977588  )
        13        N      tau(  13) = (  0.8022412  0.1977588  0.8022412  )
        14        N      tau(  14) = (  0.1977588  0.1977588  0.8022412  )
        15        N      tau(  15) = (  0.8022412  0.8022412  0.1977588  )

     number of k points=    29  Gaussian smearing, width (Ry)=  0.0050
                       cart. coord. in units 2pi/alat
        k(    1) = (   0.0000000   0.0000000   0.0000000), wk =   0.0019531
        k(    2) = (   0.0883883   0.0883883  -0.0883883), wk =   0.0156250
        k(    3) = (   0.1767767   0.1767767  -0.1767767), wk =   0.0156250
        k(    4) = (   0.2651650   0.2651650  -0.2651650), wk =   0.0156250
        k(    5) = (  -0.3535534  -0.3535534   0.3535534), wk =   0.0078125
        k(    6) = (   0.1767767   0.0000000   0.0000000), wk =   0.0117188
        k(    7) = (   0.2651650   0.0883883  -0.0883883), wk =   0.0468750
        k(    8) = (   0.3535534   0.1767767  -0.1767767), wk =   0.0468750
        k(    9) = (  -0.2651650  -0.4419417   0.4419417), wk =   0.0468750
        k(   10) = (  -0.1767767  -0.3535534   0.3535534), wk =   0.0468750
        k(   11) = (  -0.0883883  -0.2651650   0.2651650), wk =   0.0468750
        k(   12) = (   0.0000000  -0.1767767   0.1767767), wk =   0.0234375
        k(   13) = (   0.3535534   0.0000000   0.0000000), wk =   0.0117188
        k(   14) = (   0.4419417   0.0883883  -0.0883883), wk =   0.0468750
        k(   15) = (  -0.1767767  -0.5303301   0.5303301), wk =   0.0468750
        k(   16) = (  -0.0883883  -0.4419417   0.4419417), wk =   0.0468750
        k(   17) = (   0.0000000  -0.3535534   0.3535534), wk =   0.0234375
        k(   18) = (   0.5303301   0.0000000   0.0000000), wk =   0.0117188
        k(   19) = (  -0.0883883  -0.6187184   0.6187184), wk =   0.0468750
        k(   20) = (   0.0000000  -0.5303301   0.5303301), wk =   0.0234375
        k(   21) = (  -0.7071068   0.0000000   0.0000000), wk =   0.0058594
        k(   22) = (   0.3535534   0.1767767   0.0000000), wk =   0.0468750
        k(   23) = (  -0.2651650  -0.4419417   0.6187184), wk =   0.0937500
        k(   24) = (  -0.1767767  -0.3535534   0.5303301), wk =   0.0468750
        k(   25) = (  -0.1767767  -0.5303301   0.7071068), wk =   0.0468750
        k(   26) = (  -0.0883883  -0.4419417   0.6187184), wk =   0.0937500
        k(   27) = (  -0.0000000  -0.3535534   0.5303301), wk =   0.0468750
        k(   28) = (  -0.7071068   0.1767767   0.0000000), wk =   0.0234375
        k(   29) = (  -0.7071068   0.3535534   0.0000000), wk =   0.0117188

                       cryst. coord.
        k(    1) = (   0.0000000   0.0000000   0.0000000), wk =   0.0019531
        k(    2) = (   0.0000000   0.0000000   0.1250000), wk =   0.0156250
        k(    3) = (   0.0000000   0.0000000   0.2500000), wk =   0.0156250
        k(    4) = (   0.0000000   0.0000000   0.3750000), wk =   0.0156250
        k(    5) = (   0.0000000   0.0000000  -0.5000000), wk =   0.0078125
        k(    6) = (   0.0000000   0.1250000   0.1250000), wk =   0.0117188
        k(    7) = (   0.0000000   0.1250000   0.2500000), wk =   0.0468750
        k(    8) = (   0.0000000   0.1250000   0.3750000), wk =   0.0468750
        k(    9) = (   0.0000000   0.1250000  -0.5000000), wk =   0.0468750
        k(   10) = (   0.0000000   0.1250000  -0.3750000), wk =   0.0468750
        k(   11) = (   0.0000000   0.1250000  -0.2500000), wk =   0.0468750
        k(   12) = (   0.0000000   0.1250000  -0.1250000), wk =   0.0234375
        k(   13) = (   0.0000000   0.2500000   0.2500000), wk =   0.0117188
        k(   14) = (   0.0000000   0.2500000   0.3750000), wk =   0.0468750
        k(   15) = (   0.0000000   0.2500000  -0.5000000), wk =   0.0468750
        k(   16) = (   0.0000000   0.2500000  -0.3750000), wk =   0.0468750
        k(   17) = (   0.0000000   0.2500000  -0.2500000), wk =   0.0234375
        k(   18) = (   0.0000000   0.3750000   0.3750000), wk =   0.0117188
        k(   19) = (   0.0000000   0.3750000  -0.5000000), wk =   0.0468750
        k(   20) = (   0.0000000   0.3750000  -0.3750000), wk =   0.0234375
        k(   21) = (   0.0000000  -0.5000000  -0.5000000), wk =   0.0058594
        k(   22) = (   0.1250000   0.2500000   0.3750000), wk =   0.0468750
        k(   23) = (   0.1250000   0.2500000  -0.5000000), wk =   0.0937500
        k(   24) = (   0.1250000   0.2500000  -0.3750000), wk =   0.0468750
        k(   25) = (   0.1250000   0.3750000  -0.5000000), wk =   0.0468750
        k(   26) = (   0.1250000   0.3750000  -0.3750000), wk =   0.0937500
        k(   27) = (   0.1250000   0.3750000  -0.2500000), wk =   0.0468750
        k(   28) = (   0.1250000  -0.5000000  -0.3750000), wk =   0.0234375
        k(   29) = (   0.2500000  -0.5000000  -0.2500000), wk =   0.0117188

     Dense  grid:   320843 G-vectors     FFT dimensions: (  96,  96,  96)

     Dynamical RAM for                 wfc:       8.25 MB

     Dynamical RAM for     wfc (w. buffer):      74.22 MB

     Dynamical RAM for             U proj.:       1.53 MB

     Dynamical RAM for  U proj. (w. buff.):      13.75 MB

     Dynamical RAM for           str. fact:       6.12 MB

     Dynamical RAM for           local pot:       0.00 MB

     Dynamical RAM for          nlocal pot:      22.91 MB

     Dynamical RAM for                qrad:       8.42 MB

     Dynamical RAM for          rho,v,vnew:      17.47 MB

     Dynamical RAM for           G-vectors:       5.20 MB

     Dynamical RAM for          h,s,v(r/c):       0.53 MB

     Dynamical RAM for          <psi|beta>:       0.12 MB

     Dynamical RAM for                 psi:      16.49 MB

     Dynamical RAM for                hpsi:      16.49 MB

     Dynamical RAM for      wfcinit/wfcrot:      16.56 MB

     Estimated static dynamical RAM per process >     165.55 MB

     Estimated max dynamical RAM per process >     199.20 MB

     Estimated total dynamical RAM >       6.22 GB
     Generating pointlists ...
     new r_m :   0.2085 (alat units)  2.9753 (a.u.) for type    1
     new r_m :   0.1154 (alat units)  1.6464 (a.u.) for type    2
     new r_m :   0.1125 (alat units)  1.6054 (a.u.) for type    3
     new r_m :   0.0638 (alat units)  0.9108 (a.u.) for type    4
     new r_m :   0.0638 (alat units)  0.9108 (a.u.) for type    5

     The potential is recalculated from file :
     /tmp/scratch/21853630/KVCr_LCM/KVCr_LCM.save/charge-density


     HUBBARD ENERGY =    0.2422  (Ry)

     STARTING HUBBARD OCCUPATIONS:

     =================== HUBBARD OCCUPATIONS ===================
     ------------------------ ATOM    2 ------------------------
     Tr[ns(  2)] (up, down, total) =   0.40051  3.10482  3.50532
     Atomic magnetic moment for atom   2 =  -2.70431
     SPIN  1
     eigenvalues:
       0.026  0.026  0.026  0.162  0.162
     eigenvectors (columns):
      -0.000  0.000 -0.000  0.365 -0.931
      -0.307 -0.704  0.640 -0.000 -0.000
      -0.481 -0.466 -0.743 -0.000  0.000
       0.000 -0.000 -0.000 -0.931 -0.365
       0.821 -0.536 -0.196  0.000 -0.000
     occupation matrix ns (before diag.):
       0.162 -0.000 -0.000  0.000  0.000
      -0.000  0.026 -0.000  0.000  0.000
      -0.000 -0.000  0.026  0.000  0.000
       0.000  0.000  0.000  0.162 -0.000
       0.000  0.000  0.000 -0.000  0.026
     SPIN  2
     eigenvalues:
       0.200  0.200  0.902  0.902  0.902
     eigenvectors (columns):
      -0.603  0.798 -0.000 -0.000  0.000
      -0.000 -0.000  0.310 -0.832 -0.461
      -0.000 -0.000  0.476 -0.284  0.832
       0.798  0.603  0.000 -0.000 -0.000
       0.000  0.000 -0.823 -0.477  0.308
     occupation matrix ns (before diag.):
       0.200 -0.000 -0.000  0.000  0.000
      -0.000  0.902 -0.000  0.000  0.000
      -0.000 -0.000  0.902  0.000  0.000
       0.000  0.000  0.000  0.200 -0.000
       0.000  0.000  0.000 -0.000  0.902
     ------------------------ ATOM    3 ------------------------
     Tr[ns(  3)] (up, down, total) =   3.80426  0.86923  4.67349
     Atomic magnetic moment for atom   3 =   2.93503
     SPIN  1
     eigenvalues:
       0.490  0.490  0.941  0.941  0.941
     eigenvectors (columns):
      -0.496  0.868 -0.000  0.000  0.000
      -0.000  0.000  0.293  0.712 -0.638
      -0.000 -0.000  0.484  0.465  0.741
       0.868  0.496  0.000  0.000 -0.000
       0.000 -0.000 -0.825  0.526  0.208
     occupation matrix ns (before diag.):
       0.490 -0.000 -0.000  0.000  0.000
      -0.000  0.941 -0.000  0.000  0.000
      -0.000 -0.000  0.941  0.000  0.000
       0.000  0.000  0.000  0.490 -0.000
       0.000  0.000  0.000 -0.000  0.941
     SPIN  2
     eigenvalues:
       0.048  0.048  0.048  0.363  0.363
     eigenvectors (columns):
      -0.000  0.000 -0.000  0.434 -0.901
      -0.267 -0.613  0.743 -0.000  0.000
      -0.446 -0.605 -0.660 -0.000 -0.000
       0.000 -0.000  0.000 -0.901 -0.434
       0.854 -0.508 -0.112  0.000 -0.000
     occupation matrix ns (before diag.):
       0.363 -0.000 -0.000  0.000  0.000
      -0.000  0.048 -0.000  0.000  0.000
      -0.000 -0.000  0.048  0.000  0.000
       0.000  0.000  0.000  0.363 -0.000
       0.000  0.000  0.000 -0.000  0.048

     Number of occupied Hubbard levels =    8.1788

     Atomic wfc used for Hubbard projectors are orthogonalized

     Starting wfcs are   73 randomized atomic wfcs

     Band Structure Calculation
     Davidson diagonalization with overlap

     Computing kpt #:     1  of     8 on this pool
     total cpu time spent up to now is       25.5 secs

     Computing kpt #:     2  of     8 on this pool
     total cpu time spent up to now is       47.8 secs

     Computing kpt #:     3  of     8 on this pool
     total cpu time spent up to now is       69.7 secs

     Computing kpt #:     4  of     8 on this pool
     total cpu time spent up to now is       93.4 secs

     Computing kpt #:     5  of     8 on this pool
     total cpu time spent up to now is      115.4 secs

     Computing kpt #:     6  of     8 on this pool
     total cpu time spent up to now is      136.5 secs

     Computing kpt #:     7  of     8 on this pool
     total cpu time spent up to now is      158.4 secs

     Computing kpt #:     8  of     8 on this pool
     total cpu time spent up to now is      174.0 secs

     ethr =  1.67E-10,  avg # of iterations = 98.5

     total cpu time spent up to now is      174.9 secs

     End of band structure calculation

 ------ SPIN UP ------------


          k = 0.0000 0.0000 0.0000 ( 39957 PWs)   bands (ev):

   -71.4370 -59.7424 -42.8116 -42.8116 -42.8116 -33.6183 -33.6183 -33.6183
   -29.1637 -16.2771 -16.0885 -16.0885 -16.0885 -16.0372 -16.0372 -12.6111
   -12.6111 -12.6111  -6.8596  -4.9930  -4.9930  -4.9930  -4.9048  -4.9048
    -4.5345  -3.3564  -3.3564  -3.3564  -2.8764  -2.8764  -2.3806  -2.3806
    -2.3806  -2.0388  -2.0388  -2.0388  -1.8433  -1.8433  -1.8433  -1.5458
    -1.5458  -1.5458  -1.0666  -1.0666  -1.0666   4.4962   4.4962   4.6419
     4.6419   4.6419   5.1835   5.8166   5.8166   5.8166

     occupation numbers 
     1.0000   1.0000   1.0000   1.0000   1.0000   1.0000   1.0000   1.0000
     1.0000   1.0000   1.0000   1.0000   1.0000   1.0000   1.0000   1.0000
     1.0000   1.0000   1.0000   1.0000   1.0000   1.0000   1.0000   1.0000
     1.0000   1.0000   1.0000   1.0000   1.0000   1.0000   1.0000   1.0000
     1.0000   1.0000   1.0000   1.0000   1.0000   1.0000   1.0000   1.0000
     1.0000   1.0000   1.0000   1.0000   1.0000   0.0000   0.0000   0.0000
     0.0000   0.0000   0.0000   0.0000   0.0000   0.0000

          k = 0.0884 0.0884-0.0884 ( 40023 PWs)   bands (ev):

   -71.4370 -59.7424 -42.8116 -42.8116 -42.8116 -33.6183 -33.6183 -33.6183
   -29.1638 -16.2715 -16.0948 -16.0867 -16.0867 -16.0390 -16.0390 -12.6109
   -12.6109 -12.6105  -6.8208  -5.2059  -4.9846  -4.9846  -4.9030  -4.9030
    -4.3296  -3.3499  -3.3336  -3.3336  -2.8910  -2.8910  -2.4401  -2.4137
    -2.4137  -2.0974  -2.0974  -2.0237  -1.8615  -1.8574  -1.8574  -1.5643
    -1.5082  -1.5082  -1.0270  -1.0171  -1.0171   4.5032   4.5032   4.6599
     4.6819   4.6819   5.2655   5.7871   5.8472   5.8472

     occupation numbers 
     1.0000   1.0000   1.0000   1.0000   1.0000   1.0000   1.0000   1.0000
     1.0000   1.0000   1.0000   1.0000   1.0000   1.0000   1.0000   1.0000
     1.0000   1.0000   1.0000   1.0000   1.0000   1.0000   1.0000   1.0000
     1.0000   1.0000   1.0000   1.0000   1.0000   1.0000   1.0000   1.0000
     1.0000   1.0000   1.0000   1.0000   1.0000   1.0000   1.0000   1.0000
     1.0000   1.0000   1.0000   1.0000   1.0000   0.0000   0.0000   0.0000
     0.0000   0.0000   0.0000   0.0000   0.0000   0.0000

          k = 0.1768 0.1768-0.1768 ( 40014 PWs)   bands (ev):

   -71.4370 -59.7424 -42.8116 -42.8116 -42.8116 -33.6183 -33.6183 -33.6183
   -29.1638 -16.2558 -16.1121 -16.0817 -16.0817 -16.0442 -16.0442 -12.6106
   -12.6106 -12.6091  -6.7087  -5.5415  -4.9627  -4.9627  -4.9001  -4.9001
    -4.0204  -3.3304  -3.2704  -3.2704  -2.9174  -2.9174  -2.5935  -2.5221
    -2.5221  -2.2197  -2.2197  -1.9812  -1.9007  -1.8562  -1.8562  -1.6151
    -1.4416  -1.4416  -0.9417  -0.9169  -0.9169   4.5240   4.5240   4.7099
     4.7912   4.7912   5.4802   5.7236   5.8844   5.8844

     occupation numbers 
     1.0000   1.0000   1.0000   1.0000   1.0000   1.0000   1.0000   1.0000
     1.0000   1.0000   1.0000   1.0000   1.0000   1.0000   1.0000   1.0000
     1.0000   1.0000   1.0000   1.0000   1.0000   1.0000   1.0000   1.0000
     1.0000   1.0000   1.0000   1.0000   1.0000   1.0000   1.0000   1.0000
     1.0000   1.0000   1.0000   1.0000   1.0000   1.0000   1.0000   1.0000
     1.0000   1.0000   1.0000   1.0000   1.0000   0.0000   0.0000   0.0000
     0.0000   0.0000   0.0000   0.0000   0.0000   0.0000

          k = 0.2652 0.2652-0.2652 ( 40026 PWs)   bands (ev):

   -71.4370 -59.7424 -42.8116 -42.8116 -42.8116 -33.6183 -33.6183 -33.6183
   -29.1638 -16.2351 -16.1345 -16.0747 -16.0747 -16.0515 -16.0515 -12.6102
   -12.6102 -12.6077  -6.5411  -5.8556  -4.9363  -4.9363  -4.9010  -4.9010
    -3.7631  -3.2947  -3.1917  -3.1917  -2.9144  -2.9144  -2.7810  -2.6803
    -2.6803  -2.3282  -2.3282  -1.9368  -1.9221  -1.8275  -1.8275  -1.6824
    -1.3955  -1.3955  -0.8664  -0.8337  -0.8337   4.5493   4.5493   4.7711
     4.9331   4.9331   5.5756   5.8088   5.8088   5.8464

     occupation numbers 
     1.0000   1.0000   1.0000   1.0000   1.0000   1.0000   1.0000   1.0000
     1.0000   1.0000   1.0000   1.0000   1.0000   1.0000   1.0000   1.0000
     1.0000   1.0000   1.0000   1.0000   1.0000   1.0000   1.0000   1.0000
     1.0000   1.0000   1.0000   1.0000   1.0000   1.0000   1.0000   1.0000
     1.0000   1.0000   1.0000   1.0000   1.0000   1.0000   1.0000   1.0000
     1.0000   1.0000   1.0000   1.0000   1.0000   0.0000   0.0000   0.0000
     0.0000   0.0000   0.0000   0.0000   0.0000   0.0000

          k =-0.3536-0.3536 0.3536 ( 40094 PWs)   bands (ev):

   -71.4370 -59.7424 -42.8116 -42.8116 -42.8116 -33.6183 -33.6183 -33.6183
   -29.1638 -16.2230 -16.1472 -16.0698 -16.0698 -16.0565 -16.0565 -12.6100
   -12.6100 -12.6071  -6.4172  -6.0296  -4.9197  -4.9197  -4.9070  -4.9070
    -3.6560  -3.2602  -3.1542  -3.1542  -2.8875  -2.8436  -2.8436  -2.8199
    -2.8199  -2.3706  -2.3706  -1.9513  -1.8843  -1.8113  -1.8113  -1.7235
    -1.3806  -1.3806  -0.8374  -0.8026  -0.8026   4.5610   4.5610   4.8010
     5.0117   5.0117   5.5463   5.7319   5.7319   6.0139

     occupation numbers 
     1.0000   1.0000   1.0000   1.0000   1.0000   1.0000   1.0000   1.0000
     1.0000   1.0000   1.0000   1.0000   1.0000   1.0000   1.0000   1.0000
     1.0000   1.0000   1.0000   1.0000   1.0000   1.0000   1.0000   1.0000
     1.0000   1.0000   1.0000   1.0000   1.0000   1.0000   1.0000   1.0000
     1.0000   1.0000   1.0000   1.0000   1.0000   1.0000   1.0000   1.0000
     1.0000   1.0000   1.0000   1.0000   1.0000   0.0000   0.0000   0.0000
     0.0000   0.0000   0.0000   0.0000   0.0000   0.0000

          k = 0.1768 0.0000 0.0000 ( 40009 PWs)   bands (ev):

   -71.4370 -59.7424 -42.8116 -42.8116 -42.8116 -33.6183 -33.6183 -33.6183
   -29.1638 -16.2697 -16.0916 -16.0888 -16.0888 -16.0423 -16.0370 -12.6108
   -12.6108 -12.6105  -6.8096  -5.2471  -4.9827  -4.9827  -4.9051  -4.8993
    -4.2880  -3.3610  -3.3194  -3.3194  -2.9174  -2.8757  -2.4648  -2.4248
    -2.4248  -2.1037  -2.1037  -2.0462  -1.9025  -1.9025  -1.7661  -1.5463
    -1.5101  -1.5101  -1.0668  -0.9780  -0.9780   4.5025   4.5051   4.6455
     4.7089   4.7089   5.2930   5.8145   5.8418   5.8418

     occupation numbers 
     1.0000   1.0000   1.0000   1.0000   1.0000   1.0000   1.0000   1.0000
     1.0000   1.0000   1.0000   1.0000   1.0000   1.0000   1.0000   1.0000
     1.0000   1.0000   1.0000   1.0000   1.0000   1.0000   1.0000   1.0000
     1.0000   1.0000   1.0000   1.0000   1.0000   1.0000   1.0000   1.0000
     1.0000   1.0000   1.0000   1.0000   1.0000   1.0000   1.0000   1.0000
     1.0000   1.0000   1.0000   1.0000   1.0000   0.0000   0.0000   0.0000
     0.0000   0.0000   0.0000   0.0000   0.0000   0.0000

          k = 0.2652 0.0884-0.0884 ( 40035 PWs)   bands (ev):

   -71.4370 -59.7424 -42.8116 -42.8116 -42.8116 -33.6183 -33.6183 -33.6183
   -29.1638 -16.2576 -16.1044 -16.0872 -16.0830 -16.0487 -16.0388 -12.6105
   -12.6104 -12.6095  -6.7270  -5.4918  -4.9659  -4.9654  -4.9044  -4.8931
    -4.0585  -3.3537  -3.2680  -3.2638  -2.9570  -2.8863  -2.6032  -2.5090
    -2.4954  -2.2026  -2.1898  -2.0192  -1.9632  -1.9312  -1.7004  -1.5841
    -1.4630  -1.4482  -1.0218  -0.8908  -0.8875   4.5148   4.5181   4.6740
     4.8042   4.8140   5.4660   5.7596   5.8774   5.9116

     occupation numbers 
     1.0000   1.0000   1.0000   1.0000   1.0000   1.0000   1.0000   1.0000
     1.0000   1.0000   1.0000   1.0000   1.0000   1.0000   1.0000   1.0000
     1.0000   1.0000   1.0000   1.0000   1.0000   1.0000   1.0000   1.0000
     1.0000   1.0000   1.0000   1.0000   1.0000   1.0000   1.0000   1.0000
     1.0000   1.0000   1.0000   1.0000   1.0000   1.0000   1.0000   1.0000
     1.0000   1.0000   1.0000   1.0000   1.0000   0.0000   0.0000   0.0000
     0.0000   0.0000   0.0000   0.0000   0.0000   0.0000

          k = 0.3536 0.1768-0.1768 ( 40059 PWs)   bands (ev):

   -71.4370 -59.7424 -42.8116 -42.8116 -42.8116 -33.6183 -33.6183 -33.6183
   -29.1638 -16.2387 -16.1252 -16.0823 -16.0751 -16.0566 -16.0439 -12.6100
   -12.6100 -12.6081  -6.5849  -5.7780  -4.9408  -4.9405  -4.9043  -4.8901
    -3.8081  -3.3255  -3.1982  -3.1861  -2.9763  -2.8929  -2.7898  -2.6589
    -2.6029  -2.3116  -2.3026  -2.0287  -1.9607  -1.9064  -1.6655  -1.6542
    -1.4054  -1.3887  -0.9282  -0.8177  -0.8081   4.5371   4.5374   4.7424
     4.9257   4.9654   5.6098   5.8100   5.8463   5.9179

     occupation numbers 
     1.0000   1.0000   1.0000   1.0000   1.0000   1.0000   1.0000   1.0000
     1.0000   1.0000   1.0000   1.0000   1.0000   1.0000   1.0000   1.0000
     1.0000   1.0000   1.0000   1.0000   1.0000   1.0000   1.0000   1.0000
     1.0000   1.0000   1.0000   1.0000   1.0000   1.0000   1.0000   1.0000
     1.0000   1.0000   1.0000   1.0000   1.0000   1.0000   1.0000   1.0000
     1.0000   1.0000   1.0000   1.0000   1.0000   0.0000   0.0000   0.0000
     0.0000   0.0000   0.0000   0.0000   0.0000   0.0000

          k =-0.2652-0.4419 0.4419 ( 40040 PWs)   bands (ev):

   -71.4370 -59.7424 -42.8116 -42.8116 -42.8116 -33.6183 -33.6183 -33.6183
   -29.1638 -16.2224 -16.1428 -16.0752 -16.0731 -16.0585 -16.0511 -12.6099
   -12.6097 -12.6073  -6.4348  -6.0010  -4.9197  -4.9193  -4.9070  -4.8968
    -3.6474  -3.2800  -3.1548  -3.1363  -2.9908  -2.8770  -2.8490  -2.8118
    -2.7198  -2.3769  -2.3755  -2.0677  -1.9033  -1.8541  -1.7197  -1.6729
    -1.3681  -1.3625  -0.8493  -0.7915  -0.7756   4.5474   4.5575   4.8129
     5.0020   5.0736   5.6023   5.7640   5.7862   6.0504

     occupation numbers 
     1.0000   1.0000   1.0000   1.0000   1.0000   1.0000   1.0000   1.0000
     1.0000   1.0000   1.0000   1.0000   1.0000   1.0000   1.0000   1.0000
     1.0000   1.0000   1.0000   1.0000   1.0000   1.0000   1.0000   1.0000
     1.0000   1.0000   1.0000   1.0000   1.0000   1.0000   1.0000   1.0000
     1.0000   1.0000   1.0000   1.0000   1.0000   1.0000   1.0000   1.0000
     1.0000   1.0000   1.0000   1.0000   1.0000   0.0000   0.0000   0.0000
     0.0000   0.0000   0.0000   0.0000   0.0000   0.0000

          k =-0.1768-0.3536 0.3536 ( 40010 PWs)   bands (ev):

   -71.4370 -59.7424 -42.8116 -42.8116 -42.8116 -33.6183 -33.6183 -33.6183
   -29.1638 -16.2263 -16.1390 -16.0801 -16.0698 -16.0564 -16.0511 -12.6100
   -12.6096 -12.6075  -6.4725  -5.9509  -4.9280  -4.9203  -4.9040  -4.8980
    -3.6815  -3.2868  -3.1602  -3.1582  -2.9561  -2.9286  -2.8504  -2.7194
    -2.7080  -2.3680  -2.3599  -2.0712  -1.9117  -1.8173  -1.7171  -1.7102
    -1.3869  -1.3527  -0.8351  -0.8073  -0.8010   4.5402   4.5604   4.8148
     4.9820   5.0137   5.6017   5.7894   5.8332   5.9903

     occupation numbers 
     1.0000   1.0000   1.0000   1.0000   1.0000   1.0000   1.0000   1.0000
     1.0000   1.0000   1.0000   1.0000   1.0000   1.0000   1.0000   1.0000
     1.0000   1.0000   1.0000   1.0000   1.0000   1.0000   1.0000   1.0000
     1.0000   1.0000   1.0000   1.0000   1.0000   1.0000   1.0000   1.0000
     1.0000   1.0000   1.0000   1.0000   1.0000   1.0000   1.0000   1.0000
     1.0000   1.0000   1.0000   1.0000   1.0000   0.0000   0.0000   0.0000
     0.0000   0.0000   0.0000   0.0000   0.0000   0.0000

          k =-0.0884-0.2652 0.2652 ( 40013 PWs)   bands (ev):

   -71.4370 -59.7424 -42.8116 -42.8116 -42.8116 -33.6183 -33.6183 -33.6183
   -29.1638 -16.2452 -16.1193 -16.0865 -16.0743 -16.0517 -16.0440 -12.6104
   -12.6100 -12.6085  -6.6328  -5.6952  -4.9497  -4.9472  -4.9018  -4.8946
    -3.8817  -3.3245  -3.2341  -3.2141  -2.9491  -2.9173  -2.7284  -2.5851
    -2.5640  -2.2885  -2.2660  -2.0380  -1.9691  -1.8137  -1.7714  -1.6428
    -1.4314  -1.3873  -0.9059  -0.8758  -0.8432   4.5230   4.5427   4.7480
     4.8633   4.8828   5.5902   5.7343   5.8916   5.9395

     occupation numbers 
     1.0000   1.0000   1.0000   1.0000   1.0000   1.0000   1.0000   1.0000
     1.0000   1.0000   1.0000   1.0000   1.0000   1.0000   1.0000   1.0000
     1.0000   1.0000   1.0000   1.0000   1.0000   1.0000   1.0000   1.0000
     1.0000   1.0000   1.0000   1.0000   1.0000   1.0000   1.0000   1.0000
     1.0000   1.0000   1.0000   1.0000   1.0000   1.0000   1.0000   1.0000
     1.0000   1.0000   1.0000   1.0000   1.0000   0.0000   0.0000   0.0000
     0.0000   0.0000   0.0000   0.0000   0.0000   0.0000

          k = 0.0000-0.1768 0.1768 ( 40006 PWs)   bands (ev):

   -71.4370 -59.7424 -42.8116 -42.8116 -42.8116 -33.6183 -33.6183 -33.6183
   -29.1638 -16.2626 -16.1020 -16.0890 -16.0815 -16.0444 -16.0396 -12.6108
   -12.6105 -12.6098  -6.7593  -5.4110  -4.9723  -4.9716  -4.9030  -4.8982
    -4.1364  -3.3451  -3.3027  -3.2860  -2.9246  -2.8968  -2.5457  -2.4717
    -2.4587  -2.1801  -2.1533  -2.0121  -1.9634  -1.8306  -1.8158  -1.5854
    -1.4828  -1.4533  -0.9893  -0.9679  -0.9246   4.5088   4.5181   4.6845
     4.7382   4.7619   5.3938   5.7532   5.8646   5.9061

     occupation numbers 
     1.0000   1.0000   1.0000   1.0000   1.0000   1.0000   1.0000   1.0000
     1.0000   1.0000   1.0000   1.0000   1.0000   1.0000   1.0000   1.0000
     1.0000   1.0000   1.0000   1.0000   1.0000   1.0000   1.0000   1.0000
     1.0000   1.0000   1.0000   1.0000   1.0000   1.0000   1.0000   1.0000
     1.0000   1.0000   1.0000   1.0000   1.0000   1.0000   1.0000   1.0000
     1.0000   1.0000   1.0000   1.0000   1.0000   0.0000   0.0000   0.0000
     0.0000   0.0000   0.0000   0.0000   0.0000   0.0000

          k = 0.3536 0.0000 0.0000 ( 40046 PWs)   bands (ev):

   -71.4370 -59.7424 -42.8116 -42.8116 -42.8116 -33.6183 -33.6183 -33.6183
   -29.1638 -16.2503 -16.0983 -16.0894 -16.0894 -16.0567 -16.0367 -12.6100
   -12.6100 -12.6091  -6.6856  -5.5757  -4.9567  -4.9567  -4.9059  -4.8817
    -3.9685  -3.3734  -3.2160  -3.2160  -3.0133  -2.8742  -2.7095  -2.5568
    -2.5568  -2.2294  -2.2294  -2.0640  -1.9904  -1.9904  -1.5474  -1.5460
    -1.4535  -1.4535  -1.0671  -0.8136  -0.8136   4.5122   4.5172   4.6524
     4.9269   4.9269   5.5798   5.8216   5.9086   5.9086

     occupation numbers 
     1.0000   1.0000   1.0000   1.0000   1.0000   1.0000   1.0000   1.0000
     1.0000   1.0000   1.0000   1.0000   1.0000   1.0000   1.0000   1.0000
     1.0000   1.0000   1.0000   1.0000   1.0000   1.0000   1.0000   1.0000
     1.0000   1.0000   1.0000   1.0000   1.0000   1.0000   1.0000   1.0000
     1.0000   1.0000   1.0000   1.0000   1.0000   1.0000   1.0000   1.0000
     1.0000   1.0000   1.0000   1.0000   1.0000   0.0000   0.0000   0.0000
     0.0000   0.0000   0.0000   0.0000   0.0000   0.0000

          k = 0.4419 0.0884-0.0884 ( 40048 PWs)   bands (ev):

   -71.4370 -59.7424 -42.8116 -42.8116 -42.8116 -33.6183 -33.6183 -33.6183
   -29.1638 -16.2359 -16.1126 -16.0879 -16.0819 -16.0657 -16.0384 -12.6097
   -12.6096 -12.6082  -6.5914  -5.7504  -4.9380  -4.9378  -4.9062  -4.8720
    -3.7990  -3.3684  -3.1550  -3.1421  -3.0460  -2.8766  -2.8745  -2.6665
    -2.6359  -2.3173  -2.3001  -2.0591  -2.0353  -1.9946  -1.5956  -1.4866
    -1.3995  -1.3847  -1.0217  -0.7489  -0.7459   4.5137   4.5301   4.6811
     5.0777   5.1009   5.6774   5.8906   5.9247   6.0003

     occupation numbers 
     1.0000   1.0000   1.0000   1.0000   1.0000   1.0000   1.0000   1.0000
     1.0000   1.0000   1.0000   1.0000   1.0000   1.0000   1.0000   1.0000
     1.0000   1.0000   1.0000   1.0000   1.0000   1.0000   1.0000   1.0000
     1.0000   1.0000   1.0000   1.0000   1.0000   1.0000   1.0000   1.0000
     1.0000   1.0000   1.0000   1.0000   1.0000   1.0000   1.0000   1.0000
     1.0000   1.0000   1.0000   1.0000   1.0000   0.0000   0.0000   0.0000
     0.0000   0.0000   0.0000   0.0000   0.0000   0.0000

          k =-0.1768-0.5303 0.5303 ( 40037 PWs)   bands (ev):

   -71.4370 -59.7424 -42.8116 -42.8116 -42.8116 -33.6183 -33.6183 -33.6183
   -29.1638 -16.2206 -16.1307 -16.0829 -16.0806 -16.0654 -16.0435 -12.6095
   -12.6090 -12.6076  -6.4704  -5.9376  -4.9183  -4.9183  -4.9070  -4.8732
    -3.6305  -3.3377  -3.1553  -3.0842  -3.0693  -2.9416  -2.8667  -2.7889
    -2.7006  -2.3963  -2.3619  -2.1546  -1.9739  -1.9366  -1.6806  -1.5166
    -1.3561  -1.3060  -0.9271  -0.7282  -0.7168   4.5171   4.5489   4.7565
     5.1276   5.2485   5.6995   5.8536   5.9327   6.1467

     occupation numbers 
     1.0000   1.0000   1.0000   1.0000   1.0000   1.0000   1.0000   1.0000
     1.0000   1.0000   1.0000   1.0000   1.0000   1.0000   1.0000   1.0000
     1.0000   1.0000   1.0000   1.0000   1.0000   1.0000   1.0000   1.0000
     1.0000   1.0000   1.0000   1.0000   1.0000   1.0000   1.0000   1.0000
     1.0000   1.0000   1.0000   1.0000   1.0000   1.0000   1.0000   1.0000
     1.0000   1.0000   1.0000   1.0000   1.0000   0.0000   0.0000   0.0000
     0.0000   0.0000   0.0000   0.0000   0.0000   0.0000

          k =-0.0884-0.4419 0.4419 ( 40068 PWs)   bands (ev):

   -71.4370 -59.7424 -42.8116 -42.8116 -42.8116 -33.6183 -33.6183 -33.6183
   -29.1638 -16.2167 -16.1375 -16.0873 -16.0755 -16.0559 -16.0508 -12.6097
   -12.6087 -12.6077  -6.4182  -6.0115  -4.9193  -4.9066  -4.8982  -4.8901
    -3.5895  -3.2932  -3.1655  -3.1128  -3.0913  -2.9345  -2.8619  -2.7537
    -2.7199  -2.4096  -2.3892  -2.1975  -1.9269  -1.8618  -1.7379  -1.5846
    -1.3568  -1.2843  -0.8460  -0.7598  -0.7371   4.5185   4.5624   4.8426
     5.0304   5.1952   5.7271   5.8894   5.9162   6.1897

     occupation numbers 
     1.0000   1.0000   1.0000   1.0000   1.0000   1.0000   1.0000   1.0000
     1.0000   1.0000   1.0000   1.0000   1.0000   1.0000   1.0000   1.0000
     1.0000   1.0000   1.0000   1.0000   1.0000   1.0000   1.0000   1.0000
     1.0000   1.0000   1.0000   1.0000   1.0000   1.0000   1.0000   1.0000
     1.0000   1.0000   1.0000   1.0000   1.0000   1.0000   1.0000   1.0000
     1.0000   1.0000   1.0000   1.0000   1.0000   0.0000   0.0000   0.0000
     0.0000   0.0000   0.0000   0.0000   0.0000   0.0000

          k = 0.0000-0.3536 0.3536 ( 40038 PWs)   bands (ev):

   -71.4370 -59.7424 -42.8116 -42.8116 -42.8116 -33.6183 -33.6183 -33.6183
   -29.1638 -16.2292 -16.1292 -16.0900 -16.0698 -16.0564 -16.0481 -12.6100
   -12.6090 -12.6081  -6.5151  -5.8842  -4.9330  -4.9200  -4.9016  -4.8924
    -3.7113  -3.3083  -3.1675  -3.1627  -2.9825  -2.9632  -2.8589  -2.6693
    -2.6320  -2.3619  -2.3458  -2.1537  -1.9420  -1.8202  -1.7000  -1.6733
    -1.3931  -1.3207  -0.8317  -0.8131  -0.7995   4.5200   4.5599   4.8302
     4.9528   5.0154   5.6310   5.9023   6.0086   6.0092

     occupation numbers 
     1.0000   1.0000   1.0000   1.0000   1.0000   1.0000   1.0000   1.0000
     1.0000   1.0000   1.0000   1.0000   1.0000   1.0000   1.0000   1.0000
     1.0000   1.0000   1.0000   1.0000   1.0000   1.0000   1.0000   1.0000
     1.0000   1.0000   1.0000   1.0000   1.0000   1.0000   1.0000   1.0000
     1.0000   1.0000   1.0000   1.0000   1.0000   1.0000   1.0000   1.0000
     1.0000   1.0000   1.0000   1.0000   1.0000   0.0000   0.0000   0.0000
     0.0000   0.0000   0.0000   0.0000   0.0000   0.0000

          k = 0.5303 0.0000 0.0000 ( 40022 PWs)   bands (ev):

   -71.4370 -59.7424 -42.8116 -42.8116 -42.8116 -33.6183 -33.6183 -33.6183
   -29.1638 -16.2279 -16.1025 -16.0901 -16.0901 -16.0766 -16.0364 -12.6093
   -12.6093 -12.6077  -6.5602  -5.7882  -4.9291  -4.9291  -4.9067  -4.8541
    -3.7325  -3.3924  -3.1148  -3.0711  -3.0711  -2.9909  -2.8726  -2.7196
    -2.7196  -2.3512  -2.3512  -2.0816  -2.0430  -2.0430  -1.5485  -1.4129
    -1.4129  -1.3050  -1.0662  -0.6888  -0.6888   4.4945   4.5313   4.6547
     5.3083   5.3083   5.7281   5.9920   5.9920   6.0781

     occupation numbers 
     1.0000   1.0000   1.0000   1.0000   1.0000   1.0000   1.0000   1.0000
     1.0000   1.0000   1.0000   1.0000   1.0000   1.0000   1.0000   1.0000
     1.0000   1.0000   1.0000   1.0000   1.0000   1.0000   1.0000   1.0000
     1.0000   1.0000   1.0000   1.0000   1.0000   1.0000   1.0000   1.0000
     1.0000   1.0000   1.0000   1.0000   1.0000   1.0000   1.0000   1.0000
     1.0000   1.0000   1.0000   1.0000   1.0000   0.0000   0.0000   0.0000
     0.0000   0.0000   0.0000   0.0000   0.0000   0.0000

          k =-0.0884-0.6187 0.6187 ( 40061 PWs)   bands (ev):

   -71.4370 -59.7424 -42.8116 -42.8116 -42.8116 -33.6183 -33.6183 -33.6183
   -29.1639 -16.2183 -16.1140 -16.0884 -16.0879 -16.0777 -16.0382 -12.6091
   -12.6089 -12.6074  -6.4998  -5.8785  -4.9175  -4.9173  -4.9071  -4.8485
    -3.6255  -3.3914  -3.1594  -3.1077  -3.0092  -2.9692  -2.8781  -2.7931
    -2.7769  -2.4130  -2.3859  -2.1054  -2.0513  -2.0227  -1.6009  -1.4265
    -1.3735  -1.2337  -1.0207  -0.6682  -0.6647   4.4885   4.5404   4.6834
     5.3899   5.4983   5.7951   5.9586   6.0470   6.2171

     occupation numbers 
     1.0000   1.0000   1.0000   1.0000   1.0000   1.0000   1.0000   1.0000
     1.0000   1.0000   1.0000   1.0000   1.0000   1.0000   1.0000   1.0000
     1.0000   1.0000   1.0000   1.0000   1.0000   1.0000   1.0000   1.0000
     1.0000   1.0000   1.0000   1.0000   1.0000   1.0000   1.0000   1.0000
     1.0000   1.0000   1.0000   1.0000   1.0000   1.0000   1.0000   1.0000
     1.0000   1.0000   1.0000   1.0000   1.0000   0.0000   0.0000   0.0000
     0.0000   0.0000   0.0000   0.0000   0.0000   0.0000

          k = 0.0000-0.5303 0.5303 ( 40054 PWs)   bands (ev):

   -71.4370 -59.7424 -42.8116 -42.8116 -42.8116 -33.6183 -33.6183 -33.6183
   -29.1639 -16.2131 -16.1288 -16.0907 -16.0831 -16.0654 -16.0434 -12.6093
   -12.6083 -12.6077  -6.4348  -5.9771  -4.9135  -4.9087  -4.9033  -4.8626
    -3.5458  -3.3551  -3.1822  -3.1682  -3.0152  -2.9262  -2.8796  -2.7815
    -2.7794  -2.4443  -2.3802  -2.2064  -1.9877  -1.9422  -1.6896  -1.4859
    -1.3452  -1.2304  -0.9266  -0.6961  -0.6832   4.4979   4.5535   4.7604
     5.2087   5.4248   5.8681   5.9776   6.0549   6.1923

     occupation numbers 
     1.0000   1.0000   1.0000   1.0000   1.0000   1.0000   1.0000   1.0000
     1.0000   1.0000   1.0000   1.0000   1.0000   1.0000   1.0000   1.0000
     1.0000   1.0000   1.0000   1.0000   1.0000   1.0000   1.0000   1.0000
     1.0000   1.0000   1.0000   1.0000   1.0000   1.0000   1.0000   1.0000
     1.0000   1.0000   1.0000   1.0000   1.0000   1.0000   1.0000   1.0000
     1.0000   1.0000   1.0000   1.0000   1.0000   0.0000   0.0000   0.0000
     0.0000   0.0000   0.0000   0.0000   0.0000   0.0000

          k =-0.7071 0.0000 0.0000 ( 40170 PWs)   bands (ev):

   -71.4370 -59.7424 -42.8116 -42.8116 -42.8116 -33.6183 -33.6183 -33.6183
   -29.1639 -16.2173 -16.0996 -16.0909 -16.0903 -16.0903 -16.0363 -12.6090
   -12.6090 -12.6071  -6.5108  -5.8547  -4.9171  -4.9171  -4.9071  -4.8378
    -3.6293  -3.4099  -3.1503  -3.1329  -2.9610  -2.9610  -2.8719  -2.8266
    -2.8266  -2.4101  -2.4101  -2.0889  -2.0584  -2.0584  -1.5490  -1.3987
    -1.3987  -1.2022  -1.0642  -0.6447  -0.6447   4.4770   4.5369   4.6552
     5.6777   5.6777   5.7334   5.9560   5.9560   6.2260

     occupation numbers 
     1.0000   1.0000   1.0000   1.0000   1.0000   1.0000   1.0000   1.0000
     1.0000   1.0000   1.0000   1.0000   1.0000   1.0000   1.0000   1.0000
     1.0000   1.0000   1.0000   1.0000   1.0000   1.0000   1.0000   1.0000
     1.0000   1.0000   1.0000   1.0000   1.0000   1.0000   1.0000   1.0000
     1.0000   1.0000   1.0000   1.0000   1.0000   1.0000   1.0000   1.0000
     1.0000   1.0000   1.0000   1.0000   1.0000   0.0000   0.0000   0.0000
     0.0000   0.0000   0.0000   0.0000   0.0000   0.0000

          k = 0.3536 0.1768 0.0000 ( 40042 PWs)   bands (ev):

   -71.4370 -59.7424 -42.8116 -42.8116 -42.8116 -33.6183 -33.6183 -33.6183
   -29.1638 -16.2441 -16.1136 -16.0896 -16.0770 -16.0567 -16.0404 -12.6102
   -12.6098 -12.6087  -6.6349  -5.6837  -4.9487  -4.9462  -4.9045  -4.8857
    -3.8795  -3.3485  -3.2090  -3.1992  -2.9954  -2.8932  -2.7634  -2.5956
    -2.5713  -2.2853  -2.2591  -2.0601  -1.9990  -1.9262  -1.6209  -1.6140
    -1.4290  -1.3908  -0.9805  -0.8140  -0.8127   4.5176   4.5346   4.7065
     4.9264   4.9421   5.6195   5.7640   5.9267   5.9727

     occupation numbers 
     1.0000   1.0000   1.0000   1.0000   1.0000   1.0000   1.0000   1.0000
     1.0000   1.0000   1.0000   1.0000   1.0000   1.0000   1.0000   1.0000
     1.0000   1.0000   1.0000   1.0000   1.0000   1.0000   1.0000   1.0000
     1.0000   1.0000   1.0000   1.0000   1.0000   1.0000   1.0000   1.0000
     1.0000   1.0000   1.0000   1.0000   1.0000   1.0000   1.0000   1.0000
     1.0000   1.0000   1.0000   1.0000   1.0000   0.0000   0.0000   0.0000
     0.0000   0.0000   0.0000   0.0000   0.0000   0.0000

          k =-0.2652-0.4419 0.6187 ( 40028 PWs)   bands (ev):

   -71.4370 -59.7424 -42.8116 -42.8116 -42.8116 -33.6183 -33.6183 -33.6183
   -29.1638 -16.2268 -16.1300 -16.0870 -16.0732 -16.0607 -16.0454 -12.6098
   -12.6092 -12.6078  -6.5029  -5.8987  -4.9295  -4.9197  -4.9053  -4.8843
    -3.6893  -3.3224  -3.1608  -3.1313  -3.0165  -2.9405  -2.8673  -2.7164
    -2.6599  -2.3670  -2.3462  -2.1384  -1.9511  -1.8970  -1.6889  -1.5923
    -1.3696  -1.3359  -0.8929  -0.7855  -0.7466   4.5226   4.5531   4.7855
     4.9998   5.1166   5.6470   5.8823   5.9482   6.0302

     occupation numbers 
     1.0000   1.0000   1.0000   1.0000   1.0000   1.0000   1.0000   1.0000
     1.0000   1.0000   1.0000   1.0000   1.0000   1.0000   1.0000   1.0000
     1.0000   1.0000   1.0000   1.0000   1.0000   1.0000   1.0000   1.0000
     1.0000   1.0000   1.0000   1.0000   1.0000   1.0000   1.0000   1.0000
     1.0000   1.0000   1.0000   1.0000   1.0000   1.0000   1.0000   1.0000
     1.0000   1.0000   1.0000   1.0000   1.0000   0.0000   0.0000   0.0000
     0.0000   0.0000   0.0000   0.0000   0.0000   0.0000

          k =-0.1768-0.3536 0.5303 ( 40076 PWs)   bands (ev):

   -71.4370 -59.7424 -42.8116 -42.8116 -42.8116 -33.6183 -33.6183 -33.6183
   -29.1638 -16.2172 -16.1395 -16.0811 -16.0790 -16.0553 -16.0515 -12.6096
   -12.6090 -12.6075  -6.4153  -6.0172  -4.9178  -4.9111  -4.8974  -4.8927
    -3.5959  -3.2922  -3.1610  -3.1019  -3.0869  -2.8938  -2.8810  -2.7876
    -2.7191  -2.3996  -2.3902  -2.1686  -1.9203  -1.8701  -1.7377  -1.5913
    -1.3377  -1.3192  -0.8237  -0.8082  -0.7212   4.5255   4.5606   4.8487
     4.9888   5.2214   5.7087   5.8283   5.8375   6.1734

     occupation numbers 
     1.0000   1.0000   1.0000   1.0000   1.0000   1.0000   1.0000   1.0000
     1.0000   1.0000   1.0000   1.0000   1.0000   1.0000   1.0000   1.0000
     1.0000   1.0000   1.0000   1.0000   1.0000   1.0000   1.0000   1.0000
     1.0000   1.0000   1.0000   1.0000   1.0000   1.0000   1.0000   1.0000
     1.0000   1.0000   1.0000   1.0000   1.0000   1.0000   1.0000   1.0000
     1.0000   1.0000   1.0000   1.0000   1.0000   0.0000   0.0000   0.0000
     0.0000   0.0000   0.0000   0.0000   0.0000   0.0000

          k =-0.1768-0.5303 0.7071 ( 40038 PWs)   bands (ev):

   -71.4370 -59.7424 -42.8116 -42.8116 -42.8116 -33.6183 -33.6183 -33.6183
   -29.1638 -16.2235 -16.1195 -16.0902 -16.0808 -16.0695 -16.0402 -12.6094
   -12.6090 -12.6077  -6.5129  -5.8695  -4.9257  -4.9185  -4.9068  -4.8636
    -3.6698  -3.3669  -3.1518  -3.0720  -3.0490  -2.9915  -2.8720  -2.7335
    -2.7224  -2.3769  -2.3587  -2.1247  -2.0099  -1.9944  -1.6344  -1.4802
    -1.3496  -1.3038  -0.9799  -0.7227  -0.6888   4.5037   4.5424   4.7129
     5.1720   5.3161   5.7141   5.9866   6.0100   6.1385

     occupation numbers 
     1.0000   1.0000   1.0000   1.0000   1.0000   1.0000   1.0000   1.0000
     1.0000   1.0000   1.0000   1.0000   1.0000   1.0000   1.0000   1.0000
     1.0000   1.0000   1.0000   1.0000   1.0000   1.0000   1.0000   1.0000
     1.0000   1.0000   1.0000   1.0000   1.0000   1.0000   1.0000   1.0000
     1.0000   1.0000   1.0000   1.0000   1.0000   1.0000   1.0000   1.0000
     1.0000   1.0000   1.0000   1.0000   1.0000   0.0000   0.0000   0.0000
     0.0000   0.0000   0.0000   0.0000   0.0000   0.0000

          k =-0.0884-0.4419 0.6187 ( 40051 PWs)   bands (ev):

   -71.4370 -59.7424 -42.8116 -42.8116 -42.8116 -33.6183 -33.6183 -33.6183
   -29.1639 -16.2138 -16.1299 -16.0879 -16.0867 -16.0607 -16.0453 -12.6092
   -12.6085 -12.6077  -6.4320  -5.9831  -4.9166  -4.9083  -4.8982  -4.8694
    -3.5521  -3.3471  -3.1839  -3.1601  -3.0183  -2.9238  -2.8896  -2.7868
    -2.7575  -2.4191  -2.3863  -2.2112  -1.9812  -1.9234  -1.7114  -1.5156
    -1.3116  -1.2583  -0.8920  -0.7491  -0.6662   4.5005   4.5556   4.7952
     5.0851   5.4763   5.8383   5.9312   6.0012   6.2573

     occupation numbers 
     1.0000   1.0000   1.0000   1.0000   1.0000   1.0000   1.0000   1.0000
     1.0000   1.0000   1.0000   1.0000   1.0000   1.0000   1.0000   1.0000
     1.0000   1.0000   1.0000   1.0000   1.0000   1.0000   1.0000   1.0000
     1.0000   1.0000   1.0000   1.0000   1.0000   1.0000   1.0000   1.0000
     1.0000   1.0000   1.0000   1.0000   1.0000   1.0000   1.0000   1.0000
     1.0000   1.0000   1.0000   1.0000   1.0000   0.0000   0.0000   0.0000
     0.0000   0.0000   0.0000   0.0000   0.0000   0.0000

          k =-0.0000-0.3536 0.5303 ( 40063 PWs)   bands (ev):

   -71.4370 -59.7424 -42.8116 -42.8116 -42.8116 -33.6183 -33.6183 -33.6183
   -29.1638 -16.2153 -16.1332 -16.0904 -16.0801 -16.0551 -16.0499 -12.6094
   -12.6083 -12.6079  -6.4251  -5.9975  -4.9192  -4.9069  -4.8925  -4.8844
    -3.5712  -3.3169  -3.1773  -3.1437  -3.0521  -2.9524  -2.8617  -2.7548
    -2.7360  -2.4046  -2.3881  -2.2248  -1.9505  -1.8807  -1.7408  -1.5557
    -1.3213  -1.2761  -0.8210  -0.8110  -0.6886   4.5078   4.5606   4.8578
     4.9838   5.3386   5.7680   5.9992   6.0135   6.1980

     occupation numbers 
     1.0000   1.0000   1.0000   1.0000   1.0000   1.0000   1.0000   1.0000
     1.0000   1.0000   1.0000   1.0000   1.0000   1.0000   1.0000   1.0000
     1.0000   1.0000   1.0000   1.0000   1.0000   1.0000   1.0000   1.0000
     1.0000   1.0000   1.0000   1.0000   1.0000   1.0000   1.0000   1.0000
     1.0000   1.0000   1.0000   1.0000   1.0000   1.0000   1.0000   1.0000
     1.0000   1.0000   1.0000   1.0000   1.0000   0.0000   0.0000   0.0000
     0.0000   0.0000   0.0000   0.0000   0.0000   0.0000

          k =-0.7071 0.1768 0.0000 ( 40038 PWs)   bands (ev):

   -71.4370 -59.7424 -42.8116 -42.8116 -42.8116 -33.6183 -33.6183 -33.6183
   -29.1639 -16.2142 -16.1184 -16.0909 -16.0903 -16.0708 -16.0400 -12.6090
   -12.6087 -12.6074  -6.4683  -5.9242  -4.9164  -4.9072  -4.9065  -4.8502
    -3.5682  -3.3903  -3.1741  -3.1659  -2.9565  -2.9369  -2.9017  -2.8181
    -2.7911  -2.4219  -2.4093  -2.1446  -2.0297  -2.0036  -1.6397  -1.4577
    -1.3354  -1.2154  -0.9793  -0.6898  -0.6447   4.4862   4.5466   4.7146
     5.2844   5.6780   5.9448   5.9512   6.0097   6.2127

     occupation numbers 
     1.0000   1.0000   1.0000   1.0000   1.0000   1.0000   1.0000   1.0000
     1.0000   1.0000   1.0000   1.0000   1.0000   1.0000   1.0000   1.0000
     1.0000   1.0000   1.0000   1.0000   1.0000   1.0000   1.0000   1.0000
     1.0000   1.0000   1.0000   1.0000   1.0000   1.0000   1.0000   1.0000
     1.0000   1.0000   1.0000   1.0000   1.0000   1.0000   1.0000   1.0000
     1.0000   1.0000   1.0000   1.0000   1.0000   0.0000   0.0000   0.0000
     0.0000   0.0000   0.0000   0.0000   0.0000   0.0000

          k =-0.7071 0.3536 0.0000 ( 39932 PWs)   bands (ev):

   -71.4370 -59.7424 -42.8116 -42.8116 -42.8116 -33.6183 -33.6183 -33.6183
   -29.1639 -16.2108 -16.1289 -16.0909 -16.0903 -16.0548 -16.0490 -12.6090
   -12.6081 -12.6080  -6.4134  -6.0048  -4.9158  -4.9074  -4.8832  -4.8752
    -3.5002  -3.3649  -3.2060  -3.2013  -2.9492  -2.9219  -2.9192  -2.8075
    -2.7678  -2.4084  -2.4025  -2.2457  -1.9916  -1.8924  -1.7473  -1.5263
    -1.2617  -1.2603  -0.8220  -0.8102  -0.6447   4.4929   4.5589   4.8575
     4.9927   5.6783   5.9462   5.9515   6.1262   6.1599

     occupation numbers 
     1.0000   1.0000   1.0000   1.0000   1.0000   1.0000   1.0000   1.0000
     1.0000   1.0000   1.0000   1.0000   1.0000   1.0000   1.0000   1.0000
     1.0000   1.0000   1.0000   1.0000   1.0000   1.0000   1.0000   1.0000
     1.0000   1.0000   1.0000   1.0000   1.0000   1.0000   1.0000   1.0000
     1.0000   1.0000   1.0000   1.0000   1.0000   1.0000   1.0000   1.0000
     1.0000   1.0000   1.0000   1.0000   1.0000   0.0000   0.0000   0.0000
     0.0000   0.0000   0.0000   0.0000   0.0000   0.0000

 ------ SPIN DOWN ----------


          k = 0.0000 0.0000 0.0000 ( 39957 PWs)   bands (ev):

   -68.5378 -62.2522 -39.8743 -39.8743 -39.8743 -36.1353 -36.1353 -36.1353
   -29.1643 -16.2415 -16.0499 -16.0499 -16.0499 -15.9941 -15.9941 -12.6113
   -12.6113 -12.6113  -6.8756  -5.0374  -5.0374  -5.0374  -4.8730  -4.8730
    -4.5250  -3.1658  -3.1658  -3.1658  -2.5124  -2.5124  -2.3626  -2.3626
    -2.3626  -2.0144  -2.0144  -2.0144  -1.8571  -1.8571  -1.8571  -1.5114
    -1.5114  -1.5114   0.8619   0.8619   0.8619   3.7404   3.7404   3.7404
     5.2096   5.6395   5.6395   5.6955   5.6955   5.6955

     occupation numbers 
     1.0000   1.0000   1.0000   1.0000   1.0000   1.0000   1.0000   1.0000
     1.0000   1.0000   1.0000   1.0000   1.0000   1.0000   1.0000   1.0000
     1.0000   1.0000   1.0000   1.0000   1.0000   1.0000   1.0000   1.0000
     1.0000   1.0000   1.0000   1.0000   1.0000   1.0000   1.0000   1.0000
     1.0000   1.0000   1.0000   1.0000   1.0000   1.0000   1.0000   1.0000
     1.0000   1.0000   1.0000   1.0000   1.0000   0.0000   0.0000   0.0000
     0.0000   0.0000   0.0000   0.0000   0.0000   0.0000

          k = 0.0884 0.0884-0.0884 ( 40023 PWs)   bands (ev):

   -68.5378 -62.2522 -39.8743 -39.8743 -39.8743 -36.1353 -36.1353 -36.1353
   -29.1643 -16.2357 -16.0564 -16.0479 -16.0479 -15.9962 -15.9962 -12.6111
   -12.6111 -12.6107  -6.8345  -5.2471  -5.0304  -5.0304  -4.8694  -4.8694
    -4.3244  -3.1716  -3.1438  -3.1438  -2.5669  -2.5669  -2.3788  -2.3508
    -2.3508  -2.0592  -2.0592  -1.9989  -1.8944  -1.8608  -1.8608  -1.5305
    -1.4824  -1.4824   0.9155   0.9184   0.9184   3.6825   3.7008   3.7008
     5.2872   5.6114   5.6114   5.7455   5.8113   5.8113

     occupation numbers 
     1.0000   1.0000   1.0000   1.0000   1.0000   1.0000   1.0000   1.0000
     1.0000   1.0000   1.0000   1.0000   1.0000   1.0000   1.0000   1.0000
     1.0000   1.0000   1.0000   1.0000   1.0000   1.0000   1.0000   1.0000
     1.0000   1.0000   1.0000   1.0000   1.0000   1.0000   1.0000   1.0000
     1.0000   1.0000   1.0000   1.0000   1.0000   1.0000   1.0000   1.0000
     1.0000   1.0000   1.0000   1.0000   1.0000   0.0000   0.0000   0.0000
     0.0000   0.0000   0.0000   0.0000   0.0000   0.0000

          k = 0.1768 0.1768-0.1768 ( 40014 PWs)   bands (ev):

   -68.5378 -62.2522 -39.8743 -39.8743 -39.8743 -36.1353 -36.1353 -36.1353
   -29.1642 -16.2195 -16.0743 -16.0422 -16.0422 -16.0021 -16.0021 -12.6108
   -12.6108 -12.6093  -6.7136  -5.5918  -5.0135  -5.0135  -4.8604  -4.8604
    -4.0083  -3.1981  -3.0833  -3.0833  -2.6511  -2.6511  -2.4153  -2.3832
    -2.3832  -2.1817  -2.1817  -1.9870  -1.9551  -1.8228  -1.8228  -1.5830
    -1.4352  -1.4352   1.0488   1.0556   1.0556   3.5414   3.6008   3.6008
     5.4942   5.6626   5.6626   5.8760   5.9950   5.9950

     occupation numbers 
     1.0000   1.0000   1.0000   1.0000   1.0000   1.0000   1.0000   1.0000
     1.0000   1.0000   1.0000   1.0000   1.0000   1.0000   1.0000   1.0000
     1.0000   1.0000   1.0000   1.0000   1.0000   1.0000   1.0000   1.0000
     1.0000   1.0000   1.0000   1.0000   1.0000   1.0000   1.0000   1.0000
     1.0000   1.0000   1.0000   1.0000   1.0000   1.0000   1.0000   1.0000
     1.0000   1.0000   1.0000   1.0000   1.0000   0.0000   0.0000   0.0000
     0.0000   0.0000   0.0000   0.0000   0.0000   0.0000

          k = 0.2652 0.2652-0.2652 ( 40026 PWs)   bands (ev):

   -68.5378 -62.2522 -39.8743 -39.8743 -39.8743 -36.1353 -36.1352 -36.1352
   -29.1642 -16.1978 -16.0976 -16.0339 -16.0339 -16.0105 -16.0105 -12.6104
   -12.6104 -12.6080  -6.5212  -5.9321  -4.9965  -4.9965  -4.8508  -4.8508
    -3.7229  -3.2671  -3.0090  -3.0090  -2.7016  -2.7016  -2.4523  -2.4523
    -2.4447  -2.3190  -2.3190  -2.0864  -1.8939  -1.7554  -1.7554  -1.6529
    -1.4102  -1.4102   1.1901   1.1962   1.1962   3.3948   3.4936   3.4936
     5.7288   5.7955   5.7955   6.0560   6.1087   6.1087

     occupation numbers 
     1.0000   1.0000   1.0000   1.0000   1.0000   1.0000   1.0000   1.0000
     1.0000   1.0000   1.0000   1.0000   1.0000   1.0000   1.0000   1.0000
     1.0000   1.0000   1.0000   1.0000   1.0000   1.0000   1.0000   1.0000
     1.0000   1.0000   1.0000   1.0000   1.0000   1.0000   1.0000   1.0000
     1.0000   1.0000   1.0000   1.0000   1.0000   1.0000   1.0000   1.0000
     1.0000   1.0000   1.0000   1.0000   1.0000   0.0000   0.0000   0.0000
     0.0000   0.0000   0.0000   0.0000   0.0000   0.0000

          k =-0.3536-0.3536 0.3536 ( 40094 PWs)   bands (ev):

   -68.5378 -62.2522 -39.8743 -39.8743 -39.8743 -36.1353 -36.1352 -36.1352
   -29.1642 -16.1850 -16.1111 -16.0275 -16.0275 -16.0170 -16.0170 -12.6102
   -12.6102 -12.6074  -6.3225  -6.1816  -4.9895  -4.9895  -4.8466  -4.8466
    -3.5651  -3.3454  -2.9734  -2.9734  -2.7064  -2.7064  -2.4983  -2.4983
    -2.4528  -2.3776  -2.3776  -2.1312  -1.8541  -1.7227  -1.7227  -1.6962
    -1.4056  -1.4056   1.2521   1.2561   1.2561   3.3313   3.4465   3.4465
     5.8266   5.9173   5.9173   6.0543   6.0543   6.1797

     occupation numbers 
     1.0000   1.0000   1.0000   1.0000   1.0000   1.0000   1.0000   1.0000
     1.0000   1.0000   1.0000   1.0000   1.0000   1.0000   1.0000   1.0000
     1.0000   1.0000   1.0000   1.0000   1.0000   1.0000   1.0000   1.0000
     1.0000   1.0000   1.0000   1.0000   1.0000   1.0000   1.0000   1.0000
     1.0000   1.0000   1.0000   1.0000   1.0000   1.0000   1.0000   1.0000
     1.0000   1.0000   1.0000   1.0000   1.0000   0.0000   0.0000   0.0000
     0.0000   0.0000   0.0000   0.0000   0.0000   0.0000

          k = 0.1768 0.0000 0.0000 ( 40009 PWs)   bands (ev):

   -68.5378 -62.2522 -39.8743 -39.8743 -39.8743 -36.1353 -36.1353 -36.1353
   -29.1643 -16.2338 -16.0526 -16.0501 -16.0501 -15.9998 -15.9940 -12.6110
   -12.6110 -12.6107  -6.8224  -5.2869  -5.0270  -5.0270  -4.8733  -4.8722
    -4.2797  -3.1712  -3.1371  -3.1371  -2.6405  -2.5117  -2.3693  -2.3651
    -2.3651  -2.0685  -2.0685  -2.0219  -1.9179  -1.9179  -1.7704  -1.5119
    -1.4848  -1.4848   0.8625   0.9678   0.9678   3.6616   3.6616   3.7418
     5.3112   5.5653   5.6437   5.7906   5.7906   5.8433

     occupation numbers 
     1.0000   1.0000   1.0000   1.0000   1.0000   1.0000   1.0000   1.0000
     1.0000   1.0000   1.0000   1.0000   1.0000   1.0000   1.0000   1.0000
     1.0000   1.0000   1.0000   1.0000   1.0000   1.0000   1.0000   1.0000
     1.0000   1.0000   1.0000   1.0000   1.0000   1.0000   1.0000   1.0000
     1.0000   1.0000   1.0000   1.0000   1.0000   1.0000   1.0000   1.0000
     1.0000   1.0000   1.0000   1.0000   1.0000   0.0000   0.0000   0.0000
     0.0000   0.0000   0.0000   0.0000   0.0000   0.0000

          k = 0.2652 0.0884-0.0884 ( 40035 PWs)   bands (ev):

   -68.5378 -62.2522 -39.8743 -39.8743 -39.8743 -36.1353 -36.1353 -36.1353
   -29.1642 -16.2213 -16.0660 -16.0483 -16.0435 -16.0071 -15.9959 -12.6107
   -12.6106 -12.6097  -6.7333  -5.5371  -5.0127  -5.0122  -4.8701  -4.8664
    -4.0444  -3.1832  -3.0935  -3.0904  -2.7353  -2.5586  -2.4308  -2.3820
    -2.3627  -2.1920  -2.1576  -1.9916  -1.9849  -1.9264  -1.6872  -1.5507
    -1.4526  -1.4331   0.9184   1.0908   1.0916   3.5685   3.5841   3.7005
     5.4631   5.6148   5.6526   5.8763   5.9328   5.9677

     occupation numbers 
     1.0000   1.0000   1.0000   1.0000   1.0000   1.0000   1.0000   1.0000
     1.0000   1.0000   1.0000   1.0000   1.0000   1.0000   1.0000   1.0000
     1.0000   1.0000   1.0000   1.0000   1.0000   1.0000   1.0000   1.0000
     1.0000   1.0000   1.0000   1.0000   1.0000   1.0000   1.0000   1.0000
     1.0000   1.0000   1.0000   1.0000   1.0000   1.0000   1.0000   1.0000
     1.0000   1.0000   1.0000   1.0000   1.0000   0.0000   0.0000   0.0000
     0.0000   0.0000   0.0000   0.0000   0.0000   0.0000

          k = 0.3536 0.1768-0.1768 ( 40059 PWs)   bands (ev):

   -68.5378 -62.2522 -39.8743 -39.8743 -39.8743 -36.1353 -36.1353 -36.1352
   -29.1642 -16.2015 -16.0878 -16.0428 -16.0342 -16.0163 -16.0017 -12.6103
   -12.6103 -12.6084  -6.5734  -5.8427  -4.9949  -4.9939  -4.8608  -4.8571
    -3.7792  -3.2277  -3.0369  -3.0210  -2.7898  -2.6242  -2.5016  -2.4205
    -2.4124  -2.3295  -2.2697  -2.0907  -1.9296  -1.8658  -1.6309  -1.6218
    -1.4162  -1.3879   1.0542   1.2179   1.2193   3.4539   3.5074   3.5957
     5.6587   5.7208   5.7966   5.9965   6.0596   6.1024

     occupation numbers 
     1.0000   1.0000   1.0000   1.0000   1.0000   1.0000   1.0000   1.0000
     1.0000   1.0000   1.0000   1.0000   1.0000   1.0000   1.0000   1.0000
     1.0000   1.0000   1.0000   1.0000   1.0000   1.0000   1.0000   1.0000
     1.0000   1.0000   1.0000   1.0000   1.0000   1.0000   1.0000   1.0000
     1.0000   1.0000   1.0000   1.0000   1.0000   1.0000   1.0000   1.0000
     1.0000   1.0000   1.0000   1.0000   1.0000   0.0000   0.0000   0.0000
     0.0000   0.0000   0.0000   0.0000   0.0000   0.0000

          k =-0.2652-0.4419 0.4419 ( 40040 PWs)   bands (ev):

   -68.5378 -62.2522 -39.8743 -39.8743 -39.8743 -36.1353 -36.1352 -36.1352
   -29.1642 -16.1842 -16.1065 -16.0345 -16.0315 -16.0187 -16.0101 -12.6101
   -12.6099 -12.6076  -6.3655  -6.1248  -4.9861  -4.9801  -4.8556  -4.8500
    -3.5755  -3.3134  -3.0110  -2.9649  -2.7622  -2.6803  -2.5396  -2.5180
    -2.4260  -2.3666  -2.3518  -2.1812  -1.8688  -1.7847  -1.6868  -1.6399
    -1.3811  -1.3781   1.1945   1.2719   1.2745   3.3841   3.4810   3.4905
     5.8129   5.8434   5.9165   6.0209   6.0886   6.1794

     occupation numbers 
     1.0000   1.0000   1.0000   1.0000   1.0000   1.0000   1.0000   1.0000
     1.0000   1.0000   1.0000   1.0000   1.0000   1.0000   1.0000   1.0000
     1.0000   1.0000   1.0000   1.0000   1.0000   1.0000   1.0000   1.0000
     1.0000   1.0000   1.0000   1.0000   1.0000   1.0000   1.0000   1.0000
     1.0000   1.0000   1.0000   1.0000   1.0000   1.0000   1.0000   1.0000
     1.0000   1.0000   1.0000   1.0000   1.0000   0.0000   0.0000   0.0000
     0.0000   0.0000   0.0000   0.0000   0.0000   0.0000

          k =-0.1768-0.3536 0.3536 ( 40010 PWs)   bands (ev):

   -68.5378 -62.2522 -39.8743 -39.8743 -39.8743 -36.1353 -36.1353 -36.1352
   -29.1642 -16.1884 -16.1024 -16.0401 -16.0275 -16.0170 -16.0098 -12.6102
   -12.6099 -12.6078  -6.4289  -6.0492  -4.9906  -4.9797  -4.8633  -4.8449
    -3.6261  -3.2828  -3.0322  -2.9644  -2.7487  -2.7009  -2.5108  -2.4982
    -2.4287  -2.3658  -2.3100  -2.1835  -1.8805  -1.7345  -1.7065  -1.6739
    -1.4065  -1.3589   1.2153   1.2224   1.2550   3.3835   3.4736   3.5270
     5.7585   5.8579   5.8613   6.0277   6.0887   6.1668

     occupation numbers 
     1.0000   1.0000   1.0000   1.0000   1.0000   1.0000   1.0000   1.0000
     1.0000   1.0000   1.0000   1.0000   1.0000   1.0000   1.0000   1.0000
     1.0000   1.0000   1.0000   1.0000   1.0000   1.0000   1.0000   1.0000
     1.0000   1.0000   1.0000   1.0000   1.0000   1.0000   1.0000   1.0000
     1.0000   1.0000   1.0000   1.0000   1.0000   1.0000   1.0000   1.0000
     1.0000   1.0000   1.0000   1.0000   1.0000   0.0000   0.0000   0.0000
     0.0000   0.0000   0.0000   0.0000   0.0000   0.0000

          k =-0.0884-0.2652 0.2652 ( 40013 PWs)   bands (ev):

   -68.5378 -62.2522 -39.8743 -39.8743 -39.8743 -36.1353 -36.1353 -36.1352
   -29.1642 -16.2084 -16.0816 -16.0475 -16.0335 -16.0108 -16.0017 -12.6106
   -12.6102 -12.6088  -6.6288  -5.7530  -5.0050  -4.9948  -4.8722  -4.8493
    -3.8603  -3.2038  -3.0760  -3.0338  -2.7357  -2.6537  -2.4498  -2.4130
    -2.3932  -2.3038  -2.1915  -2.1032  -1.9427  -1.7870  -1.7435  -1.6077
    -1.4408  -1.3805   1.0871   1.0966   1.1938   3.4539   3.5521   3.6130
     5.6047   5.7004   5.7179   5.9457   6.0556   6.0767

     occupation numbers 
     1.0000   1.0000   1.0000   1.0000   1.0000   1.0000   1.0000   1.0000
     1.0000   1.0000   1.0000   1.0000   1.0000   1.0000   1.0000   1.0000
     1.0000   1.0000   1.0000   1.0000   1.0000   1.0000   1.0000   1.0000
     1.0000   1.0000   1.0000   1.0000   1.0000   1.0000   1.0000   1.0000
     1.0000   1.0000   1.0000   1.0000   1.0000   1.0000   1.0000   1.0000
     1.0000   1.0000   1.0000   1.0000   1.0000   0.0000   0.0000   0.0000
     0.0000   0.0000   0.0000   0.0000   0.0000   0.0000

          k = 0.0000-0.1768 0.1768 ( 40006 PWs)   bands (ev):

   -68.5378 -62.2522 -39.8743 -39.8743 -39.8743 -36.1353 -36.1353 -36.1353
   -29.1642 -16.2264 -16.0636 -16.0504 -16.0419 -16.0022 -15.9969 -12.6110
   -12.6107 -12.6100  -6.7684  -5.4554  -5.0213  -5.0165  -4.8743  -4.8598
    -4.1270  -3.1769  -3.1182  -3.1066  -2.6610  -2.5895  -2.3791  -2.3791
    -2.3658  -2.1616  -2.0898  -1.9942  -1.9879  -1.8420  -1.8004  -1.5507
    -1.4712  -1.4346   0.9648   0.9717   1.0529   3.5793   3.6434   3.6829
     5.4062   5.6089   5.6341   5.8371   5.8914   5.9388

     occupation numbers 
     1.0000   1.0000   1.0000   1.0000   1.0000   1.0000   1.0000   1.0000
     1.0000   1.0000   1.0000   1.0000   1.0000   1.0000   1.0000   1.0000
     1.0000   1.0000   1.0000   1.0000   1.0000   1.0000   1.0000   1.0000
     1.0000   1.0000   1.0000   1.0000   1.0000   1.0000   1.0000   1.0000
     1.0000   1.0000   1.0000   1.0000   1.0000   1.0000   1.0000   1.0000
     1.0000   1.0000   1.0000   1.0000   1.0000   0.0000   0.0000   0.0000
     0.0000   0.0000   0.0000   0.0000   0.0000   0.0000

          k = 0.3536 0.0000 0.0000 ( 40046 PWs)   bands (ev):

   -68.5378 -62.2522 -39.8743 -39.8743 -39.8743 -36.1353 -36.1353 -36.1353
   -29.1642 -16.2135 -16.0588 -16.0508 -16.0508 -16.0158 -15.9937 -12.6103
   -12.6103 -12.6094  -6.6870  -5.6197  -5.0008  -5.0008  -4.8760  -4.8741
    -3.9452  -3.1873  -3.0573  -3.0573  -2.8494  -2.5151  -2.5100  -2.3795
    -2.3795  -2.2456  -2.2456  -2.0400  -1.9814  -1.9814  -1.5324  -1.5130
    -1.4406  -1.4406   0.8639   1.1838   1.1838   3.5681   3.5681   3.7454
     5.4972   5.6531   5.6748   5.9439   5.9439   5.9587

     occupation numbers 
     1.0000   1.0000   1.0000   1.0000   1.0000   1.0000   1.0000   1.0000
     1.0000   1.0000   1.0000   1.0000   1.0000   1.0000   1.0000   1.0000
     1.0000   1.0000   1.0000   1.0000   1.0000   1.0000   1.0000   1.0000
     1.0000   1.0000   1.0000   1.0000   1.0000   1.0000   1.0000   1.0000
     1.0000   1.0000   1.0000   1.0000   1.0000   1.0000   1.0000   1.0000
     1.0000   1.0000   1.0000   1.0000   1.0000   0.0000   0.0000   0.0000
     0.0000   0.0000   0.0000   0.0000   0.0000   0.0000

          k = 0.4419 0.0884-0.0884 ( 40048 PWs)   bands (ev):

   -68.5378 -62.2522 -39.8743 -39.8743 -39.8743 -36.1353 -36.1353 -36.1353
   -29.1642 -16.1983 -16.0744 -16.0490 -16.0418 -16.0260 -15.9956 -12.6099
   -12.6098 -12.6085  -6.5797  -5.8066  -4.9857  -4.9825  -4.8738  -4.8705
    -3.7691  -3.2062  -3.0341  -2.9970  -2.9079  -2.5976  -2.5433  -2.4357
    -2.4153  -2.3388  -2.3256  -2.0393  -2.0038  -1.9703  -1.5634  -1.4695
    -1.3910  -1.3804   0.9198   1.2777   1.2780   3.5425   3.5590   3.7037
     5.5917   5.6738   5.8784   5.9388   6.0235   6.0446

     occupation numbers 
     1.0000   1.0000   1.0000   1.0000   1.0000   1.0000   1.0000   1.0000
     1.0000   1.0000   1.0000   1.0000   1.0000   1.0000   1.0000   1.0000
     1.0000   1.0000   1.0000   1.0000   1.0000   1.0000   1.0000   1.0000
     1.0000   1.0000   1.0000   1.0000   1.0000   1.0000   1.0000   1.0000
     1.0000   1.0000   1.0000   1.0000   1.0000   1.0000   1.0000   1.0000
     1.0000   1.0000   1.0000   1.0000   1.0000   0.0000   0.0000   0.0000
     0.0000   0.0000   0.0000   0.0000   0.0000   0.0000

          k =-0.1768-0.5303 0.5303 ( 40037 PWs)   bands (ev):

   -68.5378 -62.2522 -39.8743 -39.8743 -39.8743 -36.1353 -36.1353 -36.1353
   -29.1642 -16.1818 -16.0939 -16.0434 -16.0404 -16.0256 -16.0013 -12.6097
   -12.6093 -12.6079  -6.4249  -6.0298  -4.9770  -4.9602  -4.8765  -4.8592
    -3.5893  -3.2601  -3.0707  -2.9366  -2.8575  -2.6279  -2.6211  -2.5407
    -2.4459  -2.3677  -2.3626  -2.1476  -1.9240  -1.8972  -1.6490  -1.5121
    -1.3546  -1.3027   1.0552   1.3165   1.3186   3.5104   3.5669   3.5972
     5.7436   5.7532   5.8862   5.9932   6.0866   6.1927

     occupation numbers 
     1.0000   1.0000   1.0000   1.0000   1.0000   1.0000   1.0000   1.0000
     1.0000   1.0000   1.0000   1.0000   1.0000   1.0000   1.0000   1.0000
     1.0000   1.0000   1.0000   1.0000   1.0000   1.0000   1.0000   1.0000
     1.0000   1.0000   1.0000   1.0000   1.0000   1.0000   1.0000   1.0000
     1.0000   1.0000   1.0000   1.0000   1.0000   1.0000   1.0000   1.0000
     1.0000   1.0000   1.0000   1.0000   1.0000   0.0000   0.0000   0.0000
     0.0000   0.0000   0.0000   0.0000   0.0000   0.0000

          k =-0.0884-0.4419 0.4419 ( 40068 PWs)   bands (ev):

   -68.5378 -62.2522 -39.8743 -39.8743 -39.8743 -36.1353 -36.1353 -36.1352
   -29.1642 -16.1777 -16.1011 -16.0482 -16.0349 -16.0148 -16.0098 -12.6099
   -12.6090 -12.6079  -6.3304  -6.1487  -4.9801  -4.9467  -4.8891  -4.8472
    -3.5364  -3.2720  -3.1050  -2.9065  -2.7806  -2.7509  -2.5891  -2.5493
    -2.4129  -2.3748  -2.3332  -2.2484  -1.8759  -1.8045  -1.6998  -1.5955
    -1.3638  -1.2803   1.1948   1.2752   1.2817   3.4555   3.5252   3.5905
     5.7564   5.8455   5.9147   5.9580   6.0400   6.2596

     occupation numbers 
     1.0000   1.0000   1.0000   1.0000   1.0000   1.0000   1.0000   1.0000
     1.0000   1.0000   1.0000   1.0000   1.0000   1.0000   1.0000   1.0000
     1.0000   1.0000   1.0000   1.0000   1.0000   1.0000   1.0000   1.0000
     1.0000   1.0000   1.0000   1.0000   1.0000   1.0000   1.0000   1.0000
     1.0000   1.0000   1.0000   1.0000   1.0000   1.0000   1.0000   1.0000
     1.0000   1.0000   1.0000   1.0000   1.0000   0.0000   0.0000   0.0000
     0.0000   0.0000   0.0000   0.0000   0.0000   0.0000

          k = 0.0000-0.3536 0.3536 ( 40038 PWs)   bands (ev):

   -68.5378 -62.2522 -39.8743 -39.8743 -39.8743 -36.1353 -36.1353 -36.1352
   -29.1642 -16.1914 -16.0918 -16.0514 -16.0276 -16.0169 -16.0062 -12.6102
   -12.6093 -12.6083  -6.4871  -5.9637  -4.9917  -4.9636  -4.8874  -4.8433
    -3.6762  -3.2041  -3.1130  -2.9527  -2.7882  -2.7022  -2.5159  -2.4923
    -2.4039  -2.3540  -2.2511  -2.2339  -1.9105  -1.7392  -1.6945  -1.6594
    -1.4075  -1.3148   1.1790   1.1900   1.2549   3.4061   3.5323   3.6108
     5.6808   5.7813   5.8556   6.0125   6.0227   6.1886

     occupation numbers 
     1.0000   1.0000   1.0000   1.0000   1.0000   1.0000   1.0000   1.0000
     1.0000   1.0000   1.0000   1.0000   1.0000   1.0000   1.0000   1.0000
     1.0000   1.0000   1.0000   1.0000   1.0000   1.0000   1.0000   1.0000
     1.0000   1.0000   1.0000   1.0000   1.0000   1.0000   1.0000   1.0000
     1.0000   1.0000   1.0000   1.0000   1.0000   1.0000   1.0000   1.0000
     1.0000   1.0000   1.0000   1.0000   1.0000   0.0000   0.0000   0.0000
     0.0000   0.0000   0.0000   0.0000   0.0000   0.0000

          k = 0.5303 0.0000 0.0000 ( 40022 PWs)   bands (ev):

   -68.5378 -62.2522 -39.8743 -39.8743 -39.8743 -36.1353 -36.1353 -36.1353
   -29.1642 -16.1894 -16.0632 -16.0514 -16.0514 -16.0375 -15.9933 -12.6095
   -12.6095 -12.6080  -6.5414  -5.8439  -4.9733  -4.9733  -4.8802  -4.8750
    -3.6979  -3.2261  -3.0308  -2.9458  -2.9458  -2.6901  -2.5082  -2.5021
    -2.5021  -2.3423  -2.3423  -2.0581  -2.0187  -2.0187  -1.5141  -1.4071
    -1.4071  -1.2880   0.8654   1.3372   1.3372   3.6204   3.6204   3.7490
     5.5814   5.6612   5.8633   6.0238   6.0238   6.0517

     occupation numbers 
     1.0000   1.0000   1.0000   1.0000   1.0000   1.0000   1.0000   1.0000
     1.0000   1.0000   1.0000   1.0000   1.0000   1.0000   1.0000   1.0000
     1.0000   1.0000   1.0000   1.0000   1.0000   1.0000   1.0000   1.0000
     1.0000   1.0000   1.0000   1.0000   1.0000   1.0000   1.0000   1.0000
     1.0000   1.0000   1.0000   1.0000   1.0000   1.0000   1.0000   1.0000
     1.0000   1.0000   1.0000   1.0000   1.0000   0.0000   0.0000   0.0000
     0.0000   0.0000   0.0000   0.0000   0.0000   0.0000

          k =-0.0884-0.6187 0.6187 ( 40061 PWs)   bands (ev):

   -68.5378 -62.2522 -39.8743 -39.8743 -39.8743 -36.1353 -36.1353 -36.1353
   -29.1642 -16.1789 -16.0763 -16.0495 -16.0488 -16.0383 -15.9953 -12.6094
   -12.6091 -12.6077  -6.4651  -5.9502  -4.9665  -4.9550  -4.8856  -4.8701
    -3.5949  -3.2597  -3.0831  -2.8937  -2.8932  -2.7189  -2.6014  -2.5571
    -2.5224  -2.3686  -2.3502  -2.0675  -2.0135  -1.9932  -1.5704  -1.4254
    -1.3670  -1.2200   0.9209   1.3616   1.3624   3.6404   3.6572   3.7048
     5.6747   5.6822   5.8044   6.0120   6.0416   6.2078

     occupation numbers 
     1.0000   1.0000   1.0000   1.0000   1.0000   1.0000   1.0000   1.0000
     1.0000   1.0000   1.0000   1.0000   1.0000   1.0000   1.0000   1.0000
     1.0000   1.0000   1.0000   1.0000   1.0000   1.0000   1.0000   1.0000
     1.0000   1.0000   1.0000   1.0000   1.0000   1.0000   1.0000   1.0000
     1.0000   1.0000   1.0000   1.0000   1.0000   1.0000   1.0000   1.0000
     1.0000   1.0000   1.0000   1.0000   1.0000   0.0000   0.0000   0.0000
     0.0000   0.0000   0.0000   0.0000   0.0000   0.0000

          k = 0.0000-0.5303 0.5303 ( 40054 PWs)   bands (ev):

   -68.5378 -62.2522 -39.8743 -39.8743 -39.8743 -36.1353 -36.1353 -36.1353
   -29.1642 -16.1733 -16.0921 -16.0521 -16.0436 -16.0249 -16.0012 -12.6095
   -12.6086 -12.6079  -6.3670  -6.0874  -4.9701  -4.9262  -4.9062  -4.8577
    -3.5166  -3.2775  -3.1154  -2.8750  -2.8628  -2.6960  -2.6673  -2.5460
    -2.5148  -2.3733  -2.3552  -2.1664  -1.9263  -1.9063  -1.6595  -1.4942
    -1.3425  -1.2210   1.0557   1.3357   1.3394   3.5868   3.5976   3.6455
     5.7480   5.7651   5.8468   5.9848   5.9873   6.2296

     occupation numbers 
     1.0000   1.0000   1.0000   1.0000   1.0000   1.0000   1.0000   1.0000
     1.0000   1.0000   1.0000   1.0000   1.0000   1.0000   1.0000   1.0000
     1.0000   1.0000   1.0000   1.0000   1.0000   1.0000   1.0000   1.0000
     1.0000   1.0000   1.0000   1.0000   1.0000   1.0000   1.0000   1.0000
     1.0000   1.0000   1.0000   1.0000   1.0000   1.0000   1.0000   1.0000
     1.0000   1.0000   1.0000   1.0000   1.0000   0.0000   0.0000   0.0000
     0.0000   0.0000   0.0000   0.0000   0.0000   0.0000

          k =-0.7071 0.0000 0.0000 ( 40170 PWs)   bands (ev):

   -68.5378 -62.2522 -39.8743 -39.8743 -39.8743 -36.1353 -36.1353 -36.1353
   -29.1642 -16.1775 -16.0611 -16.0523 -16.0517 -16.0517 -15.9932 -12.6093
   -12.6093 -12.6074  -6.4790  -5.9186  -4.9614  -4.9614  -4.8819  -4.8753
    -3.5959  -3.2740  -3.0863  -2.8675  -2.8675  -2.7672  -2.6141  -2.6141
    -2.5074  -2.3487  -2.3487  -2.0656  -2.0330  -2.0330  -1.5146  -1.3948
    -1.3948  -1.1854   0.8660   1.3804   1.3804   3.6961   3.6961   3.7506
     5.6318   5.6642   5.7742   6.0154   6.0154   6.1523

     occupation numbers 
     1.0000   1.0000   1.0000   1.0000   1.0000   1.0000   1.0000   1.0000
     1.0000   1.0000   1.0000   1.0000   1.0000   1.0000   1.0000   1.0000
     1.0000   1.0000   1.0000   1.0000   1.0000   1.0000   1.0000   1.0000
     1.0000   1.0000   1.0000   1.0000   1.0000   1.0000   1.0000   1.0000
     1.0000   1.0000   1.0000   1.0000   1.0000   1.0000   1.0000   1.0000
     1.0000   1.0000   1.0000   1.0000   1.0000   0.0000   0.0000   0.0000
     0.0000   0.0000   0.0000   0.0000   0.0000   0.0000

          k = 0.3536 0.1768 0.0000 ( 40042 PWs)   bands (ev):

   -68.5378 -62.2522 -39.8743 -39.8743 -39.8743 -36.1353 -36.1353 -36.1352
   -29.1642 -16.2071 -16.0755 -16.0510 -16.0365 -16.0161 -15.9977 -12.6104
   -12.6100 -12.6089  -6.6307  -5.7379  -5.0002  -4.9902  -4.8782  -4.8568
    -3.8562  -3.1909  -3.0760  -3.0273  -2.8181  -2.5886  -2.5067  -2.3944
    -2.3866  -2.3120  -2.2457  -2.0603  -1.9726  -1.9063  -1.5976  -1.5805
    -1.4327  -1.3806   0.9693   1.1841   1.2184   3.4850   3.5621   3.6738
     5.5788   5.6740   5.7456   5.9412   6.0257   6.0495

     occupation numbers 
     1.0000   1.0000   1.0000   1.0000   1.0000   1.0000   1.0000   1.0000
     1.0000   1.0000   1.0000   1.0000   1.0000   1.0000   1.0000   1.0000
     1.0000   1.0000   1.0000   1.0000   1.0000   1.0000   1.0000   1.0000
     1.0000   1.0000   1.0000   1.0000   1.0000   1.0000   1.0000   1.0000
     1.0000   1.0000   1.0000   1.0000   1.0000   1.0000   1.0000   1.0000
     1.0000   1.0000   1.0000   1.0000   1.0000   0.0000   0.0000   0.0000
     0.0000   0.0000   0.0000   0.0000   0.0000   0.0000

          k =-0.2652-0.4419 0.6187 ( 40028 PWs)   bands (ev):

   -68.5378 -62.2522 -39.8743 -39.8743 -39.8743 -36.1353 -36.1353 -36.1352
   -29.1642 -16.1887 -16.0928 -16.0479 -16.0317 -16.0211 -16.0034 -12.6100
   -12.6095 -12.6081  -6.4708  -5.9809  -4.9855  -4.9679  -4.8795  -4.8499
    -3.6513  -3.2324  -3.0771  -2.9537  -2.8358  -2.6445  -2.5617  -2.5041
    -2.4062  -2.3697  -2.3247  -2.1590  -1.9151  -1.8480  -1.6553  -1.5802
    -1.3766  -1.3326   1.0926   1.2729   1.2785   3.4406   3.5360   3.6053
     5.7010   5.7623   5.9045   5.9813   6.0601   6.1713

     occupation numbers 
     1.0000   1.0000   1.0000   1.0000   1.0000   1.0000   1.0000   1.0000
     1.0000   1.0000   1.0000   1.0000   1.0000   1.0000   1.0000   1.0000
     1.0000   1.0000   1.0000   1.0000   1.0000   1.0000   1.0000   1.0000
     1.0000   1.0000   1.0000   1.0000   1.0000   1.0000   1.0000   1.0000
     1.0000   1.0000   1.0000   1.0000   1.0000   1.0000   1.0000   1.0000
     1.0000   1.0000   1.0000   1.0000   1.0000   0.0000   0.0000   0.0000
     0.0000   0.0000   0.0000   0.0000   0.0000   0.0000

          k =-0.1768-0.3536 0.5303 ( 40076 PWs)   bands (ev):

   -68.5378 -62.2522 -39.8743 -39.8743 -39.8743 -36.1353 -36.1353 -36.1352
   -29.1642 -16.1783 -16.1032 -16.0411 -16.0391 -16.0138 -16.0108 -12.6099
   -12.6093 -12.6077  -6.3222  -6.1607  -4.9784  -4.9595  -4.8766  -4.8494
    -3.5338  -3.2952  -3.0704  -2.9325  -2.7893  -2.7013  -2.5790  -2.5658
    -2.4143  -2.3867  -2.3376  -2.2236  -1.8711  -1.8115  -1.7029  -1.5945
    -1.3396  -1.3224   1.2154   1.2233   1.3176   3.4507   3.5091   3.5630
     5.7868   5.8381   5.9027   6.0154   6.0290   6.2421

     occupation numbers 
     1.0000   1.0000   1.0000   1.0000   1.0000   1.0000   1.0000   1.0000
     1.0000   1.0000   1.0000   1.0000   1.0000   1.0000   1.0000   1.0000
     1.0000   1.0000   1.0000   1.0000   1.0000   1.0000   1.0000   1.0000
     1.0000   1.0000   1.0000   1.0000   1.0000   1.0000   1.0000   1.0000
     1.0000   1.0000   1.0000   1.0000   1.0000   1.0000   1.0000   1.0000
     1.0000   1.0000   1.0000   1.0000   1.0000   0.0000   0.0000   0.0000
     0.0000   0.0000   0.0000   0.0000   0.0000   0.0000

          k =-0.1768-0.5303 0.7071 ( 40038 PWs)   bands (ev):

   -68.5378 -62.2522 -39.8743 -39.8743 -39.8743 -36.1353 -36.1353 -36.1353
   -29.1642 -16.1848 -16.0818 -16.0516 -16.0406 -16.0301 -15.9975 -12.6096
   -12.6093 -12.6080  -6.4830  -5.9419  -4.9723  -4.9625  -4.8861  -4.8626
    -3.6379  -3.2288  -3.0749  -2.9365  -2.9004  -2.6583  -2.5653  -2.5285
    -2.4831  -2.3760  -2.3398  -2.0837  -1.9724  -1.9599  -1.6039  -1.4755
    -1.3439  -1.2943   0.9706   1.3176   1.3373   3.5434   3.6131   3.6772
     5.6686   5.6969   5.8727   6.0054   6.0470   6.1652

     occupation numbers 
     1.0000   1.0000   1.0000   1.0000   1.0000   1.0000   1.0000   1.0000
     1.0000   1.0000   1.0000   1.0000   1.0000   1.0000   1.0000   1.0000
     1.0000   1.0000   1.0000   1.0000   1.0000   1.0000   1.0000   1.0000
     1.0000   1.0000   1.0000   1.0000   1.0000   1.0000   1.0000   1.0000
     1.0000   1.0000   1.0000   1.0000   1.0000   1.0000   1.0000   1.0000
     1.0000   1.0000   1.0000   1.0000   1.0000   0.0000   0.0000   0.0000
     0.0000   0.0000   0.0000   0.0000   0.0000   0.0000

          k =-0.0884-0.4419 0.6187 ( 40051 PWs)   bands (ev):

   -68.5378 -62.2522 -39.8743 -39.8743 -39.8743 -36.1353 -36.1353 -36.1353
   -29.1642 -16.1741 -16.0932 -16.0489 -16.0478 -16.0197 -16.0034 -12.6095
   -12.6087 -12.6080  -6.3616  -6.0974  -4.9650  -4.9391  -4.8998  -4.8566
    -3.5230  -3.2692  -3.1044  -2.9346  -2.8248  -2.6702  -2.6459  -2.5790
    -2.5101  -2.3702  -2.3436  -2.1683  -1.9114  -1.8916  -1.6810  -1.5249
    -1.3079  -1.2507   1.0934   1.2786   1.3620   3.5491   3.5835   3.6553
     5.7330   5.7829   5.8527   5.9847   6.0119   6.2144

     occupation numbers 
     1.0000   1.0000   1.0000   1.0000   1.0000   1.0000   1.0000   1.0000
     1.0000   1.0000   1.0000   1.0000   1.0000   1.0000   1.0000   1.0000
     1.0000   1.0000   1.0000   1.0000   1.0000   1.0000   1.0000   1.0000
     1.0000   1.0000   1.0000   1.0000   1.0000   1.0000   1.0000   1.0000
     1.0000   1.0000   1.0000   1.0000   1.0000   1.0000   1.0000   1.0000
     1.0000   1.0000   1.0000   1.0000   1.0000   0.0000   0.0000   0.0000
     0.0000   0.0000   0.0000   0.0000   0.0000   0.0000

          k =-0.0000-0.3536 0.5303 ( 40063 PWs)   bands (ev):

   -68.5378 -62.2522 -39.8743 -39.8743 -39.8743 -36.1353 -36.1353 -36.1352
   -29.1642 -16.1760 -16.0965 -16.0518 -16.0401 -16.0134 -16.0089 -12.6097
   -12.6086 -12.6082  -6.3472  -6.1221  -4.9725  -4.9357  -4.9032  -4.8501
    -3.5340  -3.2501  -3.1233  -2.9162  -2.8210  -2.7060  -2.5949  -2.5833
    -2.4637  -2.3686  -2.3305  -2.2133  -1.8862  -1.8379  -1.7065  -1.5691
    -1.3211  -1.2700   1.1845   1.2202   1.3375   3.4886   3.5582   3.6360
     5.7299   5.8149   5.8840   5.9721   6.0243   6.2579

     occupation numbers 
     1.0000   1.0000   1.0000   1.0000   1.0000   1.0000   1.0000   1.0000
     1.0000   1.0000   1.0000   1.0000   1.0000   1.0000   1.0000   1.0000
     1.0000   1.0000   1.0000   1.0000   1.0000   1.0000   1.0000   1.0000
     1.0000   1.0000   1.0000   1.0000   1.0000   1.0000   1.0000   1.0000
     1.0000   1.0000   1.0000   1.0000   1.0000   1.0000   1.0000   1.0000
     1.0000   1.0000   1.0000   1.0000   1.0000   0.0000   0.0000   0.0000
     0.0000   0.0000   0.0000   0.0000   0.0000   0.0000

          k =-0.7071 0.1768 0.0000 ( 40038 PWs)   bands (ev):

   -68.5378 -62.2522 -39.8743 -39.8743 -39.8743 -36.1353 -36.1353 -36.1353
   -29.1642 -16.1743 -16.0811 -16.0523 -16.0517 -16.0306 -15.9974 -12.6093
   -12.6090 -12.6077  -6.4212  -6.0093  -4.9554  -4.9506  -4.8942  -4.8660
    -3.5466  -3.2750  -3.0931  -2.9281  -2.8325  -2.7125  -2.6186  -2.6087
    -2.5298  -2.3828  -2.3449  -2.0920  -1.9781  -1.9747  -1.6113  -1.4591
    -1.3302  -1.2034   0.9711   1.3376   1.3804   3.6211   3.6704   3.6960
     5.6937   5.7406   5.7736   6.0006   6.0047   6.1567

     occupation numbers 
     1.0000   1.0000   1.0000   1.0000   1.0000   1.0000   1.0000   1.0000
     1.0000   1.0000   1.0000   1.0000   1.0000   1.0000   1.0000   1.0000
     1.0000   1.0000   1.0000   1.0000   1.0000   1.0000   1.0000   1.0000
     1.0000   1.0000   1.0000   1.0000   1.0000   1.0000   1.0000   1.0000
     1.0000   1.0000   1.0000   1.0000   1.0000   1.0000   1.0000   1.0000
     1.0000   1.0000   1.0000   1.0000   1.0000   0.0000   0.0000   0.0000
     0.0000   0.0000   0.0000   0.0000   0.0000   0.0000

          k =-0.7071 0.3536 0.0000 ( 39932 PWs)   bands (ev):

   -68.5378 -62.2522 -39.8743 -39.8743 -39.8743 -36.1353 -36.1353 -36.1353
   -29.1642 -16.1707 -16.0922 -16.0524 -16.0517 -16.0124 -16.0081 -12.6093
   -12.6084 -12.6082  -6.3219  -6.1391  -4.9513  -4.9271  -4.9193  -4.8569
    -3.4929  -3.2761  -3.0992  -2.9767  -2.7784  -2.6500  -2.6493  -2.6444
    -2.5538  -2.3453  -2.3421  -2.1812  -1.9057  -1.8678  -1.7162  -1.5414
    -1.2607  -1.2488   1.1801   1.1908   1.3804   3.5714   3.5741   3.6960
     5.7272   5.7711   5.8764   5.9381   5.9911   6.1605

     occupation numbers 
     1.0000   1.0000   1.0000   1.0000   1.0000   1.0000   1.0000   1.0000
     1.0000   1.0000   1.0000   1.0000   1.0000   1.0000   1.0000   1.0000
     1.0000   1.0000   1.0000   1.0000   1.0000   1.0000   1.0000   1.0000
     1.0000   1.0000   1.0000   1.0000   1.0000   1.0000   1.0000   1.0000
     1.0000   1.0000   1.0000   1.0000   1.0000   1.0000   1.0000   1.0000
     1.0000   1.0000   1.0000   1.0000   1.0000   0.0000   0.0000   0.0000
     0.0000   0.0000   0.0000   0.0000   0.0000   0.0000

     the Fermi energy is     1.9988 ev
     (compare with:     1.9739 eV, computed in scf)

     Writing all to output data dir /tmp/scratch/21853630/KVCr_LCM/KVCr_LCM.save/ :
     XML data file, pseudopotentials, collected wavefunctions

     init_run     :      2.24s CPU      2.42s WALL (       1 calls)
     electrons    :    149.32s CPU    172.27s WALL (       1 calls)

     Called by init_run:
     wfcinit      :      0.61s CPU      0.63s WALL (       1 calls)
     wfcinit:atom :      0.17s CPU      0.18s WALL (       8 calls)
     wfcinit:wfcr :      3.93s CPU      4.98s WALL (       8 calls)
     potinit      :      0.65s CPU      0.75s WALL (       1 calls)
     hinit0       :      0.70s CPU      0.72s WALL (       1 calls)

     Called by electrons:
     c_bands      :    149.24s CPU    172.18s WALL (       1 calls)
     v_of_rho     :      0.55s CPU      0.64s WALL (       1 calls)
     v_h          :      0.05s CPU      0.06s WALL (       1 calls)
     v_xc         :      0.50s CPU      0.58s WALL (       1 calls)

     Called by c_bands:
     init_us_2    :      0.25s CPU      0.26s WALL (      16 calls)
     cegterg      :    107.62s CPU    129.02s WALL (      30 calls)

     Called by sum_band:

     Called by *egterg:
     cdiaghg      :      1.16s CPU      1.37s WALL (     510 calls)
     cegterg:over :      6.40s CPU      6.51s WALL (     502 calls)
     cegterg:upda :      3.52s CPU      3.51s WALL (     502 calls)
     cegterg:last :      6.37s CPU      6.44s WALL (     305 calls)
     h_psi        :     91.25s CPU    113.39s WALL (     540 calls)
     g_psi        :      0.89s CPU      0.74s WALL (     502 calls)

     Called by h_psi:
     h_psi:calbec :      5.64s CPU      5.75s WALL (     540 calls)
     vloc_psi     :     78.98s CPU    100.89s WALL (     540 calls)
                                        0.00s GPU  (     540 calls)
     add_vuspsi   :      4.13s CPU      4.31s WALL (     540 calls)
     vhpsi        :      1.50s CPU      1.51s WALL (     540 calls)

     General routines
     calbec       :      6.69s CPU      6.88s WALL (    1088 calls)
     fft          :      0.62s CPU      0.69s WALL (      19 calls)
     fftw         :     67.37s CPU     88.67s WALL (   31870 calls)

     Parallel routines

     Hubbard U routines
     vhpsi        :      1.50s CPU      1.51s WALL (     540 calls)

     PWSCF        :   2m32.28s CPU   2m55.74s WALL


   This run was terminated on:  20: 7:29   4Oct2026            

=------------------------------------------------------------------------------=
   JOB DONE.
=------------------------------------------------------------------------------=
