Ba2 Y2 Mn2 Fe2 O10
1.0
   5.6178928529999999    0.0000000100000000    0.0000000000000000
  -0.0000000100000000    5.6178928529999999    0.0000000000000000
   0.0000000000000000    0.0000000000000000    7.6300616789999998
Ba Y Mn Fe Mn O
2 2 1 2 1 10
direct
   0.0000000000000000    0.5000000000000000    0.0024162123000000 Ba
   0.5000000000000000    0.0000000000000000    0.0024162123000000 Ba
   0.0000000000000000    0.5000000000000000    0.5017739824000000 Y
   0.5000000000000000    0.0000000000000000    0.5017739824000000 Y
   0.0000000000000000    0.0000000000000000    0.2622592721000000 Mn
   0.5000000000000000    0.5000000000000000    0.2582642605000000 Fe
   0.0000000000000000    0.0000000000000000    0.7418280413000000 Fe
   0.5000000000000000    0.5000000000000000    0.7383964954000000 Mn
   0.5000000000000000    0.5000000000000000    0.0076356141000000 O
   0.0000000000000000    0.0000000000000000    0.9921057526000000 O
   0.2209499931000000    0.7341716254000000    0.6841473141000001 O
   0.7790500069000000    0.2658283746000000    0.6841473141000001 O
   0.2658283746000000    0.2209499931000000    0.6841473141000001 O
   0.7341716254000000    0.7790500069000000    0.6841473141000001 O
   0.2845704206000000    0.7711890757000001    0.3131270470000000 O
   0.7154295794000000    0.2288109243000000    0.3131270470000000 O
   0.2288109243000000    0.2845704206000000    0.3131270470000000 O
   0.7711890756999999    0.7154295794000000    0.3131270470000000 O
