
     Program PWSCF v.7.5 starts on  2Oct2026 at  7:45:23 

     This program is part of the open-source Quantum ESPRESSO suite
     for quantum simulation of materials; please cite
         "P. Giannozzi et al., J. Phys.:Condens. Matter 21 395502 (2009);
         "P. Giannozzi et al., J. Phys.:Condens. Matter 29 465901 (2017);
         "P. Giannozzi et al., J. Chem. Phys. 152 154105 (2020);
          URL http://www.quantum-espresso.org", 
     in publications or presentations arising from this work. More details at
     http://www.quantum-espresso.org/quote

     Parallel version (MPI & OpenMP), running on      32 processor cores
     Number of MPI processes:                32
     Threads/MPI process:                     1

     MPI processes distributed on     1 nodes
     688939 MiB available memory on the printing compute node when the environment starts

     Reading input from single.in

     Current dimensions of program PWSCF are:
     Max number of different atomic species (ntypx) = 10
     Max number of k-points (npk) =  40000
     Max angular momentum in pseudopotentials (lmaxx) =  4
     Found identity + (  0.0000 -0.5000  0.0000) symmetry
     This is a supercell, fractional translations are disabled
     Message from routine setup:
     using ibrav=0 with symmetry is DISCOURAGED, use correct ibrav instead

     K-points division:     npool     =      16
     R & G space division:  proc/nbgrp/npool/nimage =       2
     Subspace diagonalization in iterative solution of the eigenvalue problem:
     a serial algorithm will be used


     Parallelization info
     --------------------
     sticks:   dense  smooth     PW     G-vecs:    dense   smooth      PW
     Min        3290    3290    887               192182   192182   26847
     Max        3291    3291    888               192185   192185   26848
     Sum        6581    6581   1775               384367   384367   53695

     Using Slab Decomposition



     bravais-lattice index     =            0
     lattice parameter (alat)  =      10.7051  a.u.
     unit-cell volume          =    3330.2042 (a.u.)^3
     number of atoms/cell      =           36
     number of atomic types    =            7
     number of electrons       =       328.00
     number of Kohn-Sham states=          197
     kinetic-energy cutoff     =      90.0000  Ry
     charge density cutoff     =     360.0000  Ry
     scf convergence threshold =      3.6E-07
     mixing beta               =       0.3000
     number of iterations used =            8  local-TF  mixing
     Exchange-correlation= PBE
                           (   1   4   3   4   0   0   0)
     Hubbard projectors: ortho-atomic
     Hubbard parameters of DFT+U (Dudarev formulation) in eV:
     U(Mn-3d) =  4.0000
     U(Mn1-3d) =  4.0000
     U(Fe-3d) =  4.0000
     U(Fe1-3d) =  4.0000

     Internal variables: lda_plus_u =T, lda_plus_u_kind = 0

     Internal variables: orbital_resolved =F, hub_pot_fix =F, apply_U = F

     celldm(1)=  10.705124  celldm(2)=   0.000000  celldm(3)=   0.000000
     celldm(4)=   0.000000  celldm(5)=   0.000000  celldm(6)=   0.000000

     crystal axes: (cart. coord. in units of alat)
               a(1) = (   1.000000   0.000000   0.000000 )  
               a(2) = (   0.000000   2.000000   0.000000 )  
               a(3) = (   0.000000   0.000000   1.357269 )  

     reciprocal axes: (cart. coord. in units 2 pi/alat)
               b(1) = (  1.000000  0.000000  0.000000 )  
               b(2) = (  0.000000  0.500000  0.000000 )  
               b(3) = (  0.000000  0.000000  0.736774 )  


     PseudoPot. # 1 for Ba read from file:
     /data/pseudo/dojo_sr/Ba.upf
     MD5 check sum: d1993ebf099ea5c29fdb9ecc5bd2bc91
     Pseudo is Norm-conserving + core correction, Zval = 10.0
     Generated using ONCVPSP code by D. R. Hamann
     Using radial grid of 1958 points,  6 beta functions with: 
                l(1) =   0
                l(2) =   0
                l(3) =   1
                l(4) =   1
                l(5) =   2
                l(6) =   2

     PseudoPot. # 2 for Y  read from file:
     /data/pseudo/dojo_sr/Y.upf
     MD5 check sum: 28b7a77fe5d3539441de961898735449
     Pseudo is Norm-conserving + core correction, Zval = 11.0
     Generated using ONCVPSP code by D. R. Hamann
     Using radial grid of 1766 points,  6 beta functions with: 
                l(1) =   0
                l(2) =   0
                l(3) =   1
                l(4) =   1
                l(5) =   2
                l(6) =   2

     PseudoPot. # 3 for Mn read from file:
     /data/pseudo/dojo_sr/Mn.upf
     MD5 check sum: ae71e1481ef25a952ba54bed1e0db183
     Pseudo is Norm-conserving + core correction, Zval = 15.0
     Generated using ONCVPSP code by D. R. Hamann
     Using radial grid of 1464 points,  6 beta functions with: 
                l(1) =   0
                l(2) =   0
                l(3) =   1
                l(4) =   1
                l(5) =   2
                l(6) =   2

     PseudoPot. # 4 for Mn read from file:
     /data/pseudo/dojo_sr/Mn.upf
     MD5 check sum: ae71e1481ef25a952ba54bed1e0db183
     Pseudo is Norm-conserving + core correction, Zval = 15.0
     Generated using ONCVPSP code by D. R. Hamann
     Using radial grid of 1464 points,  6 beta functions with: 
                l(1) =   0
                l(2) =   0
                l(3) =   1
                l(4) =   1
                l(5) =   2
                l(6) =   2

     PseudoPot. # 5 for Fe read from file:
     /data/pseudo/dojo_sr/Fe.upf
     MD5 check sum: a5f07f5dca5be6cacb81ceb54992e4ae
     Pseudo is Norm-conserving + core correction, Zval = 16.0
     Generated using ONCVPSP code by D. R. Hamann
     Using radial grid of 1426 points,  6 beta functions with: 
                l(1) =   0
                l(2) =   0
                l(3) =   1
                l(4) =   1
                l(5) =   2
                l(6) =   2

     PseudoPot. # 6 for Fe read from file:
     /data/pseudo/dojo_sr/Fe.upf
     MD5 check sum: a5f07f5dca5be6cacb81ceb54992e4ae
     Pseudo is Norm-conserving + core correction, Zval = 16.0
     Generated using ONCVPSP code by D. R. Hamann
     Using radial grid of 1426 points,  6 beta functions with: 
                l(1) =   0
                l(2) =   0
                l(3) =   1
                l(4) =   1
                l(5) =   2
                l(6) =   2

     PseudoPot. # 7 for O  read from file:
     /data/pseudo/dojo_sr/O.upf
     MD5 check sum: 3e3f909f7470e8921608ab6b1f57bbae
     Pseudo is Norm-conserving + core correction, Zval =  6.0
     Generated using ONCVPSP code by D. R. Hamann
     Using radial grid of  936 points,  5 beta functions with: 
                l(1) =   0
                l(2) =   0
                l(3) =   1
                l(4) =   1
                l(5) =   2

     atomic species   valence    mass     pseudopotential
     Ba               10.00   137.32700     Ba( 1.00)
     Y                11.00    88.90580     Y ( 1.00)
     Mn               15.00    54.93800     Mn( 1.00)
     Mn1              15.00    54.93800     Mn( 1.00)
     Fe               16.00    55.84500     Fe( 1.00)
     Fe1              16.00    55.84500     Fe( 1.00)
     O                 6.00    15.99900     O ( 1.00)

     Starting magnetic structure 
     atomic species   magnetization
     Ba              0.000
     Y               0.000
     Mn              0.300
     Mn1            -0.300
     Fe              0.263
     Fe1            -0.263
     O               0.000

      2 Sym. Ops. (no inversion) found


                                    s                        frac. trans.

      isym =  1     identity                                     

 cryst.   s( 1) = (     1          0          0      )
                  (     0          1          0      )
                  (     0          0          1      )

 cart.    s( 1) = (  1.0000000  0.0000000  0.0000000 )
                  (  0.0000000  1.0000000  0.0000000 )
                  (  0.0000000  0.0000000  1.0000000 )


      isym =  2     180 deg rotation - cart. axis [0,0,1]        

 cryst.   s( 2) = (    -1          0          0      )
                  (     0         -1          0      )
                  (     0          0          1      )

 cart.    s( 2) = ( -1.0000000  0.0000000  0.0000000 )
                  (  0.0000000 -1.0000000  0.0000000 )
                  (  0.0000000  0.0000000  1.0000000 )


   Cartesian axes

     site n.     atom                  positions (alat units)
         1        Ba     tau(   1) = (   0.0000000   0.0000000   0.0000000  )
         2        Ba     tau(   2) = (   0.0000000   1.0000000   0.0000000  )
         3        Ba     tau(   3) = (   0.5000000   0.5000000   0.0000000  )
         4        Ba     tau(   4) = (   0.5000000   1.5000000   0.0000000  )
         5        Y      tau(   5) = (   0.0000000   0.0000000   0.6786343  )
         6        Y      tau(   6) = (   0.0000000   1.0000000   0.6786343  )
         7        Y      tau(   7) = (   0.5000000   0.5000000   0.6786343  )
         8        Y      tau(   8) = (   0.5000000   1.5000000   0.6786343  )
         9        Mn     tau(   9) = (   0.0000000   0.5000000   0.3541496  )
        10        Mn     tau(  10) = (   0.0000000   1.5000000   0.3541496  )
        11        Mn1    tau(  11) = (   0.5000000   0.0000000   1.0031189  )
        12        Mn1    tau(  12) = (   0.5000000   1.0000000   1.0031189  )
        13        Fe     tau(  13) = (   0.5000000   0.0000000   0.3505554  )
        14        Fe     tau(  14) = (   0.5000000   1.0000000   0.3505554  )
        15        Fe1    tau(  15) = (   0.0000000   0.5000000   1.0067131  )
        16        Fe1    tau(  16) = (   0.0000000   1.5000000   1.0067131  )
        17        O      tau(  17) = (   0.5000000   0.0000000   0.0118988  )
        18        O      tau(  18) = (   0.5000000   1.0000000   0.0118988  )
        19        O      tau(  19) = (   0.0000000   0.5000000   1.3453697  )
        20        O      tau(  20) = (   0.0000000   1.5000000   1.3453697  )
        21        O      tau(  21) = (   0.2144487   0.2287493   0.9307969  )
        22        O      tau(  22) = (   0.2144487   1.2287493   0.9307969  )
        23        O      tau(  23) = (   0.7855513   0.7712507   0.9307969  )
        24        O      tau(  24) = (   0.7855513   1.7712507   0.9307969  )
        25        O      tau(  25) = (   0.2712507   0.7144487   0.9307969  )
        26        O      tau(  26) = (   0.2712507   1.7144487   0.9307969  )
        27        O      tau(  27) = (   0.7287493   0.2855513   0.9307969  )
        28        O      tau(  28) = (   0.7287493   1.2855513   0.9307969  )
        29        O      tau(  29) = (   0.2855513   0.2712507   0.4264716  )
        30        O      tau(  30) = (   0.2855513   1.2712507   0.4264716  )
        31        O      tau(  31) = (   0.7144487   0.7287493   0.4264716  )
        32        O      tau(  32) = (   0.7144487   1.7287493   0.4264716  )
        33        O      tau(  33) = (   0.2287493   0.7855513   0.4264716  )
        34        O      tau(  34) = (   0.2287493   1.7855513   0.4264716  )
        35        O      tau(  35) = (   0.7712507   0.2144487   0.4264716  )
        36        O      tau(  36) = (   0.7712507   1.2144487   0.4264716  )

   Crystallographic axes

     site n.     atom                  positions (cryst. coord.)
         1        Ba     tau(   1) = (  0.0000000  0.0000000  0.0000000  )
         2        Ba     tau(   2) = (  0.0000000  0.5000000  0.0000000  )
         3        Ba     tau(   3) = (  0.5000000  0.2500000  0.0000000  )
         4        Ba     tau(   4) = (  0.5000000  0.7500000  0.0000000  )
         5        Y      tau(   5) = (  0.0000000  0.0000000  0.5000000  )
         6        Y      tau(   6) = (  0.0000000  0.5000000  0.5000000  )
         7        Y      tau(   7) = (  0.5000000  0.2500000  0.5000000  )
         8        Y      tau(   8) = (  0.5000000  0.7500000  0.5000000  )
         9        Mn     tau(   9) = (  0.0000000  0.2500000  0.2609282  )
        10        Mn     tau(  10) = (  0.0000000  0.7500000  0.2609282  )
        11        Mn1    tau(  11) = (  0.5000000  0.0000000  0.7390718  )
        12        Mn1    tau(  12) = (  0.5000000  0.5000000  0.7390718  )
        13        Fe     tau(  13) = (  0.5000000  0.0000000  0.2582801  )
        14        Fe     tau(  14) = (  0.5000000  0.5000000  0.2582801  )
        15        Fe1    tau(  15) = (  0.0000000  0.2500000  0.7417199  )
        16        Fe1    tau(  16) = (  0.0000000  0.7500000  0.7417199  )
        17        O      tau(  17) = (  0.5000000  0.0000000  0.0087668  )
        18        O      tau(  18) = (  0.5000000  0.5000000  0.0087668  )
        19        O      tau(  19) = (  0.0000000  0.2500000  0.9912332  )
        20        O      tau(  20) = (  0.0000000  0.7500000  0.9912332  )
        21        O      tau(  21) = (  0.2144487  0.1143747  0.6857869  )
        22        O      tau(  22) = (  0.2144487  0.6143747  0.6857869  )
        23        O      tau(  23) = (  0.7855513  0.3856253  0.6857869  )
        24        O      tau(  24) = (  0.7855513  0.8856253  0.6857869  )
        25        O      tau(  25) = (  0.2712507  0.3572243  0.6857869  )
        26        O      tau(  26) = (  0.2712507  0.8572243  0.6857869  )
        27        O      tau(  27) = (  0.7287493  0.1427757  0.6857869  )
        28        O      tau(  28) = (  0.7287493  0.6427757  0.6857869  )
        29        O      tau(  29) = (  0.2855513  0.1356253  0.3142131  )
        30        O      tau(  30) = (  0.2855513  0.6356253  0.3142131  )
        31        O      tau(  31) = (  0.7144487  0.3643747  0.3142131  )
        32        O      tau(  32) = (  0.7144487  0.8643747  0.3142131  )
        33        O      tau(  33) = (  0.2287493  0.3927757  0.3142131  )
        34        O      tau(  34) = (  0.2287493  0.8927757  0.3142131  )
        35        O      tau(  35) = (  0.7712507  0.1072243  0.3142131  )
        36        O      tau(  36) = (  0.7712507  0.6072243  0.3142131  )

     number of k points=    12  Gaussian smearing, width (Ry)=  0.0050
                       cart. coord. in units 2pi/alat
        k(    1) = (   0.0000000   0.0000000   0.0000000), wk =   0.0416667
        k(    2) = (   0.0000000   0.0000000   0.2455913), wk =   0.0833333
        k(    3) = (   0.0000000  -0.2500000   0.0000000), wk =   0.0416667
        k(    4) = (   0.0000000  -0.2500000   0.2455913), wk =   0.0833333
        k(    5) = (   0.2500000   0.0000000   0.0000000), wk =   0.0833333
        k(    6) = (   0.2500000   0.0000000   0.2455913), wk =   0.1666667
        k(    7) = (   0.2500000  -0.2500000   0.0000000), wk =   0.0833333
        k(    8) = (   0.2500000  -0.2500000   0.2455913), wk =   0.1666667
        k(    9) = (  -0.5000000   0.0000000   0.0000000), wk =   0.0416667
        k(   10) = (  -0.5000000   0.0000000   0.2455913), wk =   0.0833333
        k(   11) = (  -0.5000000  -0.2500000   0.0000000), wk =   0.0416667
        k(   12) = (  -0.5000000  -0.2500000   0.2455913), wk =   0.0833333

                       cryst. coord.
        k(    1) = (   0.0000000   0.0000000   0.0000000), wk =   0.0416667
        k(    2) = (   0.0000000   0.0000000   0.3333333), wk =   0.0833333
        k(    3) = (   0.0000000  -0.5000000   0.0000000), wk =   0.0416667
        k(    4) = (   0.0000000  -0.5000000   0.3333333), wk =   0.0833333
        k(    5) = (   0.2500000   0.0000000   0.0000000), wk =   0.0833333
        k(    6) = (   0.2500000   0.0000000   0.3333333), wk =   0.1666667
        k(    7) = (   0.2500000  -0.5000000   0.0000000), wk =   0.0833333
        k(    8) = (   0.2500000  -0.5000000   0.3333333), wk =   0.1666667
        k(    9) = (  -0.5000000   0.0000000   0.0000000), wk =   0.0416667
        k(   10) = (  -0.5000000   0.0000000   0.3333333), wk =   0.0833333
        k(   11) = (  -0.5000000  -0.5000000   0.0000000), wk =   0.0416667
        k(   12) = (  -0.5000000  -0.5000000   0.3333333), wk =   0.0833333

     Dense  grid:   384367 G-vectors     FFT dimensions: (  72, 135,  90)

     Dynamical RAM for                 wfc:      72.17 MB

     Dynamical RAM for     wfc (w. buffer):     216.50 MB

     Dynamical RAM for             U proj.:      14.65 MB

     Dynamical RAM for  U proj. (w. buff.):      43.96 MB

     Dynamical RAM for           str. fact:      20.53 MB

     Dynamical RAM for           local pot:       0.00 MB

     Dynamical RAM for          nlocal pot:     200.75 MB

     Dynamical RAM for                qrad:      10.66 MB

     Dynamical RAM for          rho,v,vnew:      37.62 MB

     Dynamical RAM for               rhoin:      12.54 MB

     Dynamical RAM for            rho*nmix:      93.84 MB

     Dynamical RAM for           G-vectors:      12.46 MB

     Dynamical RAM for          h,s,v(r/c):       7.11 MB

     Dynamical RAM for          <psi|beta>:       1.65 MB

     Dynamical RAM for                 psi:     144.34 MB

     Dynamical RAM for                hpsi:     144.34 MB

     Dynamical RAM for      wfcinit/wfcrot:     145.22 MB

     Estimated static dynamical RAM per process >     598.50 MB

     Estimated max dynamical RAM per process >     989.77 MB

     Estimated total dynamical RAM >      28.18 GB
     Generating pointlists ...
     new r_m :   0.2063 (alat units)  2.2086 (a.u.) for type    1
     new r_m :   0.1660 (alat units)  1.7768 (a.u.) for type    2
     new r_m :   0.1510 (alat units)  1.6164 (a.u.) for type    3
     new r_m :   0.1510 (alat units)  1.6164 (a.u.) for type    4
     new r_m :   0.1397 (alat units)  1.4955 (a.u.) for type    5
     new r_m :   0.1397 (alat units)  1.4955 (a.u.) for type    6
     new r_m :   0.1397 (alat units)  1.4955 (a.u.) for type    7

     Initial potential from superposition of free atoms

     starting charge     327.9122, renormalised to     328.0000

     HUBBARD ENERGY =    0.4704  (Ry)

     STARTING HUBBARD OCCUPATIONS:

     =================== HUBBARD OCCUPATIONS ===================
     ------------------------ ATOM    9 ------------------------
     Tr[ns(  9)] (up, down, total) =   5.00000  0.00000  5.00000
     Atomic magnetic moment for atom   9 =   5.00000
     SPIN  1
     eigenvalues:
       1.000  1.000  1.000  1.000  1.000
     eigenvectors (columns):
       1.000  0.000  0.000  0.000  0.000
       0.000  1.000  0.000  0.000  0.000
       0.000  0.000  1.000  0.000  0.000
       0.000  0.000  0.000  1.000  0.000
       0.000  0.000  0.000  0.000  1.000
     occupation matrix ns (before diag.):
       1.000  0.000  0.000  0.000  0.000
       0.000  1.000  0.000  0.000  0.000
       0.000  0.000  1.000  0.000  0.000
       0.000  0.000  0.000  1.000  0.000
       0.000  0.000  0.000  0.000  1.000
     SPIN  2
     eigenvalues:
       0.000  0.000  0.000  0.000  0.000
     eigenvectors (columns):
       1.000  0.000  0.000  0.000  0.000
       0.000  1.000  0.000  0.000  0.000
       0.000  0.000  1.000  0.000  0.000
       0.000  0.000  0.000  1.000  0.000
       0.000  0.000  0.000  0.000  1.000
     occupation matrix ns (before diag.):
       0.000  0.000  0.000  0.000  0.000
       0.000  0.000  0.000  0.000  0.000
       0.000  0.000  0.000  0.000  0.000
       0.000  0.000  0.000  0.000  0.000
       0.000  0.000  0.000  0.000  0.000
     ------------------------ ATOM   10 ------------------------
     Tr[ns( 10)] (up, down, total) =   5.00000  0.00000  5.00000
     Atomic magnetic moment for atom  10 =   5.00000
     SPIN  1
     eigenvalues:
       1.000  1.000  1.000  1.000  1.000
     eigenvectors (columns):
       1.000  0.000  0.000  0.000  0.000
       0.000  1.000  0.000  0.000  0.000
       0.000  0.000  1.000  0.000  0.000
       0.000  0.000  0.000  1.000  0.000
       0.000  0.000  0.000  0.000  1.000
     occupation matrix ns (before diag.):
       1.000  0.000  0.000  0.000  0.000
       0.000  1.000  0.000  0.000  0.000
       0.000  0.000  1.000  0.000  0.000
       0.000  0.000  0.000  1.000  0.000
       0.000  0.000  0.000  0.000  1.000
     SPIN  2
     eigenvalues:
       0.000  0.000  0.000  0.000  0.000
     eigenvectors (columns):
       1.000  0.000  0.000  0.000  0.000
       0.000  1.000  0.000  0.000  0.000
       0.000  0.000  1.000  0.000  0.000
       0.000  0.000  0.000  1.000  0.000
       0.000  0.000  0.000  0.000  1.000
     occupation matrix ns (before diag.):
       0.000  0.000  0.000  0.000  0.000
       0.000  0.000  0.000  0.000  0.000
       0.000  0.000  0.000  0.000  0.000
       0.000  0.000  0.000  0.000  0.000
       0.000  0.000  0.000  0.000  0.000
     ------------------------ ATOM   11 ------------------------
     Tr[ns( 11)] (up, down, total) =   0.00000  5.00000  5.00000
     Atomic magnetic moment for atom  11 =  -5.00000
     SPIN  1
     eigenvalues:
       0.000  0.000  0.000  0.000  0.000
     eigenvectors (columns):
       1.000  0.000  0.000  0.000  0.000
       0.000  1.000  0.000  0.000  0.000
       0.000  0.000  1.000  0.000  0.000
       0.000  0.000  0.000  1.000  0.000
       0.000  0.000  0.000  0.000  1.000
     occupation matrix ns (before diag.):
       0.000  0.000  0.000  0.000  0.000
       0.000  0.000  0.000  0.000  0.000
       0.000  0.000  0.000  0.000  0.000
       0.000  0.000  0.000  0.000  0.000
       0.000  0.000  0.000  0.000  0.000
     SPIN  2
     eigenvalues:
       1.000  1.000  1.000  1.000  1.000
     eigenvectors (columns):
       1.000  0.000  0.000  0.000  0.000
       0.000  1.000  0.000  0.000  0.000
       0.000  0.000  1.000  0.000  0.000
       0.000  0.000  0.000  1.000  0.000
       0.000  0.000  0.000  0.000  1.000
     occupation matrix ns (before diag.):
       1.000  0.000  0.000  0.000  0.000
       0.000  1.000  0.000  0.000  0.000
       0.000  0.000  1.000  0.000  0.000
       0.000  0.000  0.000  1.000  0.000
       0.000  0.000  0.000  0.000  1.000
     ------------------------ ATOM   12 ------------------------
     Tr[ns( 12)] (up, down, total) =   0.00000  5.00000  5.00000
     Atomic magnetic moment for atom  12 =  -5.00000
     SPIN  1
     eigenvalues:
       0.000  0.000  0.000  0.000  0.000
     eigenvectors (columns):
       1.000  0.000  0.000  0.000  0.000
       0.000  1.000  0.000  0.000  0.000
       0.000  0.000  1.000  0.000  0.000
       0.000  0.000  0.000  1.000  0.000
       0.000  0.000  0.000  0.000  1.000
     occupation matrix ns (before diag.):
       0.000  0.000  0.000  0.000  0.000
       0.000  0.000  0.000  0.000  0.000
       0.000  0.000  0.000  0.000  0.000
       0.000  0.000  0.000  0.000  0.000
       0.000  0.000  0.000  0.000  0.000
     SPIN  2
     eigenvalues:
       1.000  1.000  1.000  1.000  1.000
     eigenvectors (columns):
       1.000  0.000  0.000  0.000  0.000
       0.000  1.000  0.000  0.000  0.000
       0.000  0.000  1.000  0.000  0.000
       0.000  0.000  0.000  1.000  0.000
       0.000  0.000  0.000  0.000  1.000
     occupation matrix ns (before diag.):
       1.000  0.000  0.000  0.000  0.000
       0.000  1.000  0.000  0.000  0.000
       0.000  0.000  1.000  0.000  0.000
       0.000  0.000  0.000  1.000  0.000
       0.000  0.000  0.000  0.000  1.000
     ------------------------ ATOM   13 ------------------------
     Tr[ns( 13)] (up, down, total) =   5.00000  1.00000  6.00000
     Atomic magnetic moment for atom  13 =   4.00000
     SPIN  1
     eigenvalues:
       1.000  1.000  1.000  1.000  1.000
     eigenvectors (columns):
       1.000  0.000  0.000  0.000  0.000
       0.000  1.000  0.000  0.000  0.000
       0.000  0.000  1.000  0.000  0.000
       0.000  0.000  0.000  1.000  0.000
       0.000  0.000  0.000  0.000  1.000
     occupation matrix ns (before diag.):
       1.000  0.000  0.000  0.000  0.000
       0.000  1.000  0.000  0.000  0.000
       0.000  0.000  1.000  0.000  0.000
       0.000  0.000  0.000  1.000  0.000
       0.000  0.000  0.000  0.000  1.000
     SPIN  2
     eigenvalues:
       0.200  0.200  0.200  0.200  0.200
     eigenvectors (columns):
       1.000  0.000  0.000  0.000  0.000
       0.000  1.000  0.000  0.000  0.000
       0.000  0.000  1.000  0.000  0.000
       0.000  0.000  0.000  1.000  0.000
       0.000  0.000  0.000  0.000  1.000
     occupation matrix ns (before diag.):
       0.200  0.000  0.000  0.000  0.000
       0.000  0.200  0.000  0.000  0.000
       0.000  0.000  0.200  0.000  0.000
       0.000  0.000  0.000  0.200  0.000
       0.000  0.000  0.000  0.000  0.200
     ------------------------ ATOM   14 ------------------------
     Tr[ns( 14)] (up, down, total) =   5.00000  1.00000  6.00000
     Atomic magnetic moment for atom  14 =   4.00000
     SPIN  1
     eigenvalues:
       1.000  1.000  1.000  1.000  1.000
     eigenvectors (columns):
       1.000  0.000  0.000  0.000  0.000
       0.000  1.000  0.000  0.000  0.000
       0.000  0.000  1.000  0.000  0.000
       0.000  0.000  0.000  1.000  0.000
       0.000  0.000  0.000  0.000  1.000
     occupation matrix ns (before diag.):
       1.000  0.000  0.000  0.000  0.000
       0.000  1.000  0.000  0.000  0.000
       0.000  0.000  1.000  0.000  0.000
       0.000  0.000  0.000  1.000  0.000
       0.000  0.000  0.000  0.000  1.000
     SPIN  2
     eigenvalues:
       0.200  0.200  0.200  0.200  0.200
     eigenvectors (columns):
       1.000  0.000  0.000  0.000  0.000
       0.000  1.000  0.000  0.000  0.000
       0.000  0.000  1.000  0.000  0.000
       0.000  0.000  0.000  1.000  0.000
       0.000  0.000  0.000  0.000  1.000
     occupation matrix ns (before diag.):
       0.200  0.000  0.000  0.000  0.000
       0.000  0.200  0.000  0.000  0.000
       0.000  0.000  0.200  0.000  0.000
       0.000  0.000  0.000  0.200  0.000
       0.000  0.000  0.000  0.000  0.200
     ------------------------ ATOM   15 ------------------------
     Tr[ns( 15)] (up, down, total) =   1.00000  5.00000  6.00000
     Atomic magnetic moment for atom  15 =  -4.00000
     SPIN  1
     eigenvalues:
       0.200  0.200  0.200  0.200  0.200
     eigenvectors (columns):
       1.000  0.000  0.000  0.000  0.000
       0.000  1.000  0.000  0.000  0.000
       0.000  0.000  1.000  0.000  0.000
       0.000  0.000  0.000  1.000  0.000
       0.000  0.000  0.000  0.000  1.000
     occupation matrix ns (before diag.):
       0.200  0.000  0.000  0.000  0.000
       0.000  0.200  0.000  0.000  0.000
       0.000  0.000  0.200  0.000  0.000
       0.000  0.000  0.000  0.200  0.000
       0.000  0.000  0.000  0.000  0.200
     SPIN  2
     eigenvalues:
       1.000  1.000  1.000  1.000  1.000
     eigenvectors (columns):
       1.000  0.000  0.000  0.000  0.000
       0.000  1.000  0.000  0.000  0.000
       0.000  0.000  1.000  0.000  0.000
       0.000  0.000  0.000  1.000  0.000
       0.000  0.000  0.000  0.000  1.000
     occupation matrix ns (before diag.):
       1.000  0.000  0.000  0.000  0.000
       0.000  1.000  0.000  0.000  0.000
       0.000  0.000  1.000  0.000  0.000
       0.000  0.000  0.000  1.000  0.000
       0.000  0.000  0.000  0.000  1.000
     ------------------------ ATOM   16 ------------------------
     Tr[ns( 16)] (up, down, total) =   1.00000  5.00000  6.00000
     Atomic magnetic moment for atom  16 =  -4.00000
     SPIN  1
     eigenvalues:
       0.200  0.200  0.200  0.200  0.200
     eigenvectors (columns):
       1.000  0.000  0.000  0.000  0.000
       0.000  1.000  0.000  0.000  0.000
       0.000  0.000  1.000  0.000  0.000
       0.000  0.000  0.000  1.000  0.000
       0.000  0.000  0.000  0.000  1.000
     occupation matrix ns (before diag.):
       0.200  0.000  0.000  0.000  0.000
       0.000  0.200  0.000  0.000  0.000
       0.000  0.000  0.200  0.000  0.000
       0.000  0.000  0.000  0.200  0.000
       0.000  0.000  0.000  0.000  0.200
     SPIN  2
     eigenvalues:
       1.000  1.000  1.000  1.000  1.000
     eigenvectors (columns):
       1.000  0.000  0.000  0.000  0.000
       0.000  1.000  0.000  0.000  0.000
       0.000  0.000  1.000  0.000  0.000
       0.000  0.000  0.000  1.000  0.000
       0.000  0.000  0.000  0.000  1.000
     occupation matrix ns (before diag.):
       1.000  0.000  0.000  0.000  0.000
       0.000  1.000  0.000  0.000  0.000
       0.000  0.000  1.000  0.000  0.000
       0.000  0.000  0.000  1.000  0.000
       0.000  0.000  0.000  0.000  1.000

     Number of occupied Hubbard levels =   44.0000

     Atomic wfc used for Hubbard projectors are orthogonalized

     Starting wfcs are  220 randomized atomic wfcs

     total cpu time spent up to now is       23.9 secs

     per-process dynamical memory:   625.9 Mb

     Self-consistent Calculation

     iteration #  1     ecut=    90.00 Ry     beta= 0.30
     Davidson diagonalization with overlap

---- Real-time Memory Report at c_bands before calling an iterative solver
           895 MiB given to the printing process from OS
           611 MiB allocation reported by mallinfo(arena+hblkhd)
        670055 MiB available memory on the node where the printing process lives
------------------
     ethr =  1.00E-02,  avg # of iterations =  3.8

     =================== HUBBARD OCCUPATIONS ===================
     ------------------------ ATOM    9 ------------------------
     Tr[ns(  9)] (up, down, total) =   4.96136  0.20241  5.16376
     Atomic magnetic moment for atom   9 =   4.75895
     SPIN  1
     eigenvalues:
       0.980  0.995  0.995  0.995  0.997
     eigenvectors (columns):
      -1.000 -0.000  0.001  0.000  0.000
      -0.000 -0.928 -0.373 -0.015 -0.000
      -0.001  0.373 -0.928  0.005 -0.001
       0.000 -0.000 -0.001  0.045  0.999
       0.000 -0.015 -0.001  0.999 -0.045
     occupation matrix ns (before diag.):
       0.980 -0.000 -0.000  0.000  0.000
      -0.000  0.995  0.000 -0.000 -0.000
      -0.000  0.000  0.995 -0.000  0.000
       0.000 -0.000 -0.000  0.997 -0.000
       0.000 -0.000  0.000 -0.000  0.995
     SPIN  2
     eigenvalues:
       0.024  0.026  0.026  0.052  0.075
     eigenvectors (columns):
      -0.000  0.000 -0.000  1.000 -0.000
       0.000  0.997 -0.073 -0.000 -0.000
      -0.001  0.073  0.997  0.000  0.000
      -0.979  0.000 -0.001 -0.000 -0.203
      -0.203  0.000 -0.000  0.000  0.979
     occupation matrix ns (before diag.):
       0.052 -0.000  0.000 -0.000 -0.000
      -0.000  0.026 -0.000  0.000 -0.000
       0.000 -0.000  0.026 -0.000  0.000
      -0.000  0.000 -0.000  0.026 -0.010
      -0.000 -0.000  0.000 -0.010  0.073
     ------------------------ ATOM   10 ------------------------
     Tr[ns( 10)] (up, down, total) =   4.96136  0.20241  5.16376
     Atomic magnetic moment for atom  10 =   4.75895
     SPIN  1
     eigenvalues:
       0.980  0.995  0.995  0.995  0.997
     eigenvectors (columns):
      -1.000  0.000  0.001 -0.000  0.000
       0.000 -0.928  0.373 -0.015  0.000
       0.001  0.373  0.928  0.005  0.001
       0.000  0.000 -0.001 -0.045  0.999
       0.000  0.015 -0.001 -0.999 -0.045
     occupation matrix ns (before diag.):
       0.980  0.000  0.000  0.000  0.000
       0.000  0.995  0.000  0.000  0.000
       0.000  0.000  0.995  0.000 -0.000
       0.000  0.000  0.000  0.997 -0.000
       0.000  0.000 -0.000 -0.000  0.995
     SPIN  2
     eigenvalues:
       0.024  0.026  0.026  0.052  0.075
     eigenvectors (columns):
       0.000  0.000  0.000  1.000 -0.000
       0.000 -0.997 -0.073  0.000  0.000
      -0.001 -0.073  0.997 -0.000 -0.000
       0.979  0.000  0.001 -0.000 -0.203
       0.203  0.000  0.000  0.000  0.979
     occupation matrix ns (before diag.):
       0.052  0.000 -0.000 -0.000 -0.000
       0.000  0.026 -0.000 -0.000  0.000
      -0.000 -0.000  0.026  0.000 -0.000
      -0.000 -0.000  0.000  0.026 -0.010
      -0.000  0.000 -0.000 -0.010  0.073
     ------------------------ ATOM   11 ------------------------
     Tr[ns( 11)] (up, down, total) =   0.20239  4.96138  5.16376
     Atomic magnetic moment for atom  11 =  -4.75899
     SPIN  1
     eigenvalues:
       0.024  0.026  0.026  0.052  0.075
     eigenvectors (columns):
       0.000 -0.000 -0.000 -1.000 -0.000
      -0.000  0.450 -0.893  0.000  0.000
      -0.000 -0.893 -0.450  0.000  0.000
       0.979 -0.000 -0.000  0.000 -0.203
       0.203 -0.000 -0.000 -0.000  0.979
     occupation matrix ns (before diag.):
       0.052 -0.000 -0.000 -0.000 -0.000
      -0.000  0.026  0.000  0.000  0.000
      -0.000  0.000  0.026  0.000  0.000
      -0.000  0.000  0.000  0.026 -0.010
      -0.000  0.000  0.000 -0.010  0.073
     SPIN  2
     eigenvalues:
       0.980  0.995  0.995  0.995  0.997
     eigenvectors (columns):
       1.000  0.000  0.000  0.000 -0.000
       0.000 -0.937 -0.350 -0.000 -0.000
       0.000  0.350 -0.937 -0.000 -0.000
      -0.000  0.000  0.000 -0.048 -0.999
       0.000  0.000  0.000 -0.999  0.048
     occupation matrix ns (before diag.):
       0.980 -0.000 -0.000  0.000 -0.000
      -0.000  0.995  0.000  0.000  0.000
      -0.000  0.000  0.995  0.000  0.000
       0.000  0.000  0.000  0.997 -0.000
      -0.000  0.000  0.000 -0.000  0.995
     ------------------------ ATOM   12 ------------------------
     Tr[ns( 12)] (up, down, total) =   0.20240  4.96132  5.16372
     Atomic magnetic moment for atom  12 =  -4.75892
     SPIN  1
     eigenvalues:
       0.024  0.026  0.026  0.052  0.075
     eigenvectors (columns):
      -0.000  0.000 -0.000 -1.000 -0.000
      -0.000  0.999 -0.035  0.000  0.000
      -0.000 -0.035 -0.999  0.000  0.000
       0.979  0.000 -0.000 -0.000 -0.203
       0.203  0.000 -0.000 -0.000  0.979
     occupation matrix ns (before diag.):
       0.052 -0.000 -0.000  0.000 -0.000
      -0.000  0.026  0.000  0.000  0.000
      -0.000  0.000  0.026  0.000  0.000
       0.000  0.000  0.000  0.026 -0.010
      -0.000  0.000  0.000 -0.010  0.073
     SPIN  2
     eigenvalues:
       0.980  0.995  0.995  0.995  0.997
     eigenvectors (columns):
       1.000  0.000  0.000  0.000  0.000
       0.000 -0.729  0.685  0.000 -0.000
       0.000 -0.685 -0.729  0.000 -0.000
       0.000  0.000  0.000  0.048 -0.999
      -0.001  0.000  0.000  0.999  0.048
     occupation matrix ns (before diag.):
       0.980 -0.000 -0.000 -0.000  0.000
      -0.000  0.995 -0.000  0.000  0.000
      -0.000 -0.000  0.995  0.000  0.000
      -0.000  0.000  0.000  0.997 -0.000
       0.000  0.000  0.000 -0.000  0.995
     ------------------------ ATOM   13 ------------------------
     Tr[ns( 13)] (up, down, total) =   4.96857  0.33356  5.30214
     Atomic magnetic moment for atom  13 =   4.63501
     SPIN  1
     eigenvalues:
       0.984  0.994  0.996  0.996  0.998
     eigenvectors (columns):
       1.000 -0.000 -0.000  0.000  0.000
       0.000 -0.000  0.969 -0.246 -0.000
       0.000 -0.000 -0.246 -0.969 -0.000
       0.000  0.165 -0.000  0.000 -0.986
       0.000  0.986  0.000 -0.000  0.165
     occupation matrix ns (before diag.):
       0.984 -0.000 -0.000 -0.000 -0.000
      -0.000  0.996  0.000  0.000  0.000
      -0.000  0.000  0.996  0.000  0.000
      -0.000  0.000  0.000  0.998 -0.001
      -0.000  0.000  0.000 -0.001  0.994
     SPIN  2
     eigenvalues:
       0.038  0.047  0.047  0.087  0.114
     eigenvectors (columns):
      -0.000 -0.000 -0.000  1.000 -0.000
      -0.000 -0.989  0.146 -0.000  0.000
      -0.000 -0.146 -0.989 -0.000  0.000
       0.976 -0.000 -0.000  0.000  0.220
      -0.220  0.000  0.000  0.000  0.976
     occupation matrix ns (before diag.):
       0.087 -0.000 -0.000  0.000 -0.000
      -0.000  0.047 -0.000  0.000  0.000
      -0.000 -0.000  0.047  0.000  0.000
       0.000  0.000  0.000  0.042  0.016
      -0.000  0.000  0.000  0.016  0.110
     ------------------------ ATOM   14 ------------------------
     Tr[ns( 14)] (up, down, total) =   4.96857  0.33357  5.30214
     Atomic magnetic moment for atom  14 =   4.63501
     SPIN  1
     eigenvalues:
       0.984  0.994  0.996  0.996  0.998
     eigenvectors (columns):
      -1.000  0.000  0.000  0.000  0.000
      -0.000 -0.000 -0.992 -0.129 -0.000
      -0.000 -0.000  0.129 -0.992 -0.000
      -0.000  0.166  0.000  0.000 -0.986
       0.000  0.986 -0.000 -0.000  0.166
     occupation matrix ns (before diag.):
       0.984 -0.000 -0.000 -0.000  0.000
      -0.000  0.996  0.000  0.000  0.000
      -0.000  0.000  0.996  0.000  0.000
      -0.000  0.000  0.000  0.998 -0.001
       0.000  0.000  0.000 -0.001  0.994
     SPIN  2
     eigenvalues:
       0.038  0.047  0.047  0.087  0.114
     eigenvectors (columns):
       0.000  0.000 -0.000  1.000 -0.000
      -0.000 -0.944 -0.330 -0.000  0.000
      -0.000  0.330 -0.944 -0.000  0.000
       0.976 -0.000 -0.000 -0.000  0.220
      -0.220 -0.000  0.000  0.000  0.976
     occupation matrix ns (before diag.):
       0.087 -0.000 -0.000 -0.000 -0.000
      -0.000  0.047  0.000  0.000  0.000
      -0.000  0.000  0.047  0.000  0.000
      -0.000  0.000  0.000  0.042  0.016
      -0.000  0.000  0.000  0.016  0.110
     ------------------------ ATOM   15 ------------------------
     Tr[ns( 15)] (up, down, total) =   0.33356  4.96859  5.30215
     Atomic magnetic moment for atom  15 =  -4.63503
     SPIN  1
     eigenvalues:
       0.038  0.047  0.047  0.087  0.114
     eigenvectors (columns):
      -0.000 -0.000  0.000 -1.000 -0.000
       0.000 -0.898 -0.439  0.000  0.000
       0.000  0.439 -0.898 -0.000  0.000
       0.976 -0.000  0.000 -0.000  0.220
      -0.220  0.000 -0.000 -0.000  0.976
     occupation matrix ns (before diag.):
       0.087 -0.000  0.000  0.000 -0.000
      -0.000  0.047  0.000 -0.000  0.000
       0.000  0.000  0.047 -0.000  0.000
       0.000 -0.000 -0.000  0.042  0.016
      -0.000  0.000  0.000  0.016  0.110
     SPIN  2
     eigenvalues:
       0.984  0.994  0.996  0.996  0.998
     eigenvectors (columns):
       1.000  0.000 -0.000 -0.000 -0.000
       0.000  0.000  1.000  0.025  0.000
      -0.000  0.003  0.025 -1.000  0.000
      -0.000  0.166  0.000  0.000 -0.986
      -0.000  0.986 -0.000  0.003  0.166
     occupation matrix ns (before diag.):
       0.984 -0.000  0.000  0.000  0.000
      -0.000  0.996 -0.000 -0.000 -0.000
       0.000 -0.000  0.996 -0.000 -0.000
       0.000 -0.000 -0.000  0.998 -0.001
       0.000 -0.000 -0.000 -0.001  0.994
     ------------------------ ATOM   16 ------------------------
     Tr[ns( 16)] (up, down, total) =   0.33356  4.96859  5.30215
     Atomic magnetic moment for atom  16 =  -4.63503
     SPIN  1
     eigenvalues:
       0.038  0.047  0.047  0.087  0.114
     eigenvectors (columns):
      -0.000  0.000  0.000  1.000 -0.000
      -0.000 -0.898  0.439  0.000 -0.000
      -0.000  0.439  0.898 -0.000 -0.000
       0.976  0.000  0.000  0.000  0.220
      -0.220 -0.000 -0.000  0.000  0.976
     occupation matrix ns (before diag.):
       0.087  0.000 -0.000  0.000 -0.000
       0.000  0.047  0.000  0.000 -0.000
      -0.000  0.000  0.047  0.000 -0.000
       0.000  0.000  0.000  0.042  0.016
      -0.000 -0.000 -0.000  0.016  0.110
     SPIN  2
     eigenvalues:
       0.984  0.994  0.996  0.996  0.998
     eigenvectors (columns):
       1.000  0.000  0.000  0.000 -0.000
      -0.000 -0.000  1.000  0.025 -0.000
       0.000 -0.003  0.025 -1.000 -0.000
      -0.000  0.166 -0.000 -0.000 -0.986
      -0.000  0.986  0.000 -0.003  0.166
     occupation matrix ns (before diag.):
       0.984  0.000 -0.000  0.000  0.000
       0.000  0.996 -0.000  0.000  0.000
      -0.000 -0.000  0.996  0.000  0.000
       0.000  0.000  0.000  0.998 -0.001
       0.000  0.000  0.000 -0.001  0.994

     Number of occupied Hubbard levels =   41.8636

     HUBBARD ENERGY =    0.3343  (Ry)

     total cpu time spent up to now is       77.8 secs

     total energy              =   -3089.22624430 Ry
     estimated scf accuracy    <      11.73859831 Ry

     total magnetization       =     0.00 Bohr mag/cell
     absolute magnetization    =    39.29 Bohr mag/cell

     iteration #  2     ecut=    90.00 Ry     beta= 0.30
     Davidson diagonalization with overlap

---- Real-time Memory Report at c_bands before calling an iterative solver
          1117 MiB given to the printing process from OS
           740 MiB allocation reported by mallinfo(arena+hblkhd)
        667758 MiB available memory on the node where the printing process lives
------------------
     ethr =  3.58E-03,  avg # of iterations =  1.0

     =================== HUBBARD OCCUPATIONS ===================
     ------------------------ ATOM    9 ------------------------
     Tr[ns(  9)] (up, down, total) =   4.95577  0.25208  5.20785
     Atomic magnetic moment for atom   9 =   4.70369
     SPIN  1
     eigenvalues:
       0.976  0.994  0.995  0.995  0.997
     eigenvectors (columns):
       1.000  0.000 -0.000 -0.000 -0.000
       0.000  0.005  0.995  0.102  0.000
       0.000 -0.002 -0.102  0.995  0.000
      -0.000 -0.064  0.001  0.000 -0.998
      -0.000  0.998 -0.006  0.002 -0.064
     occupation matrix ns (before diag.):
       0.976 -0.000 -0.000  0.000  0.000
      -0.000  0.995  0.000 -0.000 -0.000
      -0.000  0.000  0.995 -0.000  0.000
       0.000 -0.000 -0.000  0.997  0.000
       0.000 -0.000  0.000  0.000  0.994
     SPIN  2
     eigenvalues:
       0.031  0.033  0.033  0.064  0.091
     eigenvectors (columns):
       0.000 -0.000  0.000 -1.000 -0.000
       0.002 -0.421 -0.907  0.000 -0.000
       0.002 -0.907  0.421  0.000  0.000
       0.981  0.003  0.001  0.000 -0.196
       0.196  0.001  0.000 -0.000  0.981
     occupation matrix ns (before diag.):
       0.064 -0.000 -0.000  0.000 -0.000
      -0.000  0.033 -0.000 -0.000 -0.000
      -0.000 -0.000  0.033 -0.000  0.000
       0.000 -0.000 -0.000  0.034 -0.011
      -0.000 -0.000  0.000 -0.011  0.089
     ------------------------ ATOM   10 ------------------------
     Tr[ns( 10)] (up, down, total) =   4.95577  0.25208  5.20785
     Atomic magnetic moment for atom  10 =   4.70369
     SPIN  1
     eigenvalues:
       0.976  0.994  0.995  0.995  0.997
     eigenvectors (columns):
       1.000  0.000  0.000  0.000 -0.000
      -0.000 -0.005  0.995  0.102 -0.000
      -0.000  0.002 -0.102  0.995 -0.000
      -0.000 -0.064 -0.001 -0.000 -0.998
      -0.000  0.998  0.006 -0.002 -0.064
     occupation matrix ns (before diag.):
       0.976  0.000  0.000  0.000  0.000
       0.000  0.995  0.000  0.000  0.000
       0.000  0.000  0.995  0.000 -0.000
       0.000  0.000  0.000  0.997  0.000
       0.000  0.000 -0.000  0.000  0.994
     SPIN  2
     eigenvalues:
       0.031  0.033  0.033  0.064  0.091
     eigenvectors (columns):
      -0.000  0.000  0.000 -1.000 -0.000
       0.002 -0.421  0.907 -0.000  0.000
       0.002 -0.907 -0.421 -0.000 -0.000
      -0.981 -0.003  0.001  0.000 -0.196
      -0.196 -0.001  0.000 -0.000  0.981
     occupation matrix ns (before diag.):
       0.064  0.000  0.000  0.000 -0.000
       0.000  0.033 -0.000  0.000  0.000
       0.000 -0.000  0.033  0.000 -0.000
       0.000  0.000  0.000  0.034 -0.011
      -0.000  0.000 -0.000 -0.011  0.089
     ------------------------ ATOM   11 ------------------------
     Tr[ns( 11)] (up, down, total) =   0.25204  4.95577  5.20782
     Atomic magnetic moment for atom  11 =  -4.70373
     SPIN  1
     eigenvalues:
       0.031  0.033  0.033  0.064  0.091
     eigenvectors (columns):
       0.000 -0.000 -0.000 -1.000 -0.000
      -0.000 -0.569  0.822  0.000  0.000
      -0.000 -0.822 -0.569  0.000  0.000
       0.981 -0.000 -0.000  0.000 -0.196
       0.196 -0.000 -0.000 -0.000  0.981
     occupation matrix ns (before diag.):
       0.064 -0.000 -0.000  0.000 -0.000
      -0.000  0.033 -0.000  0.000  0.000
      -0.000 -0.000  0.033  0.000  0.000
       0.000  0.000  0.000  0.034 -0.011
      -0.000  0.000  0.000 -0.011  0.089
     SPIN  2
     eigenvalues:
       0.976  0.994  0.995  0.995  0.997
     eigenvectors (columns):
      -1.000  0.000  0.000  0.000 -0.000
      -0.000 -0.000 -0.881 -0.473 -0.000
      -0.000 -0.000  0.473 -0.881 -0.000
       0.000 -0.063 -0.000  0.000 -0.998
       0.000  0.998  0.000 -0.000 -0.063
     occupation matrix ns (before diag.):
       0.976 -0.000 -0.000  0.000  0.000
      -0.000  0.995  0.000  0.000  0.000
      -0.000  0.000  0.995  0.000  0.000
       0.000  0.000  0.000  0.997  0.000
       0.000  0.000  0.000  0.000  0.994
     ------------------------ ATOM   12 ------------------------
     Tr[ns( 12)] (up, down, total) =   0.25207  4.95576  5.20784
     Atomic magnetic moment for atom  12 =  -4.70369
     SPIN  1
     eigenvalues:
       0.031  0.033  0.033  0.064  0.091
     eigenvectors (columns):
      -0.000 -0.000 -0.000 -1.000 -0.000
      -0.000 -0.455  0.891  0.000  0.000
      -0.000 -0.891 -0.455  0.000  0.000
       0.981 -0.000 -0.000 -0.000 -0.196
       0.196 -0.000  0.000 -0.000  0.981
     occupation matrix ns (before diag.):
       0.064 -0.000 -0.000  0.000 -0.000
      -0.000  0.033 -0.000  0.000  0.000
      -0.000 -0.000  0.033  0.000  0.000
       0.000  0.000  0.000  0.034 -0.011
      -0.000  0.000  0.000 -0.011  0.089
     SPIN  2
     eigenvalues:
       0.976  0.994  0.995  0.995  0.997
     eigenvectors (columns):
      -1.000  0.000 -0.000 -0.000  0.000
      -0.000 -0.000  0.764 -0.645 -0.000
      -0.000 -0.000  0.645  0.764 -0.000
      -0.000 -0.062 -0.000 -0.000 -0.998
       0.000  0.998  0.000  0.000 -0.062
     occupation matrix ns (before diag.):
       0.976 -0.000 -0.000 -0.000  0.000
      -0.000  0.995 -0.000  0.000  0.000
      -0.000 -0.000  0.995  0.000  0.000
      -0.000  0.000  0.000  0.997  0.000
       0.000  0.000  0.000  0.000  0.994
     ------------------------ ATOM   13 ------------------------
     Tr[ns( 13)] (up, down, total) =   4.97124  0.42459  5.39583
     Atomic magnetic moment for atom  13 =   4.54665
     SPIN  1
     eigenvalues:
       0.986  0.994  0.997  0.997  0.998
     eigenvectors (columns):
      -1.000  0.000  0.000  0.000  0.000
      -0.000 -0.000 -0.996 -0.094 -0.000
      -0.000 -0.000  0.094 -0.996 -0.000
      -0.000  0.185  0.000  0.000 -0.983
       0.000  0.983 -0.000 -0.000  0.185
     occupation matrix ns (before diag.):
       0.986 -0.000 -0.000 -0.000  0.000
      -0.000  0.997  0.000  0.000  0.000
      -0.000  0.000  0.997  0.000  0.000
      -0.000  0.000  0.000  0.998 -0.001
       0.000  0.000  0.000 -0.001  0.994
     SPIN  2
     eigenvalues:
       0.048  0.061  0.061  0.111  0.143
     eigenvectors (columns):
      -0.000 -0.000 -0.000  1.000 -0.000
      -0.000 -0.994  0.111 -0.000  0.000
      -0.000 -0.111 -0.994 -0.000  0.000
       0.976 -0.000 -0.000  0.000  0.216
      -0.216  0.000  0.000  0.000  0.976
     occupation matrix ns (before diag.):
       0.111 -0.000 -0.000 -0.000 -0.000
      -0.000  0.061 -0.000  0.000  0.000
      -0.000 -0.000  0.061  0.000  0.000
      -0.000  0.000  0.000  0.053  0.020
      -0.000  0.000  0.000  0.020  0.139
     ------------------------ ATOM   14 ------------------------
     Tr[ns( 14)] (up, down, total) =   4.97124  0.42456  5.39580
     Atomic magnetic moment for atom  14 =   4.54668
     SPIN  1
     eigenvalues:
       0.986  0.994  0.997  0.997  0.998
     eigenvectors (columns):
       1.000 -0.000 -0.000  0.000  0.000
       0.000 -0.000  0.998 -0.063 -0.000
       0.000 -0.000 -0.063 -0.998 -0.000
       0.000  0.184 -0.000  0.000 -0.983
       0.000  0.983  0.000 -0.000  0.184
     occupation matrix ns (before diag.):
       0.986 -0.000 -0.000 -0.000 -0.000
      -0.000  0.997  0.000  0.000  0.000
      -0.000  0.000  0.997  0.000  0.000
      -0.000  0.000  0.000  0.998 -0.001
      -0.000  0.000  0.000 -0.001  0.994
     SPIN  2
     eigenvalues:
       0.048  0.061  0.061  0.111  0.143
     eigenvectors (columns):
       0.000 -0.000  0.000 -1.000  0.000
      -0.000 -0.175  0.985  0.000  0.000
      -0.000 -0.985 -0.175  0.000  0.000
       0.976 -0.000  0.000  0.000  0.216
      -0.216  0.000 -0.000  0.000  0.976
     occupation matrix ns (before diag.):
       0.111 -0.000 -0.000 -0.000  0.000
      -0.000  0.061 -0.000  0.000  0.000
      -0.000 -0.000  0.061  0.000  0.000
      -0.000  0.000  0.000  0.053  0.020
       0.000  0.000  0.000  0.020  0.138
     ------------------------ ATOM   15 ------------------------
     Tr[ns( 15)] (up, down, total) =   0.42455  4.97125  5.39581
     Atomic magnetic moment for atom  15 =  -4.54670
     SPIN  1
     eigenvalues:
       0.048  0.061  0.061  0.111  0.143
     eigenvectors (columns):
      -0.000  0.000 -0.000 -1.000 -0.000
       0.000 -0.947 -0.320 -0.000  0.000
       0.000 -0.320  0.947 -0.000  0.000
       0.976  0.000 -0.000 -0.000  0.216
      -0.216  0.000  0.000 -0.000  0.976
     occupation matrix ns (before diag.):
       0.111  0.000  0.000  0.000 -0.000
       0.000  0.061 -0.000  0.000  0.000
       0.000 -0.000  0.061 -0.000  0.000
       0.000  0.000 -0.000  0.053  0.020
      -0.000  0.000  0.000  0.020  0.138
     SPIN  2
     eigenvalues:
       0.986  0.994  0.997  0.997  0.998
     eigenvectors (columns):
       1.000 -0.000 -0.000  0.000 -0.000
       0.000 -0.000  1.000  0.002  0.001
       0.000  0.000  0.002 -1.000 -0.000
      -0.000  0.185  0.001  0.000 -0.983
       0.000  0.983  0.000  0.000  0.185
     occupation matrix ns (before diag.):
       0.986 -0.000 -0.000  0.000 -0.000
      -0.000  0.997 -0.000 -0.000  0.000
      -0.000 -0.000  0.997  0.000 -0.000
       0.000 -0.000  0.000  0.998 -0.001
      -0.000  0.000 -0.000 -0.001  0.994
     ------------------------ ATOM   16 ------------------------
     Tr[ns( 16)] (up, down, total) =   0.42455  4.97125  5.39581
     Atomic magnetic moment for atom  16 =  -4.54670
     SPIN  1
     eigenvalues:
       0.048  0.061  0.061  0.111  0.143
     eigenvectors (columns):
      -0.000  0.000  0.000  1.000 -0.000
      -0.000  0.947 -0.320 -0.000 -0.000
      -0.000  0.320  0.947 -0.000 -0.000
       0.976  0.000  0.000  0.000  0.216
      -0.216  0.000 -0.000  0.000  0.976
     occupation matrix ns (before diag.):
       0.111 -0.000 -0.000  0.000 -0.000
      -0.000  0.061 -0.000 -0.000 -0.000
      -0.000 -0.000  0.061  0.000 -0.000
       0.000 -0.000  0.000  0.053  0.020
      -0.000 -0.000 -0.000  0.020  0.138
     SPIN  2
     eigenvalues:
       0.986  0.994  0.997  0.997  0.998
     eigenvectors (columns):
       1.000 -0.000  0.000 -0.000 -0.000
      -0.000  0.000  1.000  0.002 -0.001
      -0.000 -0.000  0.002 -1.000  0.000
      -0.000  0.185 -0.001 -0.000 -0.983
       0.000  0.983 -0.000 -0.000  0.185
     occupation matrix ns (before diag.):
       0.986  0.000  0.000  0.000 -0.000
       0.000  0.997 -0.000  0.000 -0.000
       0.000 -0.000  0.997 -0.000  0.000
       0.000  0.000 -0.000  0.998 -0.001
      -0.000 -0.000  0.000 -0.001  0.994

     Number of occupied Hubbard levels =   42.4146

     HUBBARD ENERGY =    0.3891  (Ry)

     total cpu time spent up to now is      121.0 secs

     total energy              =   -3087.87298116 Ry
     estimated scf accuracy    <       4.77225003 Ry

     total magnetization       =     0.00 Bohr mag/cell
     absolute magnetization    =    39.17 Bohr mag/cell

     iteration #  3     ecut=    90.00 Ry     beta= 0.30
     Davidson diagonalization with overlap

---- Real-time Memory Report at c_bands before calling an iterative solver
          1234 MiB given to the printing process from OS
           752 MiB allocation reported by mallinfo(arena+hblkhd)
        667145 MiB available memory on the node where the printing process lives
------------------
     ethr =  1.45E-03,  avg # of iterations =  2.8

     =================== HUBBARD OCCUPATIONS ===================
     ------------------------ ATOM    9 ------------------------
     Tr[ns(  9)] (up, down, total) =   4.94255  0.32604  5.26859
     Atomic magnetic moment for atom   9 =   4.61651
     SPIN  1
     eigenvalues:
       0.967  0.991  0.994  0.994  0.997
     eigenvectors (columns):
       1.000 -0.000 -0.000 -0.000  0.000
       0.000  0.001  0.999  0.050  0.000
       0.000 -0.001 -0.050  0.999  0.000
       0.000 -0.137  0.001  0.000 -0.991
       0.000  0.991 -0.001  0.001 -0.137
     occupation matrix ns (before diag.):
       0.967 -0.000 -0.000 -0.000 -0.000
      -0.000  0.994  0.000 -0.000 -0.000
      -0.000  0.000  0.994 -0.000  0.000
      -0.000 -0.000 -0.000  0.997  0.001
      -0.000 -0.000  0.000  0.001  0.991
     SPIN  2
     eigenvalues:
       0.043  0.045  0.045  0.082  0.110
     eigenvectors (columns):
      -0.000 -0.000 -0.000 -1.000 -0.000
       0.001 -0.941  0.337  0.000  0.000
       0.002 -0.337 -0.941  0.000  0.000
       0.985  0.001  0.001 -0.000 -0.174
       0.174  0.000  0.000 -0.000  0.985
     occupation matrix ns (before diag.):
       0.082 -0.000 -0.000  0.000 -0.000
      -0.000  0.045 -0.000 -0.000  0.000
      -0.000 -0.000  0.045 -0.000  0.000
       0.000 -0.000 -0.000  0.045 -0.011
      -0.000  0.000  0.000 -0.011  0.108
     ------------------------ ATOM   10 ------------------------
     Tr[ns( 10)] (up, down, total) =   4.94255  0.32604  5.26859
     Atomic magnetic moment for atom  10 =   4.61651
     SPIN  1
     eigenvalues:
       0.967  0.991  0.994  0.994  0.997
     eigenvectors (columns):
       1.000 -0.000  0.000  0.000  0.000
      -0.000 -0.001  0.999  0.050 -0.000
      -0.000  0.001 -0.050  0.999 -0.000
       0.000 -0.137 -0.001 -0.000 -0.991
       0.000  0.991  0.001 -0.001 -0.137
     occupation matrix ns (before diag.):
       0.967  0.000  0.000 -0.000 -0.000
       0.000  0.994  0.000  0.000  0.000
       0.000  0.000  0.994  0.000 -0.000
      -0.000  0.000  0.000  0.997  0.001
      -0.000  0.000 -0.000  0.001  0.991
     SPIN  2
     eigenvalues:
       0.043  0.045  0.045  0.082  0.110
     eigenvectors (columns):
       0.000 -0.000  0.000 -1.000 -0.000
       0.001  0.941  0.337 -0.000 -0.000
       0.002  0.337 -0.941 -0.000 -0.000
      -0.985  0.001 -0.001 -0.000 -0.174
      -0.174  0.000 -0.000 -0.000  0.985
     occupation matrix ns (before diag.):
       0.082  0.000  0.000  0.000 -0.000
       0.000  0.045 -0.000  0.000 -0.000
       0.000 -0.000  0.045  0.000 -0.000
       0.000  0.000  0.000  0.045 -0.011
      -0.000 -0.000 -0.000 -0.011  0.108
     ------------------------ ATOM   11 ------------------------
     Tr[ns( 11)] (up, down, total) =   0.32609  4.94255  5.26863
     Atomic magnetic moment for atom  11 =  -4.61646
     SPIN  1
     eigenvalues:
       0.043  0.045  0.045  0.082  0.110
     eigenvectors (columns):
      -0.000 -0.000 -0.000 -1.000 -0.000
      -0.000 -0.958  0.285  0.000  0.000
      -0.000 -0.285 -0.958  0.000  0.000
       0.985 -0.000 -0.000 -0.000 -0.174
       0.174 -0.000 -0.000 -0.000  0.985
     occupation matrix ns (before diag.):
       0.082 -0.000 -0.000  0.000 -0.000
      -0.000  0.045 -0.000  0.000  0.000
      -0.000 -0.000  0.045  0.000  0.000
       0.000  0.000  0.000  0.045 -0.011
      -0.000  0.000  0.000 -0.011  0.108
     SPIN  2
     eigenvalues:
       0.967  0.991  0.994  0.994  0.997
     eigenvectors (columns):
      -1.000  0.000  0.000  0.000 -0.000
      -0.000 -0.000 -0.959 -0.282 -0.000
      -0.000 -0.000  0.282 -0.959 -0.000
       0.000 -0.137  0.000  0.000 -0.991
       0.000  0.991 -0.000 -0.000 -0.137
     occupation matrix ns (before diag.):
       0.967 -0.000 -0.000  0.000  0.000
      -0.000  0.994  0.000  0.000  0.000
      -0.000  0.000  0.994  0.000  0.000
       0.000  0.000  0.000  0.997  0.001
       0.000  0.000  0.000  0.001  0.991
     ------------------------ ATOM   12 ------------------------
     Tr[ns( 12)] (up, down, total) =   0.32611  4.94253  5.26864
     Atomic magnetic moment for atom  12 =  -4.61642
     SPIN  1
     eigenvalues:
       0.043  0.045  0.045  0.082  0.110
     eigenvectors (columns):
      -0.000  0.000 -0.000 -1.000 -0.000
      -0.000  0.992  0.123  0.000  0.000
      -0.000  0.123 -0.992  0.000  0.000
       0.985  0.000 -0.000 -0.000 -0.174
       0.174  0.000 -0.000 -0.000  0.985
     occupation matrix ns (before diag.):
       0.082 -0.000 -0.000  0.000 -0.000
      -0.000  0.045 -0.000  0.000  0.000
      -0.000 -0.000  0.045  0.000  0.000
       0.000  0.000  0.000  0.045 -0.011
      -0.000  0.000  0.000 -0.011  0.108
     SPIN  2
     eigenvalues:
       0.967  0.991  0.994  0.994  0.997
     eigenvectors (columns):
      -1.000  0.000  0.000  0.000 -0.000
      -0.000 -0.000 -0.958  0.287 -0.000
      -0.000 -0.000 -0.287 -0.958 -0.000
       0.000 -0.137  0.000  0.000 -0.991
       0.000  0.991 -0.000 -0.000 -0.137
     occupation matrix ns (before diag.):
       0.967 -0.000 -0.000  0.000  0.000
      -0.000  0.994 -0.000  0.000  0.000
      -0.000 -0.000  0.994  0.000  0.000
       0.000  0.000  0.000  0.997  0.001
       0.000  0.000  0.000  0.001  0.991
     ------------------------ ATOM   13 ------------------------
     Tr[ns( 13)] (up, down, total) =   4.97342  0.84603  5.81946
     Atomic magnetic moment for atom  13 =   4.12739
     SPIN  1
     eigenvalues:
       0.989  0.993  0.997  0.997  0.998
     eigenvectors (columns):
      -1.000 -0.000 -0.000 -0.000  0.000
      -0.000 -0.000  0.487 -0.874 -0.000
      -0.000 -0.000  0.874  0.487 -0.000
      -0.000  0.189 -0.000  0.000 -0.982
       0.000  0.982  0.000  0.000  0.189
     occupation matrix ns (before diag.):
       0.989 -0.000 -0.000 -0.000  0.000
      -0.000  0.997 -0.000  0.000  0.000
      -0.000 -0.000  0.997  0.000  0.000
      -0.000  0.000  0.000  0.998 -0.001
       0.000  0.000  0.000 -0.001  0.993
     SPIN  2
     eigenvalues:
       0.101  0.136  0.136  0.224  0.250
     eigenvectors (columns):
       0.000 -0.000 -0.000  1.000 -0.000
      -0.000 -0.999 -0.047 -0.000  0.000
      -0.000  0.047 -0.999 -0.000  0.000
       0.978 -0.000 -0.000  0.000  0.207
      -0.207  0.000  0.000  0.000  0.978
     occupation matrix ns (before diag.):
       0.224 -0.000 -0.000 -0.000 -0.000
      -0.000  0.136  0.000  0.000  0.000
      -0.000  0.000  0.136  0.000  0.000
      -0.000  0.000  0.000  0.107  0.030
      -0.000  0.000  0.000  0.030  0.244
     ------------------------ ATOM   14 ------------------------
     Tr[ns( 14)] (up, down, total) =   4.97343  0.84601  5.81944
     Atomic magnetic moment for atom  14 =   4.12741
     SPIN  1
     eigenvalues:
       0.989  0.993  0.997  0.997  0.998
     eigenvectors (columns):
       1.000 -0.000 -0.000  0.000  0.000
       0.000 -0.000  0.984 -0.178 -0.000
       0.000 -0.000 -0.178 -0.984 -0.000
       0.000  0.189 -0.000  0.000 -0.982
       0.000  0.982  0.000 -0.000  0.189
     occupation matrix ns (before diag.):
       0.989 -0.000 -0.000 -0.000 -0.000
      -0.000  0.997  0.000  0.000  0.000
      -0.000  0.000  0.997  0.000  0.000
      -0.000  0.000  0.000  0.998 -0.001
      -0.000  0.000  0.000 -0.001  0.993
     SPIN  2
     eigenvalues:
       0.101  0.136  0.136  0.224  0.250
     eigenvectors (columns):
       0.000  0.000 -0.000 -1.000  0.000
      -0.000  0.964  0.266  0.000  0.000
      -0.000  0.266 -0.964  0.000  0.000
       0.978  0.000 -0.000  0.000  0.207
      -0.207 -0.000  0.000  0.000  0.978
     occupation matrix ns (before diag.):
       0.224 -0.000 -0.000 -0.000  0.000
      -0.000  0.136 -0.000  0.000  0.000
      -0.000 -0.000  0.136  0.000  0.000
      -0.000  0.000  0.000  0.107  0.030
       0.000  0.000  0.000  0.030  0.244
     ------------------------ ATOM   15 ------------------------
     Tr[ns( 15)] (up, down, total) =   0.84610  4.97342  5.81952
     Atomic magnetic moment for atom  15 =  -4.12732
     SPIN  1
     eigenvalues:
       0.101  0.136  0.136  0.224  0.250
     eigenvectors (columns):
       0.000  0.000  0.000 -1.000 -0.000
      -0.000  0.999 -0.038  0.000 -0.000
       0.000 -0.038 -0.999 -0.000 -0.000
       0.978  0.000  0.000 -0.000  0.207
      -0.207  0.000 -0.000 -0.000  0.978
     occupation matrix ns (before diag.):
       0.224 -0.000  0.000 -0.000 -0.000
      -0.000  0.136  0.000  0.000 -0.000
       0.000  0.000  0.136 -0.000 -0.000
      -0.000  0.000 -0.000  0.107  0.030
      -0.000 -0.000 -0.000  0.030  0.244
     SPIN  2
     eigenvalues:
       0.989  0.993  0.997  0.997  0.998
     eigenvectors (columns):
      -1.000 -0.001  0.000 -0.000 -0.000
      -0.000 -0.000 -0.902  0.432  0.001
      -0.000 -0.000  0.432  0.902  0.000
      -0.000  0.189 -0.000  0.001 -0.982
      -0.001  0.982 -0.000  0.000  0.189
     occupation matrix ns (before diag.):
       0.989 -0.000 -0.000 -0.000 -0.000
      -0.000  0.997  0.000 -0.000  0.000
      -0.000  0.000  0.997 -0.000  0.000
      -0.000 -0.000 -0.000  0.998 -0.001
      -0.000  0.000  0.000 -0.001  0.993
     ------------------------ ATOM   16 ------------------------
     Tr[ns( 16)] (up, down, total) =   0.84610  4.97342  5.81952
     Atomic magnetic moment for atom  16 =  -4.12732
     SPIN  1
     eigenvalues:
       0.101  0.136  0.136  0.224  0.250
     eigenvectors (columns):
       0.000  0.000 -0.000  1.000 -0.000
       0.000 -0.999 -0.038  0.000  0.000
      -0.000  0.038 -0.999 -0.000  0.000
       0.978  0.000 -0.000  0.000  0.207
      -0.207  0.000  0.000  0.000  0.978
     occupation matrix ns (before diag.):
       0.224  0.000 -0.000 -0.000 -0.000
       0.000  0.136  0.000 -0.000  0.000
      -0.000  0.000  0.136  0.000  0.000
      -0.000 -0.000  0.000  0.107  0.030
      -0.000  0.000  0.000  0.030  0.244
     SPIN  2
     eigenvalues:
       0.989  0.993  0.997  0.997  0.998
     eigenvectors (columns):
      -1.000 -0.001 -0.000  0.000 -0.000
       0.000  0.000 -0.902  0.432 -0.001
       0.000  0.000  0.432  0.902 -0.000
      -0.000  0.189  0.000 -0.001 -0.982
      -0.001  0.982  0.000 -0.000  0.189
     occupation matrix ns (before diag.):
       0.989  0.000  0.000 -0.000 -0.000
       0.000  0.997  0.000  0.000 -0.000
       0.000  0.000  0.997  0.000 -0.000
      -0.000  0.000  0.000  0.998 -0.001
      -0.000 -0.000 -0.000 -0.001  0.993

     Number of occupied Hubbard levels =   44.3524

     HUBBARD ENERGY =    0.5019  (Ry)

     total cpu time spent up to now is      175.8 secs

     total energy              =   -3088.75459704 Ry
     estimated scf accuracy    <       0.30582411 Ry

     total magnetization       =    -0.00 Bohr mag/cell
     absolute magnetization    =    38.77 Bohr mag/cell

     iteration #  4     ecut=    90.00 Ry     beta= 0.30
     Davidson diagonalization with overlap

---- Real-time Memory Report at c_bands before calling an iterative solver
          1246 MiB given to the printing process from OS
           763 MiB allocation reported by mallinfo(arena+hblkhd)
        667544 MiB available memory on the node where the printing process lives
------------------
     ethr =  9.32E-05,  avg # of iterations = 11.8

     =================== HUBBARD OCCUPATIONS ===================
     ------------------------ ATOM    9 ------------------------
     Tr[ns(  9)] (up, down, total) =   4.94064  0.30970  5.25035
     Atomic magnetic moment for atom   9 =   4.63094
     SPIN  1
     eigenvalues:
       0.966  0.991  0.994  0.994  0.997
     eigenvectors (columns):
      -1.000  0.000 -0.000 -0.000 -0.000
      -0.000 -0.000 -0.510  0.860  0.000
      -0.000  0.000  0.860  0.510  0.000
       0.000 -0.141  0.000  0.000 -0.990
       0.000  0.990 -0.000  0.000 -0.141
     occupation matrix ns (before diag.):
       0.966 -0.000 -0.000  0.000  0.000
      -0.000  0.994  0.000 -0.000  0.000
      -0.000  0.000  0.994  0.000 -0.000
       0.000 -0.000  0.000  0.997  0.001
       0.000  0.000 -0.000  0.001  0.991
     SPIN  2
     eigenvalues:
       0.040  0.042  0.042  0.078  0.107
     eigenvectors (columns):
      -0.000 -0.000  0.000 -1.000  0.001
       0.000 -0.883 -0.470  0.000  0.000
      -0.000  0.470 -0.883 -0.000 -0.000
      -0.985 -0.000 -0.000 -0.000 -0.174
      -0.174 -0.000 -0.000  0.001  0.985
     occupation matrix ns (before diag.):
       0.078 -0.000  0.000 -0.000  0.000
      -0.000  0.042  0.000  0.000  0.000
       0.000  0.000  0.042 -0.000 -0.000
      -0.000  0.000 -0.000  0.042 -0.011
       0.000  0.000 -0.000 -0.011  0.105
     ------------------------ ATOM   10 ------------------------
     Tr[ns( 10)] (up, down, total) =   4.94064  0.30970  5.25035
     Atomic magnetic moment for atom  10 =   4.63094
     SPIN  1
     eigenvalues:
       0.966  0.991  0.994  0.994  0.997
     eigenvectors (columns):
      -1.000  0.000  0.000  0.000 -0.000
       0.000  0.000 -0.510  0.860 -0.000
       0.000 -0.000  0.860  0.510 -0.000
       0.000 -0.141 -0.000 -0.000 -0.990
       0.000  0.990  0.000 -0.000 -0.141
     occupation matrix ns (before diag.):
       0.966  0.000  0.000  0.000  0.000
       0.000  0.994  0.000  0.000 -0.000
       0.000  0.000  0.994 -0.000  0.000
       0.000  0.000 -0.000  0.997  0.001
       0.000 -0.000  0.000  0.001  0.991
     SPIN  2
     eigenvalues:
       0.040  0.042  0.042  0.078  0.107
     eigenvectors (columns):
       0.000  0.000  0.000 -1.000  0.001
       0.000 -0.883  0.470 -0.000 -0.000
      -0.000  0.470  0.883  0.000  0.000
       0.985  0.000 -0.000 -0.000 -0.174
       0.174  0.000 -0.000  0.001  0.985
     occupation matrix ns (before diag.):
       0.078  0.000 -0.000 -0.000  0.000
       0.000  0.042  0.000 -0.000 -0.000
      -0.000  0.000  0.042  0.000  0.000
      -0.000 -0.000  0.000  0.042 -0.011
       0.000 -0.000  0.000 -0.011  0.105
     ------------------------ ATOM   11 ------------------------
     Tr[ns( 11)] (up, down, total) =   0.30943  4.94064  5.25007
     Atomic magnetic moment for atom  11 =  -4.63122
     SPIN  1
     eigenvalues:
       0.040  0.042  0.042  0.078  0.107
     eigenvectors (columns):
       0.000 -0.000 -0.000 -1.000 -0.000
      -0.000  0.253 -0.968  0.000  0.000
      -0.000 -0.968 -0.253  0.000  0.000
       0.985 -0.000 -0.000  0.000 -0.174
       0.174 -0.000 -0.000 -0.000  0.985
     occupation matrix ns (before diag.):
       0.078 -0.000 -0.000 -0.000 -0.000
      -0.000  0.042  0.000  0.000  0.000
      -0.000  0.000  0.042  0.000  0.000
      -0.000  0.000  0.000  0.042 -0.011
      -0.000  0.000  0.000 -0.011  0.105
     SPIN  2
     eigenvalues:
       0.966  0.991  0.994  0.994  0.997
     eigenvectors (columns):
       1.000 -0.000  0.000  0.000  0.000
       0.000 -0.000  0.855 -0.518 -0.000
       0.000 -0.000 -0.518 -0.855 -0.000
       0.000 -0.141  0.000  0.000 -0.990
       0.000  0.990 -0.000 -0.000 -0.141
     occupation matrix ns (before diag.):
       0.966 -0.000 -0.000 -0.000 -0.000
      -0.000  0.994  0.000  0.000  0.000
      -0.000  0.000  0.994  0.000  0.000
      -0.000  0.000  0.000  0.997  0.001
      -0.000  0.000  0.000  0.001  0.991
     ------------------------ ATOM   12 ------------------------
     Tr[ns( 12)] (up, down, total) =   0.30943  4.94065  5.25008
     Atomic magnetic moment for atom  12 =  -4.63122
     SPIN  1
     eigenvalues:
       0.040  0.042  0.042  0.078  0.107
     eigenvectors (columns):
       0.000 -0.000 -0.000  1.000  0.000
      -0.000 -0.025 -1.000 -0.000  0.000
      -0.000 -1.000  0.025 -0.000  0.000
       0.985 -0.000 -0.000 -0.000 -0.174
       0.174 -0.000 -0.000 -0.000  0.985
     occupation matrix ns (before diag.):
       0.078 -0.000 -0.000 -0.000  0.000
      -0.000  0.042 -0.000  0.000  0.000
      -0.000 -0.000  0.042  0.000  0.000
      -0.000  0.000  0.000  0.042 -0.011
       0.000  0.000  0.000 -0.011  0.105
     SPIN  2
     eigenvalues:
       0.966  0.991  0.994  0.994  0.997
     eigenvectors (columns):
      -1.000  0.000 -0.000 -0.000  0.000
      -0.000 -0.000  0.839 -0.545 -0.000
      -0.000 -0.000  0.545  0.839 -0.000
      -0.000 -0.141 -0.000 -0.000 -0.990
       0.000  0.990  0.000  0.000 -0.141
     occupation matrix ns (before diag.):
       0.966 -0.000 -0.000 -0.000  0.000
      -0.000  0.994 -0.000  0.000  0.000
      -0.000 -0.000  0.994  0.000  0.000
      -0.000  0.000  0.000  0.997  0.001
       0.000  0.000  0.000  0.001  0.991
     ------------------------ ATOM   13 ------------------------
     Tr[ns( 13)] (up, down, total) =   4.97314  0.82055  5.79369
     Atomic magnetic moment for atom  13 =   4.15259
     SPIN  1
     eigenvalues:
       0.989  0.993  0.997  0.997  0.998
     eigenvectors (columns):
       1.000 -0.000 -0.000  0.000 -0.000
       0.000 -0.000  0.934  0.356 -0.000
       0.000 -0.000  0.356 -0.934 -0.000
      -0.000  0.191 -0.000  0.000 -0.982
       0.000  0.982  0.000 -0.000  0.191
     occupation matrix ns (before diag.):
       0.989 -0.000 -0.000  0.000 -0.000
      -0.000  0.997 -0.000  0.000  0.000
      -0.000 -0.000  0.997  0.000  0.000
       0.000  0.000  0.000  0.998 -0.001
      -0.000  0.000  0.000 -0.001  0.993
     SPIN  2
     eigenvalues:
       0.094  0.129  0.129  0.221  0.248
     eigenvectors (columns):
      -0.000 -0.000  0.000  1.000 -0.000
      -0.000 -0.526 -0.850 -0.000  0.000
      -0.000 -0.850  0.526 -0.000  0.000
       0.979 -0.000 -0.000  0.000  0.206
      -0.206  0.000 -0.000  0.000  0.979
     occupation matrix ns (before diag.):
       0.221 -0.000 -0.000  0.000 -0.000
      -0.000  0.129 -0.000  0.000  0.000
      -0.000 -0.000  0.129  0.000  0.000
       0.000  0.000  0.000  0.101  0.031
      -0.000  0.000  0.000  0.031  0.241
     ------------------------ ATOM   14 ------------------------
     Tr[ns( 14)] (up, down, total) =   4.97314  0.82056  5.79369
     Atomic magnetic moment for atom  14 =   4.15258
     SPIN  1
     eigenvalues:
       0.989  0.993  0.997  0.997  0.998
     eigenvectors (columns):
       1.000 -0.000 -0.000  0.000 -0.000
       0.000 -0.000  0.505  0.863 -0.000
       0.000 -0.000  0.863 -0.505 -0.000
       0.000  0.191 -0.000  0.000 -0.982
       0.000  0.982  0.000 -0.000  0.191
     occupation matrix ns (before diag.):
       0.989 -0.000 -0.000 -0.000 -0.000
      -0.000  0.997 -0.000  0.000  0.000
      -0.000 -0.000  0.997  0.000  0.000
      -0.000  0.000  0.000  0.998 -0.001
      -0.000  0.000  0.000 -0.001  0.993
     SPIN  2
     eigenvalues:
       0.094  0.129  0.129  0.221  0.248
     eigenvectors (columns):
       0.000 -0.000  0.000 -1.000  0.000
      -0.000  0.117  0.993  0.000  0.000
      -0.000 -0.993  0.117  0.000  0.000
       0.979 -0.000  0.000  0.000  0.206
      -0.206  0.000 -0.000  0.000  0.979
     occupation matrix ns (before diag.):
       0.221 -0.000 -0.000 -0.000  0.000
      -0.000  0.129  0.000  0.000  0.000
      -0.000  0.000  0.129  0.000  0.000
      -0.000  0.000  0.000  0.101  0.031
       0.000  0.000  0.000  0.031  0.241
     ------------------------ ATOM   15 ------------------------
     Tr[ns( 15)] (up, down, total) =   0.82050  4.97314  5.79363
     Atomic magnetic moment for atom  15 =  -4.15264
     SPIN  1
     eigenvalues:
       0.094  0.129  0.129  0.221  0.248
     eigenvectors (columns):
      -0.000  0.000 -0.000  1.000  0.000
      -0.000 -0.815 -0.580 -0.000 -0.000
       0.000 -0.580  0.815  0.000  0.000
       0.979  0.000 -0.000  0.000  0.206
      -0.206 -0.000 -0.000 -0.000  0.979
     occupation matrix ns (before diag.):
       0.221 -0.000  0.000  0.000  0.000
      -0.000  0.129 -0.000  0.000 -0.000
       0.000 -0.000  0.129 -0.000  0.000
       0.000  0.000 -0.000  0.101  0.031
       0.000 -0.000  0.000  0.031  0.241
     SPIN  2
     eigenvalues:
       0.989  0.993  0.997  0.997  0.998
     eigenvectors (columns):
      -1.000 -0.000 -0.000  0.000 -0.000
       0.000  0.000 -0.272 -0.962  0.000
      -0.000 -0.000  0.962 -0.272  0.000
      -0.000  0.191  0.000 -0.000 -0.982
      -0.000  0.982 -0.000  0.000  0.191
     occupation matrix ns (before diag.):
       0.989  0.000 -0.000 -0.000 -0.000
       0.000  0.997  0.000 -0.000 -0.000
      -0.000  0.000  0.997 -0.000  0.000
      -0.000 -0.000 -0.000  0.998 -0.001
      -0.000 -0.000  0.000 -0.001  0.993
     ------------------------ ATOM   16 ------------------------
     Tr[ns( 16)] (up, down, total) =   0.82050  4.97314  5.79363
     Atomic magnetic moment for atom  16 =  -4.15264
     SPIN  1
     eigenvalues:
       0.094  0.129  0.129  0.221  0.248
     eigenvectors (columns):
      -0.000 -0.000 -0.000 -1.000  0.000
       0.000 -0.815  0.580 -0.000  0.000
      -0.000 -0.580 -0.815  0.000 -0.000
       0.979 -0.000 -0.000 -0.000  0.206
      -0.206  0.000 -0.000  0.000  0.979
     occupation matrix ns (before diag.):
       0.221  0.000 -0.000  0.000  0.000
       0.000  0.129 -0.000 -0.000  0.000
      -0.000 -0.000  0.129  0.000 -0.000
       0.000 -0.000  0.000  0.101  0.031
       0.000  0.000 -0.000  0.031  0.241
     SPIN  2
     eigenvalues:
       0.989  0.993  0.997  0.997  0.998
     eigenvectors (columns):
      -1.000 -0.000  0.000 -0.000 -0.000
      -0.000 -0.000 -0.272 -0.962 -0.000
       0.000  0.000  0.962 -0.272 -0.000
      -0.000  0.191 -0.000  0.000 -0.982
      -0.000  0.982  0.000 -0.000  0.191
     occupation matrix ns (before diag.):
       0.989 -0.000  0.000 -0.000 -0.000
      -0.000  0.997  0.000  0.000  0.000
       0.000  0.000  0.997  0.000 -0.000
      -0.000  0.000  0.000  0.998 -0.001
      -0.000  0.000 -0.000 -0.001  0.993

     Number of occupied Hubbard levels =   44.1755

     HUBBARD ENERGY =    0.6528  (Ry)

     total cpu time spent up to now is      236.2 secs

     total energy              =   -3088.76733299 Ry
     estimated scf accuracy    <       0.12531550 Ry

     total magnetization       =    -0.00 Bohr mag/cell
     absolute magnetization    =    38.87 Bohr mag/cell

     iteration #  5     ecut=    90.00 Ry     beta= 0.30
     Davidson diagonalization with overlap

---- Real-time Memory Report at c_bands before calling an iterative solver
          1258 MiB given to the printing process from OS
           775 MiB allocation reported by mallinfo(arena+hblkhd)
        667452 MiB available memory on the node where the printing process lives
------------------
     ethr =  3.82E-05,  avg # of iterations =  2.0

     =================== HUBBARD OCCUPATIONS ===================
     ------------------------ ATOM    9 ------------------------
     Tr[ns(  9)] (up, down, total) =   4.93568  0.30064  5.23632
     Atomic magnetic moment for atom   9 =   4.63504
     SPIN  1
     eigenvalues:
       0.961  0.991  0.993  0.993  0.997
     eigenvectors (columns):
      -1.000 -0.000 -0.000 -0.000 -0.000
      -0.000  0.000  0.774  0.633  0.000
      -0.000  0.000 -0.633  0.774  0.000
       0.000 -0.144  0.000  0.000 -0.990
      -0.000  0.990  0.000 -0.000 -0.144
     occupation matrix ns (before diag.):
       0.961 -0.000 -0.000  0.000 -0.000
      -0.000  0.993  0.000 -0.000 -0.000
      -0.000  0.000  0.993 -0.000 -0.000
       0.000 -0.000 -0.000  0.997  0.001
      -0.000 -0.000 -0.000  0.001  0.991
     SPIN  2
     eigenvalues:
       0.039  0.040  0.040  0.077  0.105
     eigenvectors (columns):
       0.000  0.000  0.000 -1.000  0.000
       0.000  0.736 -0.677  0.000 -0.000
      -0.000  0.677  0.736  0.000 -0.000
       0.985  0.000  0.000  0.000 -0.170
       0.170  0.000  0.000  0.000  0.985
     occupation matrix ns (before diag.):
       0.077 -0.000 -0.000 -0.000  0.000
      -0.000  0.040 -0.000  0.000 -0.000
      -0.000 -0.000  0.040  0.000 -0.000
      -0.000  0.000  0.000  0.041 -0.011
       0.000 -0.000 -0.000 -0.011  0.103
     ------------------------ ATOM   10 ------------------------
     Tr[ns( 10)] (up, down, total) =   4.93568  0.30064  5.23632
     Atomic magnetic moment for atom  10 =   4.63504
     SPIN  1
     eigenvalues:
       0.961  0.991  0.993  0.993  0.997
     eigenvectors (columns):
      -1.000 -0.000  0.000  0.000 -0.000
       0.000 -0.000  0.774  0.633 -0.000
       0.000 -0.000 -0.633  0.774 -0.000
       0.000 -0.144 -0.000 -0.000 -0.990
      -0.000  0.990 -0.000  0.000 -0.144
     occupation matrix ns (before diag.):
       0.961  0.000  0.000  0.000 -0.000
       0.000  0.993  0.000  0.000  0.000
       0.000  0.000  0.993  0.000  0.000
       0.000  0.000  0.000  0.997  0.001
      -0.000  0.000  0.000  0.001  0.991
     SPIN  2
     eigenvalues:
       0.039  0.040  0.040  0.077  0.105
     eigenvectors (columns):
      -0.000  0.000 -0.000 -1.000  0.000
       0.000 -0.736 -0.677 -0.000  0.000
      -0.000 -0.677  0.736 -0.000  0.000
      -0.985  0.000 -0.000  0.000 -0.170
      -0.170  0.000 -0.000  0.000  0.985
     occupation matrix ns (before diag.):
       0.077  0.000  0.000 -0.000  0.000
       0.000  0.040 -0.000 -0.000  0.000
       0.000 -0.000  0.040 -0.000  0.000
      -0.000 -0.000 -0.000  0.041 -0.011
       0.000  0.000  0.000 -0.011  0.103
     ------------------------ ATOM   11 ------------------------
     Tr[ns( 11)] (up, down, total) =   0.30049  4.93569  5.23617
     Atomic magnetic moment for atom  11 =  -4.63520
     SPIN  1
     eigenvalues:
       0.039  0.040  0.040  0.077  0.104
     eigenvectors (columns):
       0.000  0.000 -0.000  1.000 -0.000
      -0.000 -0.945 -0.326 -0.000  0.000
      -0.000  0.326 -0.945 -0.000  0.000
       0.985 -0.000 -0.000 -0.000 -0.170
       0.170 -0.000 -0.000 -0.000  0.985
     occupation matrix ns (before diag.):
       0.077 -0.000 -0.000 -0.000 -0.000
      -0.000  0.040  0.000  0.000  0.000
      -0.000  0.000  0.040  0.000  0.000
      -0.000  0.000  0.000  0.041 -0.011
      -0.000  0.000  0.000 -0.011  0.103
     SPIN  2
     eigenvalues:
       0.961  0.991  0.993  0.993  0.997
     eigenvectors (columns):
       1.000 -0.000 -0.000  0.000  0.000
       0.000 -0.000  0.947 -0.323 -0.000
       0.000 -0.000 -0.323 -0.947 -0.000
       0.000 -0.144 -0.000  0.000 -0.990
       0.000  0.990  0.000 -0.000 -0.144
     occupation matrix ns (before diag.):
       0.961 -0.000 -0.000 -0.000 -0.000
      -0.000  0.993  0.000  0.000  0.000
      -0.000  0.000  0.993  0.000  0.000
      -0.000  0.000  0.000  0.997  0.001
      -0.000  0.000  0.000  0.001  0.991
     ------------------------ ATOM   12 ------------------------
     Tr[ns( 12)] (up, down, total) =   0.30044  4.93569  5.23613
     Atomic magnetic moment for atom  12 =  -4.63525
     SPIN  1
     eigenvalues:
       0.039  0.040  0.040  0.077  0.104
     eigenvectors (columns):
       0.000 -0.000  0.000  1.000  0.000
      -0.000 -0.683 -0.730 -0.000  0.000
      -0.000 -0.730  0.683 -0.000  0.000
       0.985 -0.000  0.000 -0.000 -0.170
       0.170 -0.000  0.000 -0.000  0.985
     occupation matrix ns (before diag.):
       0.077 -0.000 -0.000 -0.000  0.000
      -0.000  0.040 -0.000  0.000  0.000
      -0.000 -0.000  0.040  0.000  0.000
      -0.000  0.000  0.000  0.041 -0.011
       0.000  0.000  0.000 -0.011  0.103
     SPIN  2
     eigenvalues:
       0.961  0.991  0.993  0.993  0.997
     eigenvectors (columns):
       1.000 -0.000 -0.000  0.000 -0.000
       0.000 -0.000  0.894 -0.449 -0.000
       0.000 -0.000 -0.449 -0.894 -0.000
      -0.000 -0.144  0.000  0.000 -0.990
       0.000  0.990 -0.000 -0.000 -0.144
     occupation matrix ns (before diag.):
       0.961 -0.000 -0.000  0.000 -0.000
      -0.000  0.993  0.000  0.000  0.000
      -0.000  0.000  0.993  0.000  0.000
       0.000  0.000  0.000  0.997  0.001
      -0.000  0.000  0.000  0.001  0.991
     ------------------------ ATOM   13 ------------------------
     Tr[ns( 13)] (up, down, total) =   4.97295  0.89524  5.86819
     Atomic magnetic moment for atom  13 =   4.07772
     SPIN  1
     eigenvalues:
       0.988  0.993  0.997  0.997  0.998
     eigenvectors (columns):
       1.000 -0.000 -0.000  0.000 -0.000
       0.000 -0.000  0.785  0.619 -0.000
       0.000 -0.000  0.619 -0.785 -0.000
       0.000  0.192 -0.000  0.000 -0.981
       0.000  0.981  0.000 -0.000  0.192
     occupation matrix ns (before diag.):
       0.988 -0.000 -0.000  0.000 -0.000
      -0.000  0.997 -0.000  0.000  0.000
      -0.000 -0.000  0.997  0.000  0.000
       0.000  0.000  0.000  0.998 -0.001
      -0.000  0.000  0.000 -0.001  0.993
     SPIN  2
     eigenvalues:
       0.098  0.139  0.139  0.250  0.269
     eigenvectors (columns):
       0.000 -0.000 -0.000 -1.000  0.000
      -0.000 -0.742  0.671  0.000  0.000
      -0.000 -0.671 -0.742  0.000  0.000
       0.979 -0.000 -0.000  0.000  0.203
      -0.203  0.000  0.000  0.000  0.979
     occupation matrix ns (before diag.):
       0.250 -0.000 -0.000 -0.000  0.000
      -0.000  0.139 -0.000  0.000  0.000
      -0.000 -0.000  0.139  0.000  0.000
      -0.000  0.000  0.000  0.105  0.034
       0.000  0.000  0.000  0.034  0.262
     ------------------------ ATOM   14 ------------------------
     Tr[ns( 14)] (up, down, total) =   4.97295  0.89521  5.86816
     Atomic magnetic moment for atom  14 =   4.07774
     SPIN  1
     eigenvalues:
       0.988  0.993  0.997  0.997  0.998
     eigenvectors (columns):
       1.000 -0.000 -0.000  0.000 -0.000
       0.000 -0.000  0.646  0.763 -0.000
       0.000 -0.000  0.763 -0.646 -0.000
       0.000  0.192 -0.000  0.000 -0.981
       0.000  0.981  0.000 -0.000  0.192
     occupation matrix ns (before diag.):
       0.988 -0.000 -0.000 -0.000 -0.000
      -0.000  0.997 -0.000  0.000  0.000
      -0.000 -0.000  0.997  0.000  0.000
      -0.000  0.000  0.000  0.998 -0.001
      -0.000  0.000  0.000 -0.001  0.993
     SPIN  2
     eigenvalues:
       0.098  0.139  0.139  0.250  0.269
     eigenvectors (columns):
      -0.000 -0.000 -0.000 -1.000  0.000
      -0.000 -0.480  0.877  0.000  0.000
      -0.000 -0.877 -0.480  0.000  0.000
       0.979 -0.000  0.000  0.000  0.203
      -0.203  0.000  0.000  0.000  0.979
     occupation matrix ns (before diag.):
       0.250 -0.000 -0.000  0.000  0.000
      -0.000  0.139 -0.000  0.000  0.000
      -0.000 -0.000  0.139  0.000  0.000
       0.000  0.000  0.000  0.105  0.034
       0.000  0.000  0.000  0.034  0.262
     ------------------------ ATOM   15 ------------------------
     Tr[ns( 15)] (up, down, total) =   0.89516  4.97295  5.86811
     Atomic magnetic moment for atom  15 =  -4.07779
     SPIN  1
     eigenvalues:
       0.098  0.139  0.139  0.250  0.269
     eigenvectors (columns):
      -0.000 -0.000 -0.000  1.000  0.000
      -0.000 -0.929 -0.369 -0.000 -0.000
       0.000 -0.369  0.929  0.000 -0.000
       0.979 -0.000 -0.000 -0.000  0.203
      -0.203 -0.000  0.000 -0.000  0.979
     occupation matrix ns (before diag.):
       0.250 -0.000  0.000  0.000  0.000
      -0.000  0.139 -0.000  0.000 -0.000
       0.000 -0.000  0.139 -0.000 -0.000
       0.000  0.000 -0.000  0.105  0.034
       0.000 -0.000 -0.000  0.034  0.262
     SPIN  2
     eigenvalues:
       0.988  0.993  0.997  0.997  0.998
     eigenvectors (columns):
       1.000 -0.000 -0.000 -0.000 -0.000
       0.000 -0.000  0.862  0.507  0.000
       0.000 -0.000 -0.507  0.862  0.000
       0.000  0.192  0.000  0.000 -0.981
       0.000  0.981 -0.000 -0.000  0.192
     occupation matrix ns (before diag.):
       0.988 -0.000 -0.000  0.000 -0.000
      -0.000  0.997  0.000 -0.000  0.000
      -0.000  0.000  0.997 -0.000  0.000
       0.000 -0.000 -0.000  0.998 -0.001
      -0.000  0.000  0.000 -0.001  0.993
     ------------------------ ATOM   16 ------------------------
     Tr[ns( 16)] (up, down, total) =   0.89516  4.97295  5.86811
     Atomic magnetic moment for atom  16 =  -4.07779
     SPIN  1
     eigenvalues:
       0.098  0.139  0.139  0.250  0.269
     eigenvectors (columns):
      -0.000  0.000 -0.000 -1.000  0.000
       0.000 -0.929  0.369 -0.000  0.000
      -0.000 -0.369 -0.929  0.000  0.000
       0.979  0.000 -0.000  0.000  0.203
      -0.203  0.000  0.000  0.000  0.979
     occupation matrix ns (before diag.):
       0.250  0.000 -0.000  0.000  0.000
       0.000  0.139 -0.000 -0.000  0.000
      -0.000 -0.000  0.139  0.000  0.000
       0.000 -0.000  0.000  0.105  0.034
       0.000  0.000  0.000  0.034  0.262
     SPIN  2
     eigenvalues:
       0.988  0.993  0.997  0.997  0.998
     eigenvectors (columns):
       1.000 -0.000  0.000  0.000 -0.000
      -0.000  0.000  0.862  0.507 -0.000
      -0.000  0.000 -0.507  0.862 -0.000
       0.000  0.192 -0.000 -0.000 -0.981
       0.000  0.981  0.000  0.000  0.192
     occupation matrix ns (before diag.):
       0.988  0.000  0.000  0.000 -0.000
       0.000  0.997  0.000  0.000 -0.000
       0.000  0.000  0.997  0.000 -0.000
       0.000  0.000  0.000  0.998 -0.001
      -0.000 -0.000 -0.000 -0.001  0.993

     Number of occupied Hubbard levels =   44.4175

     HUBBARD ENERGY =    0.6560  (Ry)

     total cpu time spent up to now is      286.3 secs

     total energy              =   -3088.77678329 Ry
     estimated scf accuracy    <       0.02986480 Ry

     total magnetization       =     0.00 Bohr mag/cell
     absolute magnetization    =    38.92 Bohr mag/cell

     iteration #  6     ecut=    90.00 Ry     beta= 0.30
     Davidson diagonalization with overlap

---- Real-time Memory Report at c_bands before calling an iterative solver
          1268 MiB given to the printing process from OS
           787 MiB allocation reported by mallinfo(arena+hblkhd)
        667383 MiB available memory on the node where the printing process lives
------------------
     ethr =  9.11E-06,  avg # of iterations =  3.8

     =================== HUBBARD OCCUPATIONS ===================
     ------------------------ ATOM    9 ------------------------
     Tr[ns(  9)] (up, down, total) =   4.93474  0.30376  5.23850
     Atomic magnetic moment for atom   9 =   4.63098
     SPIN  1
     eigenvalues:
       0.960  0.991  0.993  0.993  0.997
     eigenvectors (columns):
      -1.000 -0.000  0.000 -0.000 -0.000
       0.000  0.000  0.355 -0.935  0.000
      -0.000  0.000 -0.935 -0.355  0.000
       0.000 -0.145 -0.000 -0.000 -0.989
      -0.000  0.989  0.000  0.000 -0.145
     occupation matrix ns (before diag.):
       0.960  0.000 -0.000  0.000 -0.000
       0.000  0.993  0.000 -0.000 -0.000
      -0.000  0.000  0.993  0.000 -0.000
       0.000 -0.000  0.000  0.997  0.001
      -0.000 -0.000 -0.000  0.001  0.991
     SPIN  2
     eigenvalues:
       0.040  0.041  0.041  0.077  0.104
     eigenvectors (columns):
       0.000 -0.000  0.000 -1.000  0.000
      -0.000 -0.623 -0.782  0.000 -0.000
      -0.001 -0.782  0.623  0.000 -0.000
       0.986 -0.001  0.000 -0.000 -0.168
       0.168 -0.000  0.000  0.000  0.986
     occupation matrix ns (before diag.):
       0.077 -0.000 -0.000 -0.000  0.000
      -0.000  0.041 -0.000  0.000 -0.000
      -0.000 -0.000  0.041  0.000 -0.000
      -0.000  0.000  0.000  0.041 -0.011
       0.000 -0.000 -0.000 -0.011  0.103
     ------------------------ ATOM   10 ------------------------
     Tr[ns( 10)] (up, down, total) =   4.93474  0.30376  5.23850
     Atomic magnetic moment for atom  10 =   4.63098
     SPIN  1
     eigenvalues:
       0.960  0.991  0.993  0.993  0.997
     eigenvectors (columns):
      -1.000 -0.000 -0.000  0.000 -0.000
      -0.000 -0.000  0.355 -0.935 -0.000
       0.000 -0.000 -0.935 -0.355 -0.000
       0.000 -0.145  0.000  0.000 -0.989
      -0.000  0.989 -0.000 -0.000 -0.145
     occupation matrix ns (before diag.):
       0.960 -0.000  0.000  0.000 -0.000
      -0.000  0.993  0.000  0.000  0.000
       0.000  0.000  0.993 -0.000  0.000
       0.000  0.000 -0.000  0.997  0.001
      -0.000  0.000  0.000  0.001  0.991
     SPIN  2
     eigenvalues:
       0.040  0.041  0.041  0.077  0.104
     eigenvectors (columns):
      -0.000  0.000  0.000 -1.000  0.000
      -0.000 -0.623  0.782 -0.000  0.000
      -0.001 -0.782 -0.623 -0.000  0.000
      -0.986  0.001  0.000 -0.000 -0.168
      -0.168  0.000  0.000  0.000  0.986
     occupation matrix ns (before diag.):
       0.077  0.000  0.000 -0.000  0.000
       0.000  0.041 -0.000 -0.000  0.000
       0.000 -0.000  0.041 -0.000  0.000
      -0.000 -0.000 -0.000  0.041 -0.011
       0.000  0.000  0.000 -0.011  0.103
     ------------------------ ATOM   11 ------------------------
     Tr[ns( 11)] (up, down, total) =   0.30365  4.93475  5.23839
     Atomic magnetic moment for atom  11 =  -4.63110
     SPIN  1
     eigenvalues:
       0.040  0.041  0.041  0.077  0.104
     eigenvectors (columns):
      -0.000  0.000 -0.000  1.000  0.000
      -0.000 -0.919 -0.394 -0.000  0.000
      -0.000  0.394 -0.919 -0.000  0.000
       0.986 -0.000 -0.000  0.000 -0.167
       0.167 -0.000 -0.000 -0.000  0.986
     occupation matrix ns (before diag.):
       0.077 -0.000 -0.000  0.000  0.000
      -0.000  0.041  0.000  0.000  0.000
      -0.000  0.000  0.041  0.000  0.000
       0.000  0.000  0.000  0.041 -0.011
       0.000  0.000  0.000 -0.011  0.103
     SPIN  2
     eigenvalues:
       0.960  0.991  0.993  0.993  0.997
     eigenvectors (columns):
       1.000 -0.000 -0.000 -0.000  0.000
       0.000 -0.000 -0.144  0.990 -0.000
       0.000 -0.000  0.990  0.144 -0.000
      -0.000 -0.145 -0.000 -0.000 -0.989
       0.000  0.989  0.000  0.000 -0.145
     occupation matrix ns (before diag.):
       0.960 -0.000 -0.000  0.000 -0.000
      -0.000  0.993  0.000  0.000  0.000
      -0.000  0.000  0.993  0.000  0.000
       0.000  0.000  0.000  0.997  0.001
      -0.000  0.000  0.000  0.001  0.991
     ------------------------ ATOM   12 ------------------------
     Tr[ns( 12)] (up, down, total) =   0.30365  4.93475  5.23841
     Atomic magnetic moment for atom  12 =  -4.63110
     SPIN  1
     eigenvalues:
       0.040  0.041  0.041  0.077  0.104
     eigenvectors (columns):
      -0.000 -0.000  0.000  1.000  0.000
      -0.000 -0.979 -0.205 -0.000  0.000
      -0.000 -0.205  0.979 -0.000  0.000
       0.986 -0.000  0.000  0.000 -0.167
       0.167 -0.000  0.000 -0.000  0.986
     occupation matrix ns (before diag.):
       0.077 -0.000 -0.000  0.000  0.000
      -0.000  0.041 -0.000  0.000  0.000
      -0.000 -0.000  0.041  0.000  0.000
       0.000  0.000  0.000  0.041 -0.011
       0.000  0.000  0.000 -0.011  0.103
     SPIN  2
     eigenvalues:
       0.960  0.991  0.993  0.993  0.997
     eigenvectors (columns):
       1.000 -0.000 -0.000  0.000  0.000
       0.000 -0.000  0.999 -0.035 -0.000
       0.000 -0.000 -0.035 -0.999 -0.000
       0.000 -0.145 -0.000  0.000 -0.989
       0.000  0.989  0.000 -0.000 -0.145
     occupation matrix ns (before diag.):
       0.960 -0.000 -0.000 -0.000 -0.000
      -0.000  0.993  0.000  0.000  0.000
      -0.000  0.000  0.993  0.000  0.000
      -0.000  0.000  0.000  0.997  0.001
      -0.000  0.000  0.000  0.001  0.991
     ------------------------ ATOM   13 ------------------------
     Tr[ns( 13)] (up, down, total) =   4.97280  0.93323  5.90603
     Atomic magnetic moment for atom  13 =   4.03957
     SPIN  1
     eigenvalues:
       0.988  0.992  0.997  0.997  0.998
     eigenvectors (columns):
       1.000 -0.000 -0.000  0.000 -0.000
       0.000 -0.000  0.935  0.355 -0.000
       0.000 -0.000  0.355 -0.935 -0.000
       0.000  0.192 -0.000  0.000 -0.981
       0.000  0.981  0.000 -0.000  0.192
     occupation matrix ns (before diag.):
       0.988 -0.000 -0.000  0.000 -0.000
      -0.000  0.997 -0.000  0.000  0.000
      -0.000 -0.000  0.997  0.000  0.000
       0.000  0.000  0.000  0.998 -0.001
      -0.000  0.000  0.000 -0.001  0.993
     SPIN  2
     eigenvalues:
       0.102  0.145  0.145  0.262  0.278
     eigenvectors (columns):
       0.000 -0.000 -0.000 -1.000  0.000
      -0.000 -0.756  0.655  0.000  0.000
      -0.000 -0.655 -0.756  0.000  0.000
       0.979 -0.000 -0.000  0.000  0.202
      -0.202  0.000  0.000  0.000  0.979
     occupation matrix ns (before diag.):
       0.262 -0.000 -0.000 -0.000  0.000
      -0.000  0.145 -0.000  0.000  0.000
      -0.000 -0.000  0.145  0.000  0.000
      -0.000  0.000  0.000  0.109  0.035
       0.000  0.000  0.000  0.035  0.271
     ------------------------ ATOM   14 ------------------------
     Tr[ns( 14)] (up, down, total) =   4.97280  0.93321  5.90601
     Atomic magnetic moment for atom  14 =   4.03959
     SPIN  1
     eigenvalues:
       0.988  0.992  0.997  0.997  0.998
     eigenvectors (columns):
       1.000 -0.000  0.000  0.000  0.000
       0.000 -0.000  0.575 -0.818 -0.000
       0.000 -0.000 -0.818 -0.575 -0.000
       0.000  0.192  0.000  0.000 -0.981
       0.000  0.981 -0.000 -0.000  0.192
     occupation matrix ns (before diag.):
       0.988 -0.000 -0.000 -0.000 -0.000
      -0.000  0.997  0.000  0.000  0.000
      -0.000  0.000  0.997  0.000  0.000
      -0.000  0.000  0.000  0.998 -0.001
      -0.000  0.000  0.000 -0.001  0.993
     SPIN  2
     eigenvalues:
       0.102  0.145  0.145  0.262  0.278
     eigenvectors (columns):
      -0.000 -0.000 -0.000 -1.000  0.000
      -0.000 -0.438  0.899  0.000  0.000
      -0.000 -0.899 -0.438  0.000  0.000
       0.979 -0.000  0.000  0.000  0.202
      -0.202  0.000  0.000  0.000  0.979
     occupation matrix ns (before diag.):
       0.262 -0.000 -0.000  0.000  0.000
      -0.000  0.145 -0.000  0.000  0.000
      -0.000 -0.000  0.145  0.000  0.000
       0.000  0.000  0.000  0.109  0.035
       0.000  0.000  0.000  0.035  0.271
     ------------------------ ATOM   15 ------------------------
     Tr[ns( 15)] (up, down, total) =   0.93318  4.97280  5.90598
     Atomic magnetic moment for atom  15 =  -4.03962
     SPIN  1
     eigenvalues:
       0.102  0.145  0.145  0.262  0.278
     eigenvectors (columns):
      -0.000 -0.000 -0.000  1.000  0.000
      -0.000 -0.848 -0.530 -0.000 -0.000
       0.000 -0.530  0.848  0.000 -0.000
       0.979 -0.000 -0.000 -0.000  0.202
      -0.202 -0.000 -0.000 -0.000  0.979
     occupation matrix ns (before diag.):
       0.262 -0.000  0.000  0.000  0.000
      -0.000  0.145 -0.000  0.000 -0.000
       0.000 -0.000  0.145 -0.000 -0.000
       0.000  0.000 -0.000  0.109  0.035
       0.000 -0.000 -0.000  0.035  0.271
     SPIN  2
     eigenvalues:
       0.988  0.992  0.997  0.997  0.998
     eigenvectors (columns):
       1.000 -0.000  0.000  0.000 -0.000
       0.000  0.000  0.676 -0.737  0.000
       0.000 -0.000 -0.737 -0.676  0.000
       0.000  0.192 -0.000 -0.000 -0.981
       0.000  0.981 -0.000  0.000  0.192
     occupation matrix ns (before diag.):
       0.988 -0.000 -0.000 -0.000 -0.000
      -0.000  0.997  0.000 -0.000 -0.000
      -0.000  0.000  0.997 -0.000  0.000
      -0.000 -0.000 -0.000  0.998 -0.001
      -0.000 -0.000  0.000 -0.001  0.993
     ------------------------ ATOM   16 ------------------------
     Tr[ns( 16)] (up, down, total) =   0.93318  4.97280  5.90598
     Atomic magnetic moment for atom  16 =  -4.03962
     SPIN  1
     eigenvalues:
       0.102  0.145  0.145  0.262  0.278
     eigenvectors (columns):
      -0.000  0.000 -0.000 -1.000  0.000
       0.000 -0.848  0.530 -0.000  0.000
      -0.000 -0.530 -0.848  0.000  0.000
       0.979  0.000 -0.000  0.000  0.202
      -0.202  0.000 -0.000  0.000  0.979
     occupation matrix ns (before diag.):
       0.262  0.000 -0.000  0.000  0.000
       0.000  0.145 -0.000 -0.000  0.000
      -0.000 -0.000  0.145  0.000  0.000
       0.000 -0.000  0.000  0.109  0.035
       0.000  0.000  0.000  0.035  0.271
     SPIN  2
     eigenvalues:
       0.988  0.992  0.997  0.997  0.998
     eigenvectors (columns):
       1.000 -0.000 -0.000 -0.000 -0.000
      -0.000 -0.000  0.676 -0.737 -0.000
      -0.000  0.000 -0.737 -0.676 -0.000
       0.000  0.192  0.000  0.000 -0.981
       0.000  0.981  0.000 -0.000  0.192
     occupation matrix ns (before diag.):
       0.988  0.000  0.000 -0.000 -0.000
       0.000  0.997  0.000  0.000  0.000
       0.000  0.000  0.997  0.000 -0.000
      -0.000  0.000  0.000  0.998 -0.001
      -0.000  0.000 -0.000 -0.001  0.993

     Number of occupied Hubbard levels =   44.5778

     HUBBARD ENERGY =    0.6476  (Ry)

     total cpu time spent up to now is      339.0 secs

     total energy              =   -3088.77632919 Ry
     estimated scf accuracy    <       0.01536952 Ry

     total magnetization       =     0.00 Bohr mag/cell
     absolute magnetization    =    38.91 Bohr mag/cell

     iteration #  7     ecut=    90.00 Ry     beta= 0.30
     Davidson diagonalization with overlap

---- Real-time Memory Report at c_bands before calling an iterative solver
          1281 MiB given to the printing process from OS
           799 MiB allocation reported by mallinfo(arena+hblkhd)
        666825 MiB available memory on the node where the printing process lives
------------------
     ethr =  4.69E-06,  avg # of iterations =  2.8

     =================== HUBBARD OCCUPATIONS ===================
     ------------------------ ATOM    9 ------------------------
     Tr[ns(  9)] (up, down, total) =   4.93715  0.30854  5.24569
     Atomic magnetic moment for atom   9 =   4.62862
     SPIN  1
     eigenvalues:
       0.962  0.991  0.994  0.994  0.997
     eigenvectors (columns):
      -1.000 -0.000 -0.000 -0.000 -0.000
       0.000  0.000 -0.572  0.820  0.000
      -0.000 -0.000  0.820  0.572 -0.000
       0.000 -0.140 -0.000  0.000 -0.990
      -0.000  0.990  0.000  0.000 -0.140
     occupation matrix ns (before diag.):
       0.962  0.000 -0.000  0.000 -0.000
       0.000  0.994  0.000 -0.000 -0.000
      -0.000  0.000  0.994  0.000  0.000
       0.000 -0.000  0.000  0.997  0.001
      -0.000 -0.000  0.000  0.001  0.991
     SPIN  2
     eigenvalues:
       0.040  0.042  0.042  0.078  0.106
     eigenvectors (columns):
       0.000 -0.000  0.000  1.000  0.000
       0.001 -0.392 -0.920 -0.000  0.000
       0.000  0.920 -0.392  0.000 -0.000
      -0.986  0.000 -0.001  0.000 -0.168
      -0.168  0.000 -0.000 -0.000  0.986
     occupation matrix ns (before diag.):
       0.078 -0.000  0.000  0.000  0.000
      -0.000  0.042  0.000  0.000  0.000
       0.000  0.000  0.042  0.000 -0.000
       0.000  0.000  0.000  0.042 -0.011
       0.000  0.000 -0.000 -0.011  0.104
     ------------------------ ATOM   10 ------------------------
     Tr[ns( 10)] (up, down, total) =   4.93715  0.30854  5.24569
     Atomic magnetic moment for atom  10 =   4.62862
     SPIN  1
     eigenvalues:
       0.962  0.991  0.994  0.994  0.997
     eigenvectors (columns):
      -1.000 -0.000  0.000  0.000 -0.000
      -0.000 -0.000 -0.572  0.820 -0.000
       0.000  0.000  0.820  0.572  0.000
       0.000 -0.140  0.000 -0.000 -0.990
      -0.000  0.990 -0.000 -0.000 -0.140
     occupation matrix ns (before diag.):
       0.962 -0.000  0.000  0.000 -0.000
      -0.000  0.994  0.000  0.000  0.000
       0.000  0.000  0.994 -0.000 -0.000
       0.000  0.000 -0.000  0.997  0.001
      -0.000  0.000 -0.000  0.001  0.991
     SPIN  2
     eigenvalues:
       0.040  0.042  0.042  0.078  0.106
     eigenvectors (columns):
      -0.000 -0.000 -0.000  1.000  0.000
       0.001  0.392 -0.920  0.000 -0.000
       0.000 -0.920 -0.392 -0.000  0.000
       0.986  0.000  0.001  0.000 -0.168
       0.168  0.000  0.000 -0.000  0.986
     occupation matrix ns (before diag.):
       0.078  0.000 -0.000  0.000  0.000
       0.000  0.042  0.000 -0.000 -0.000
      -0.000  0.000  0.042 -0.000  0.000
       0.000 -0.000 -0.000  0.042 -0.011
       0.000 -0.000  0.000 -0.011  0.104
     ------------------------ ATOM   11 ------------------------
     Tr[ns( 11)] (up, down, total) =   0.30845  4.93717  5.24561
     Atomic magnetic moment for atom  11 =  -4.62872
     SPIN  1
     eigenvalues:
       0.040  0.042  0.042  0.078  0.106
     eigenvectors (columns):
      -0.000 -0.000 -0.000 -1.000  0.000
      -0.000  0.553 -0.833  0.000  0.000
      -0.000 -0.833 -0.553  0.000  0.000
       0.986 -0.000 -0.000 -0.000 -0.168
       0.168 -0.000 -0.000 -0.000  0.986
     occupation matrix ns (before diag.):
       0.078 -0.000 -0.000  0.000  0.000
      -0.000  0.042  0.000  0.000  0.000
      -0.000  0.000  0.042  0.000  0.000
       0.000  0.000  0.000  0.042 -0.011
       0.000  0.000  0.000 -0.011  0.104
     SPIN  2
     eigenvalues:
       0.962  0.991  0.994  0.994  0.997
     eigenvectors (columns):
      -1.000  0.000 -0.000  0.000  0.000
      -0.000 -0.000 -0.403 -0.915 -0.000
      -0.000 -0.000  0.915 -0.403 -0.000
      -0.000 -0.140 -0.000  0.000 -0.990
       0.000  0.990  0.000 -0.000 -0.140
     occupation matrix ns (before diag.):
       0.962 -0.000 -0.000 -0.000  0.000
      -0.000  0.994  0.000  0.000  0.000
      -0.000  0.000  0.994  0.000  0.000
      -0.000  0.000  0.000  0.997  0.001
       0.000  0.000  0.000  0.001  0.991
     ------------------------ ATOM   12 ------------------------
     Tr[ns( 12)] (up, down, total) =   0.30850  4.93717  5.24566
     Atomic magnetic moment for atom  12 =  -4.62867
     SPIN  1
     eigenvalues:
       0.040  0.042  0.042  0.078  0.106
     eigenvectors (columns):
      -0.000 -0.000 -0.000 -1.000 -0.000
      -0.000  0.842 -0.539  0.000  0.000
      -0.000 -0.539 -0.842  0.000  0.000
       0.986 -0.000 -0.000 -0.000 -0.168
       0.168  0.000 -0.000 -0.000  0.986
     occupation matrix ns (before diag.):
       0.078 -0.000 -0.000  0.000  0.000
      -0.000  0.042  0.000  0.000  0.000
      -0.000  0.000  0.042  0.000  0.000
       0.000  0.000  0.000  0.042 -0.011
       0.000  0.000  0.000 -0.011  0.104
     SPIN  2
     eigenvalues:
       0.962  0.991  0.994  0.994  0.997
     eigenvectors (columns):
       1.000  0.000 -0.000  0.000  0.000
       0.000 -0.000  0.993 -0.118 -0.000
       0.000 -0.000 -0.118 -0.993 -0.000
       0.000 -0.140 -0.000  0.000 -0.990
       0.000  0.990  0.000 -0.000 -0.140
     occupation matrix ns (before diag.):
       0.962 -0.000 -0.000 -0.000 -0.000
      -0.000  0.994  0.000  0.000  0.000
      -0.000  0.000  0.994  0.000  0.000
      -0.000  0.000  0.000  0.997  0.001
      -0.000  0.000  0.000  0.001  0.991
     ------------------------ ATOM   13 ------------------------
     Tr[ns( 13)] (up, down, total) =   4.97226  0.90110  5.87336
     Atomic magnetic moment for atom  13 =   4.07116
     SPIN  1
     eigenvalues:
       0.988  0.992  0.997  0.997  0.998
     eigenvectors (columns):
       1.000 -0.000 -0.000 -0.000  0.000
       0.000 -0.000 -0.061  0.998 -0.000
       0.000 -0.000  0.998  0.061 -0.000
       0.000  0.193 -0.000 -0.000 -0.981
       0.000  0.981  0.000  0.000  0.193
     occupation matrix ns (before diag.):
       0.988 -0.000 -0.000 -0.000 -0.000
      -0.000  0.997  0.000  0.000  0.000
      -0.000  0.000  0.997  0.000  0.000
      -0.000  0.000  0.000  0.998 -0.001
      -0.000  0.000  0.000 -0.001  0.993
     SPIN  2
     eigenvalues:
       0.097  0.138  0.138  0.256  0.271
     eigenvectors (columns):
       0.000 -0.000 -0.000 -1.000  0.000
      -0.000 -0.629  0.777  0.000  0.000
      -0.000 -0.777 -0.629  0.000  0.000
       0.980 -0.000 -0.000  0.000  0.201
      -0.201  0.000  0.000  0.000  0.980
     occupation matrix ns (before diag.):
       0.256 -0.000 -0.000 -0.000  0.000
      -0.000  0.138 -0.000  0.000  0.000
      -0.000 -0.000  0.138  0.000  0.000
      -0.000  0.000  0.000  0.104  0.034
       0.000  0.000  0.000  0.034  0.264
     ------------------------ ATOM   14 ------------------------
     Tr[ns( 14)] (up, down, total) =   4.97225  0.90109  5.87335
     Atomic magnetic moment for atom  14 =   4.07116
     SPIN  1
     eigenvalues:
       0.988  0.992  0.997  0.997  0.998
     eigenvectors (columns):
      -1.000  0.000 -0.000 -0.000  0.000
      -0.000 -0.000  0.817 -0.577 -0.000
      -0.000 -0.000  0.577  0.817 -0.000
      -0.000  0.193 -0.000 -0.000 -0.981
       0.000  0.981  0.000  0.000  0.193
     occupation matrix ns (before diag.):
       0.988 -0.000 -0.000 -0.000  0.000
      -0.000  0.997 -0.000  0.000  0.000
      -0.000 -0.000  0.997  0.000  0.000
      -0.000  0.000  0.000  0.998 -0.001
       0.000  0.000  0.000 -0.001  0.993
     SPIN  2
     eigenvalues:
       0.097  0.138  0.138  0.256  0.271
     eigenvectors (columns):
      -0.000 -0.000 -0.000  1.000 -0.000
      -0.000 -0.053 -0.999 -0.000  0.000
      -0.000 -0.999  0.053 -0.000  0.000
       0.980 -0.000 -0.000  0.000  0.201
      -0.201  0.000  0.000  0.000  0.980
     occupation matrix ns (before diag.):
       0.256 -0.000 -0.000  0.000 -0.000
      -0.000  0.138 -0.000  0.000  0.000
      -0.000 -0.000  0.138  0.000  0.000
       0.000  0.000  0.000  0.104  0.034
      -0.000  0.000  0.000  0.034  0.264
     ------------------------ ATOM   15 ------------------------
     Tr[ns( 15)] (up, down, total) =   0.90111  4.97226  5.87336
     Atomic magnetic moment for atom  15 =  -4.07115
     SPIN  1
     eigenvalues:
       0.097  0.138  0.138  0.256  0.271
     eigenvectors (columns):
      -0.000 -0.000  0.000  1.000 -0.000
      -0.000 -0.218  0.976 -0.000 -0.000
       0.000  0.976  0.218  0.000  0.000
       0.980 -0.000  0.000  0.000  0.201
      -0.201 -0.000  0.000  0.000  0.980
     occupation matrix ns (before diag.):
       0.256 -0.000  0.000 -0.000 -0.000
      -0.000  0.138  0.000  0.000 -0.000
       0.000  0.000  0.138 -0.000  0.000
      -0.000  0.000 -0.000  0.104  0.034
      -0.000 -0.000  0.000  0.034  0.264
     SPIN  2
     eigenvalues:
       0.988  0.992  0.997  0.997  0.998
     eigenvectors (columns):
       1.000 -0.000  0.000  0.000  0.000
      -0.000 -0.000  0.910  0.415 -0.000
      -0.000  0.000  0.415 -0.910  0.000
       0.000  0.193  0.000 -0.000 -0.981
       0.000  0.981  0.000  0.000  0.193
     occupation matrix ns (before diag.):
       0.988  0.000  0.000 -0.000 -0.000
       0.000  0.997 -0.000  0.000  0.000
       0.000 -0.000  0.997 -0.000  0.000
      -0.000  0.000 -0.000  0.998 -0.001
      -0.000  0.000  0.000 -0.001  0.993
     ------------------------ ATOM   16 ------------------------
     Tr[ns( 16)] (up, down, total) =   0.90111  4.97226  5.87336
     Atomic magnetic moment for atom  16 =  -4.07115
     SPIN  1
     eigenvalues:
       0.097  0.138  0.138  0.256  0.271
     eigenvectors (columns):
      -0.000  0.000  0.000 -1.000 -0.000
       0.000 -0.218 -0.976 -0.000  0.000
      -0.000  0.976 -0.218  0.000 -0.000
       0.980  0.000  0.000 -0.000  0.201
      -0.201  0.000  0.000 -0.000  0.980
     occupation matrix ns (before diag.):
       0.256  0.000 -0.000 -0.000 -0.000
       0.000  0.138  0.000 -0.000  0.000
      -0.000  0.000  0.138  0.000 -0.000
      -0.000 -0.000  0.000  0.104  0.034
      -0.000  0.000 -0.000  0.034  0.264
     SPIN  2
     eigenvalues:
       0.988  0.992  0.997  0.997  0.998
     eigenvectors (columns):
       1.000 -0.000 -0.000 -0.000  0.000
       0.000  0.000  0.910  0.415  0.000
       0.000 -0.000  0.415 -0.910 -0.000
       0.000  0.193 -0.000  0.000 -0.981
       0.000  0.981 -0.000 -0.000  0.193
     occupation matrix ns (before diag.):
       0.988 -0.000 -0.000 -0.000 -0.000
      -0.000  0.997 -0.000 -0.000 -0.000
      -0.000 -0.000  0.997  0.000 -0.000
      -0.000 -0.000  0.000  0.998 -0.001
      -0.000 -0.000 -0.000 -0.001  0.993

     Number of occupied Hubbard levels =   44.4761

     HUBBARD ENERGY =    0.6461  (Ry)

     total cpu time spent up to now is      391.3 secs

     total energy              =   -3088.77849493 Ry
     estimated scf accuracy    <       0.00116890 Ry

     total magnetization       =    -0.00 Bohr mag/cell
     absolute magnetization    =    38.96 Bohr mag/cell

     iteration #  8     ecut=    90.00 Ry     beta= 0.30
     Davidson diagonalization with overlap

---- Real-time Memory Report at c_bands before calling an iterative solver
          1293 MiB given to the printing process from OS
           810 MiB allocation reported by mallinfo(arena+hblkhd)
        667039 MiB available memory on the node where the printing process lives
------------------
     ethr =  3.56E-07,  avg # of iterations =  7.1

     =================== HUBBARD OCCUPATIONS ===================
     ------------------------ ATOM    9 ------------------------
     Tr[ns(  9)] (up, down, total) =   4.93746  0.30847  5.24592
     Atomic magnetic moment for atom   9 =   4.62899
     SPIN  1
     eigenvalues:
       0.962  0.991  0.994  0.994  0.997
     eigenvectors (columns):
      -1.000 -0.000  0.000 -0.000 -0.000
       0.000 -0.000  0.164  0.986 -0.000
      -0.000 -0.000 -0.986  0.164 -0.000
       0.000 -0.139  0.000 -0.000 -0.990
      -0.000  0.990 -0.000  0.000 -0.139
     occupation matrix ns (before diag.):
       0.962  0.000 -0.000  0.000 -0.000
       0.000  0.994  0.000  0.000  0.000
      -0.000  0.000  0.994  0.000  0.000
       0.000  0.000  0.000  0.997  0.001
      -0.000  0.000  0.000  0.001  0.991
     SPIN  2
     eigenvalues:
       0.040  0.042  0.042  0.078  0.106
     eigenvectors (columns):
       0.000 -0.000  0.000  1.000  0.000
       0.000 -0.584 -0.812 -0.000 -0.000
       0.000  0.812 -0.584  0.000 -0.000
      -0.986 -0.000 -0.000  0.000 -0.169
      -0.169 -0.000 -0.000 -0.000  0.986
     occupation matrix ns (before diag.):
       0.078 -0.000  0.000  0.000  0.000
      -0.000  0.042  0.000  0.000 -0.000
       0.000  0.000  0.042  0.000 -0.000
       0.000  0.000  0.000  0.042 -0.011
       0.000 -0.000 -0.000 -0.011  0.104
     ------------------------ ATOM   10 ------------------------
     Tr[ns( 10)] (up, down, total) =   4.93746  0.30847  5.24592
     Atomic magnetic moment for atom  10 =   4.62899
     SPIN  1
     eigenvalues:
       0.962  0.991  0.994  0.994  0.997
     eigenvectors (columns):
      -1.000 -0.000 -0.000  0.000 -0.000
      -0.000  0.000  0.164  0.986  0.000
       0.000  0.000 -0.986  0.164  0.000
       0.000 -0.139 -0.000  0.000 -0.990
      -0.000  0.990  0.000 -0.000 -0.139
     occupation matrix ns (before diag.):
       0.962 -0.000  0.000  0.000 -0.000
      -0.000  0.994  0.000 -0.000 -0.000
       0.000  0.000  0.994 -0.000 -0.000
       0.000 -0.000 -0.000  0.997  0.001
      -0.000 -0.000 -0.000  0.001  0.991
     SPIN  2
     eigenvalues:
       0.040  0.042  0.042  0.078  0.106
     eigenvectors (columns):
      -0.000 -0.000 -0.000  1.000  0.000
       0.000  0.584 -0.812  0.000  0.000
       0.000 -0.812 -0.584 -0.000  0.000
       0.986 -0.000  0.000  0.000 -0.169
       0.169 -0.000  0.000 -0.000  0.986
     occupation matrix ns (before diag.):
       0.078  0.000 -0.000  0.000  0.000
       0.000  0.042  0.000 -0.000  0.000
      -0.000  0.000  0.042 -0.000  0.000
       0.000 -0.000 -0.000  0.042 -0.011
       0.000  0.000  0.000 -0.011  0.104
     ------------------------ ATOM   11 ------------------------
     Tr[ns( 11)] (up, down, total) =   0.30844  4.93747  5.24591
     Atomic magnetic moment for atom  11 =  -4.62903
     SPIN  1
     eigenvalues:
       0.040  0.042  0.042  0.078  0.106
     eigenvectors (columns):
      -0.000 -0.000 -0.000 -1.000 -0.000
      -0.000  0.790 -0.614  0.000  0.000
      -0.000 -0.614 -0.790  0.000  0.000
       0.986 -0.000 -0.000 -0.000 -0.169
       0.169 -0.000 -0.000 -0.000  0.986
     occupation matrix ns (before diag.):
       0.078 -0.000 -0.000  0.000 -0.000
      -0.000  0.042  0.000  0.000  0.000
      -0.000  0.000  0.042  0.000  0.000
       0.000  0.000  0.000  0.042 -0.011
      -0.000  0.000  0.000 -0.011  0.104
     SPIN  2
     eigenvalues:
       0.962  0.991  0.994  0.994  0.997
     eigenvectors (columns):
      -1.000  0.000 -0.000  0.000  0.000
      -0.000 -0.000 -0.211 -0.978 -0.000
      -0.000 -0.000  0.978 -0.211 -0.000
      -0.000 -0.139 -0.000  0.000 -0.990
       0.000  0.990  0.000 -0.000 -0.139
     occupation matrix ns (before diag.):
       0.962 -0.000 -0.000 -0.000  0.000
      -0.000  0.994  0.000  0.000  0.000
      -0.000  0.000  0.994  0.000  0.000
      -0.000  0.000  0.000  0.997  0.001
       0.000  0.000  0.000  0.001  0.991
     ------------------------ ATOM   12 ------------------------
     Tr[ns( 12)] (up, down, total) =   0.30847  4.93747  5.24593
     Atomic magnetic moment for atom  12 =  -4.62900
     SPIN  1
     eigenvalues:
       0.040  0.042  0.042  0.078  0.106
     eigenvectors (columns):
      -0.000  0.000 -0.000  1.000  0.000
      -0.000 -0.851 -0.525 -0.000  0.000
      -0.000  0.525 -0.851 -0.000  0.000
       0.986  0.000 -0.000  0.000 -0.168
       0.168 -0.000 -0.000 -0.000  0.986
     occupation matrix ns (before diag.):
       0.078 -0.000 -0.000  0.000  0.000
      -0.000  0.042  0.000  0.000  0.000
      -0.000  0.000  0.042  0.000  0.000
       0.000  0.000  0.000  0.042 -0.011
       0.000  0.000  0.000 -0.011  0.104
     SPIN  2
     eigenvalues:
       0.962  0.991  0.994  0.994  0.997
     eigenvectors (columns):
       1.000 -0.000 -0.000  0.000  0.000
       0.000 -0.000  0.994  0.111 -0.000
       0.000 -0.000  0.111 -0.994 -0.000
       0.000 -0.139 -0.000  0.000 -0.990
       0.000  0.990  0.000 -0.000 -0.139
     occupation matrix ns (before diag.):
       0.962 -0.000 -0.000 -0.000 -0.000
      -0.000  0.994 -0.000  0.000  0.000
      -0.000 -0.000  0.994  0.000  0.000
      -0.000  0.000  0.000  0.997  0.001
      -0.000  0.000  0.000  0.001  0.991
     ------------------------ ATOM   13 ------------------------
     Tr[ns( 13)] (up, down, total) =   4.97225  0.89105  5.86329
     Atomic magnetic moment for atom  13 =   4.08120
     SPIN  1
     eigenvalues:
       0.988  0.992  0.997  0.997  0.998
     eigenvectors (columns):
      -1.000  0.000 -0.000 -0.000  0.000
      -0.000 -0.000  0.531 -0.848 -0.000
      -0.000 -0.000  0.848  0.531 -0.000
      -0.000  0.193 -0.000 -0.000 -0.981
       0.000  0.981  0.000  0.000  0.193
     occupation matrix ns (before diag.):
       0.988 -0.000 -0.000 -0.000  0.000
      -0.000  0.997 -0.000  0.000  0.000
      -0.000 -0.000  0.997  0.000  0.000
      -0.000  0.000  0.000  0.998 -0.001
       0.000  0.000  0.000 -0.001  0.993
     SPIN  2
     eigenvalues:
       0.096  0.136  0.136  0.254  0.269
     eigenvectors (columns):
       0.000 -0.000 -0.000 -1.000  0.000
      -0.000 -0.670  0.742  0.000  0.000
      -0.000 -0.742 -0.670  0.000  0.000
       0.980 -0.000 -0.000  0.000  0.201
      -0.201  0.000  0.000  0.000  0.980
     occupation matrix ns (before diag.):
       0.254 -0.000 -0.000 -0.000  0.000
      -0.000  0.136 -0.000  0.000  0.000
      -0.000 -0.000  0.136  0.000  0.000
      -0.000  0.000  0.000  0.103  0.034
       0.000  0.000  0.000  0.034  0.262
     ------------------------ ATOM   14 ------------------------
     Tr[ns( 14)] (up, down, total) =   4.97225  0.89104  5.86329
     Atomic magnetic moment for atom  14 =   4.08120
     SPIN  1
     eigenvalues:
       0.988  0.992  0.997  0.997  0.998
     eigenvectors (columns):
      -1.000  0.000 -0.000 -0.000  0.000
      -0.000 -0.000  0.881 -0.473 -0.000
      -0.000 -0.000  0.473  0.881 -0.000
      -0.000  0.193 -0.000 -0.000 -0.981
       0.000  0.981  0.000  0.000  0.193
     occupation matrix ns (before diag.):
       0.988 -0.000 -0.000 -0.000  0.000
      -0.000  0.997 -0.000  0.000  0.000
      -0.000 -0.000  0.997  0.000  0.000
      -0.000  0.000  0.000  0.998 -0.001
       0.000  0.000  0.000 -0.001  0.993
     SPIN  2
     eigenvalues:
       0.096  0.136  0.136  0.254  0.269
     eigenvectors (columns):
      -0.000 -0.000 -0.000  1.000 -0.000
      -0.000 -0.068 -0.998 -0.000  0.000
      -0.000 -0.998  0.068 -0.000  0.000
       0.980 -0.000 -0.000  0.000  0.201
      -0.201  0.000  0.000  0.000  0.980
     occupation matrix ns (before diag.):
       0.254 -0.000 -0.000  0.000 -0.000
      -0.000  0.136 -0.000  0.000  0.000
      -0.000 -0.000  0.136  0.000  0.000
       0.000  0.000  0.000  0.103  0.034
      -0.000  0.000  0.000  0.034  0.262
     ------------------------ ATOM   15 ------------------------
     Tr[ns( 15)] (up, down, total) =   0.89105  4.97225  5.86331
     Atomic magnetic moment for atom  15 =  -4.08120
     SPIN  1
     eigenvalues:
       0.096  0.136  0.136  0.254  0.269
     eigenvectors (columns):
      -0.000 -0.000 -0.000  1.000 -0.000
      -0.000 -0.510 -0.860 -0.000  0.000
       0.000  0.860 -0.510  0.000  0.000
       0.980 -0.000 -0.000  0.000  0.201
      -0.201 -0.000  0.000  0.000  0.980
     occupation matrix ns (before diag.):
       0.254 -0.000  0.000  0.000 -0.000
      -0.000  0.136  0.000  0.000  0.000
       0.000  0.000  0.136 -0.000  0.000
       0.000  0.000 -0.000  0.103  0.034
      -0.000  0.000  0.000  0.034  0.262
     SPIN  2
     eigenvalues:
       0.988  0.992  0.997  0.997  0.998
     eigenvectors (columns):
      -1.000  0.000  0.000  0.000  0.000
       0.000  0.000  0.957  0.291 -0.000
      -0.000 -0.000  0.291 -0.957 -0.000
      -0.000  0.193 -0.000 -0.000 -0.981
       0.000  0.981  0.000 -0.000  0.193
     occupation matrix ns (before diag.):
       0.988  0.000 -0.000 -0.000  0.000
       0.000  0.997 -0.000  0.000 -0.000
      -0.000 -0.000  0.997  0.000  0.000
      -0.000  0.000  0.000  0.998 -0.001
       0.000 -0.000  0.000 -0.001  0.993
     ------------------------ ATOM   16 ------------------------
     Tr[ns( 16)] (up, down, total) =   0.89105  4.97225  5.86331
     Atomic magnetic moment for atom  16 =  -4.08120
     SPIN  1
     eigenvalues:
       0.096  0.136  0.136  0.254  0.269
     eigenvectors (columns):
      -0.000 -0.000  0.000 -1.000 -0.000
       0.000  0.510 -0.860 -0.000 -0.000
      -0.000 -0.860 -0.510  0.000 -0.000
       0.980 -0.000  0.000 -0.000  0.201
      -0.201 -0.000 -0.000 -0.000  0.980
     occupation matrix ns (before diag.):
       0.254  0.000 -0.000  0.000 -0.000
       0.000  0.136  0.000 -0.000 -0.000
      -0.000  0.000  0.136  0.000 -0.000
       0.000 -0.000  0.000  0.103  0.034
      -0.000 -0.000 -0.000  0.034  0.262
     SPIN  2
     eigenvalues:
       0.988  0.992  0.997  0.997  0.998
     eigenvectors (columns):
      -1.000  0.000 -0.000 -0.000  0.000
      -0.000 -0.000  0.957  0.291  0.000
       0.000  0.000  0.291 -0.957  0.000
      -0.000  0.193  0.000  0.000 -0.981
       0.000  0.981 -0.000  0.000  0.193
     occupation matrix ns (before diag.):
       0.988 -0.000  0.000 -0.000  0.000
      -0.000  0.997 -0.000 -0.000  0.000
       0.000 -0.000  0.997 -0.000 -0.000
      -0.000 -0.000 -0.000  0.998 -0.001
       0.000  0.000 -0.000 -0.001  0.993

     Number of occupied Hubbard levels =   44.4369

     HUBBARD ENERGY =    0.6383  (Ry)

     total cpu time spent up to now is      448.7 secs

     total energy              =   -3088.77818624 Ry
     estimated scf accuracy    <       0.00154390 Ry

     total magnetization       =    -0.00 Bohr mag/cell
     absolute magnetization    =    38.98 Bohr mag/cell

     iteration #  9     ecut=    90.00 Ry     beta= 0.30
     Davidson diagonalization with overlap

---- Real-time Memory Report at c_bands before calling an iterative solver
          1305 MiB given to the printing process from OS
           822 MiB allocation reported by mallinfo(arena+hblkhd)
        667188 MiB available memory on the node where the printing process lives
------------------
     c_bands:  1 eigenvalues not converged
     ethr =  3.56E-07,  avg # of iterations =  6.8

     =================== HUBBARD OCCUPATIONS ===================
     ------------------------ ATOM    9 ------------------------
     Tr[ns(  9)] (up, down, total) =   4.93745  0.31049  5.24794
     Atomic magnetic moment for atom   9 =   4.62696
     SPIN  1
     eigenvalues:
       0.962  0.991  0.994  0.994  0.997
     eigenvectors (columns):
       1.000  0.000 -0.000 -0.000 -0.000
      -0.000 -0.000  0.711 -0.703  0.000
       0.000 -0.000  0.703  0.711 -0.000
      -0.000 -0.140 -0.000 -0.000 -0.990
      -0.000  0.990  0.000 -0.000 -0.140
     occupation matrix ns (before diag.):
       0.962  0.000 -0.000  0.000  0.000
       0.000  0.994 -0.000 -0.000  0.000
      -0.000 -0.000  0.994  0.000  0.000
       0.000 -0.000  0.000  0.997  0.001
       0.000  0.000  0.000  0.001  0.991
     SPIN  2
     eigenvalues:
       0.041  0.042  0.042  0.079  0.107
     eigenvectors (columns):
       0.000  0.000 -0.000  1.000  0.000
       0.000 -0.989 -0.149 -0.000 -0.000
       0.000 -0.149  0.989  0.000 -0.000
      -0.986 -0.000  0.000  0.000 -0.168
      -0.168 -0.000  0.000 -0.000  0.986
     occupation matrix ns (before diag.):
       0.079 -0.000  0.000  0.000  0.000
      -0.000  0.042 -0.000  0.000 -0.000
       0.000 -0.000  0.042  0.000 -0.000
       0.000  0.000  0.000  0.042 -0.011
       0.000 -0.000 -0.000 -0.011  0.105
     ------------------------ ATOM   10 ------------------------
     Tr[ns( 10)] (up, down, total) =   4.93745  0.31049  5.24794
     Atomic magnetic moment for atom  10 =   4.62696
     SPIN  1
     eigenvalues:
       0.962  0.991  0.994  0.994  0.997
     eigenvectors (columns):
       1.000  0.000  0.000  0.000 -0.000
       0.000  0.000  0.711 -0.703 -0.000
      -0.000  0.000  0.703  0.711  0.000
      -0.000 -0.140  0.000  0.000 -0.990
      -0.000  0.990 -0.000  0.000 -0.140
     occupation matrix ns (before diag.):
       0.962 -0.000  0.000  0.000  0.000
      -0.000  0.994 -0.000  0.000 -0.000
       0.000 -0.000  0.994 -0.000 -0.000
       0.000  0.000 -0.000  0.997  0.001
       0.000 -0.000 -0.000  0.001  0.991
     SPIN  2
     eigenvalues:
       0.041  0.042  0.042  0.079  0.107
     eigenvectors (columns):
      -0.000 -0.000 -0.000  1.000  0.000
       0.000 -0.989  0.149  0.000  0.000
       0.000 -0.149 -0.989 -0.000  0.000
       0.986  0.000  0.000  0.000 -0.168
       0.168  0.000  0.000 -0.000  0.986
     occupation matrix ns (before diag.):
       0.079  0.000 -0.000  0.000  0.000
       0.000  0.042 -0.000 -0.000  0.000
      -0.000 -0.000  0.042 -0.000  0.000
       0.000 -0.000 -0.000  0.042 -0.011
       0.000  0.000  0.000 -0.011  0.105
     ------------------------ ATOM   11 ------------------------
     Tr[ns( 11)] (up, down, total) =   0.31049  4.93746  5.24795
     Atomic magnetic moment for atom  11 =  -4.62697
     SPIN  1
     eigenvalues:
       0.041  0.042  0.042  0.079  0.107
     eigenvectors (columns):
      -0.000 -0.000 -0.000 -1.000 -0.000
      -0.000 -0.449  0.893  0.000  0.000
      -0.000 -0.893 -0.449  0.000  0.000
       0.986 -0.000 -0.000 -0.000 -0.168
       0.168 -0.000  0.000 -0.000  0.986
     occupation matrix ns (before diag.):
       0.079 -0.000 -0.000  0.000 -0.000
      -0.000  0.042 -0.000  0.000  0.000
      -0.000 -0.000  0.042  0.000  0.000
       0.000  0.000  0.000  0.042 -0.011
      -0.000  0.000  0.000 -0.011  0.105
     SPIN  2
     eigenvalues:
       0.962  0.991  0.994  0.994  0.997
     eigenvectors (columns):
       1.000 -0.000 -0.000 -0.000  0.000
       0.000 -0.000  0.286  0.958 -0.000
       0.000 -0.000  0.958 -0.286 -0.000
       0.000 -0.140 -0.000 -0.000 -0.990
       0.000  0.990  0.000  0.000 -0.140
     occupation matrix ns (before diag.):
       0.962 -0.000 -0.000 -0.000 -0.000
      -0.000  0.994 -0.000  0.000  0.000
      -0.000 -0.000  0.994  0.000  0.000
      -0.000  0.000  0.000  0.997  0.001
      -0.000  0.000  0.000  0.001  0.991
     ------------------------ ATOM   12 ------------------------
     Tr[ns( 12)] (up, down, total) =   0.31051  4.93745  5.24797
     Atomic magnetic moment for atom  12 =  -4.62694
     SPIN  1
     eigenvalues:
       0.041  0.042  0.042  0.079  0.107
     eigenvectors (columns):
      -0.000 -0.000 -0.000 -1.000 -0.000
      -0.000  0.717 -0.697  0.000  0.000
      -0.000 -0.697 -0.717  0.000  0.000
       0.986 -0.000 -0.000 -0.000 -0.168
       0.168 -0.000 -0.000 -0.000  0.986
     occupation matrix ns (before diag.):
       0.079 -0.000 -0.000  0.000 -0.000
      -0.000  0.042  0.000  0.000  0.000
      -0.000  0.000  0.042  0.000  0.000
       0.000  0.000  0.000  0.042 -0.011
      -0.000  0.000  0.000 -0.011  0.105
     SPIN  2
     eigenvalues:
       0.962  0.991  0.994  0.994  0.997
     eigenvectors (columns):
       1.000 -0.000 -0.000  0.000  0.000
       0.000 -0.000  0.665  0.747 -0.000
       0.000 -0.000  0.747 -0.665 -0.000
       0.000 -0.140 -0.000  0.000 -0.990
       0.000  0.990  0.000 -0.000 -0.140
     occupation matrix ns (before diag.):
       0.962 -0.000 -0.000 -0.000 -0.000
      -0.000  0.994 -0.000  0.000  0.000
      -0.000 -0.000  0.994  0.000  0.000
      -0.000  0.000  0.000  0.997  0.001
      -0.000  0.000  0.000  0.001  0.991
     ------------------------ ATOM   13 ------------------------
     Tr[ns( 13)] (up, down, total) =   4.97222  0.89539  5.86761
     Atomic magnetic moment for atom  13 =   4.07683
     SPIN  1
     eigenvalues:
       0.988  0.992  0.997  0.997  0.998
     eigenvectors (columns):
      -1.000  0.000 -0.000  0.000  0.000
      -0.000 -0.000  0.029 -1.000 -0.000
      -0.000 -0.000  1.000  0.029 -0.000
      -0.000  0.193 -0.000  0.000 -0.981
       0.000  0.981  0.000 -0.000  0.193
     occupation matrix ns (before diag.):
       0.988 -0.000 -0.000 -0.000  0.000
      -0.000  0.997 -0.000  0.000  0.000
      -0.000 -0.000  0.997  0.000  0.000
      -0.000  0.000  0.000  0.998 -0.001
       0.000  0.000  0.000 -0.001  0.993
     SPIN  2
     eigenvalues:
       0.097  0.137  0.137  0.255  0.270
     eigenvectors (columns):
       0.000 -0.000  0.000  1.000 -0.000
      -0.000 -0.718 -0.696 -0.000  0.000
      -0.000 -0.696  0.718 -0.000  0.000
       0.980 -0.000  0.000 -0.000  0.201
      -0.201  0.000 -0.000  0.000  0.980
     occupation matrix ns (before diag.):
       0.255 -0.000 -0.000 -0.000  0.000
      -0.000  0.137 -0.000  0.000  0.000
      -0.000 -0.000  0.137  0.000  0.000
      -0.000  0.000  0.000  0.104  0.034
       0.000  0.000  0.000  0.034  0.263
     ------------------------ ATOM   14 ------------------------
     Tr[ns( 14)] (up, down, total) =   4.97222  0.89541  5.86763
     Atomic magnetic moment for atom  14 =   4.07681
     SPIN  1
     eigenvalues:
       0.988  0.992  0.997  0.997  0.998
     eigenvectors (columns):
      -1.000  0.000 -0.000  0.000  0.000
      -0.000 -0.000 -0.135 -0.991 -0.000
      -0.000 -0.000  0.991 -0.135 -0.000
       0.000  0.193 -0.000  0.000 -0.981
       0.000  0.981  0.000 -0.000  0.193
     occupation matrix ns (before diag.):
       0.988 -0.000 -0.000 -0.000  0.000
      -0.000  0.997  0.000  0.000  0.000
      -0.000  0.000  0.997  0.000  0.000
      -0.000  0.000  0.000  0.998 -0.001
       0.000  0.000  0.000 -0.001  0.993
     SPIN  2
     eigenvalues:
       0.097  0.137  0.137  0.255  0.270
     eigenvectors (columns):
      -0.000  0.000 -0.000 -1.000  0.000
      -0.000  0.959  0.283  0.000  0.000
      -0.000  0.283 -0.959  0.000  0.000
       0.980  0.000 -0.000 -0.000  0.201
      -0.201 -0.000  0.000  0.000  0.980
     occupation matrix ns (before diag.):
       0.255 -0.000 -0.000  0.000  0.000
      -0.000  0.137 -0.000  0.000  0.000
      -0.000 -0.000  0.137  0.000  0.000
       0.000  0.000  0.000  0.104  0.034
       0.000  0.000  0.000  0.034  0.263
     ------------------------ ATOM   15 ------------------------
     Tr[ns( 15)] (up, down, total) =   0.89538  4.97222  5.86760
     Atomic magnetic moment for atom  15 =  -4.07684
     SPIN  1
     eigenvalues:
       0.097  0.137  0.137  0.255  0.270
     eigenvectors (columns):
      -0.000  0.000  0.000 -1.000  0.000
      -0.000  0.885  0.466  0.000 -0.000
      -0.000  0.466 -0.885  0.000  0.000
       0.980  0.000  0.000  0.000  0.201
      -0.201 -0.000  0.000  0.000  0.980
     occupation matrix ns (before diag.):
       0.255 -0.000 -0.000  0.000  0.000
      -0.000  0.137 -0.000  0.000 -0.000
      -0.000 -0.000  0.137  0.000  0.000
       0.000  0.000  0.000  0.104  0.034
       0.000 -0.000  0.000  0.034  0.263
     SPIN  2
     eigenvalues:
       0.988  0.992  0.997  0.997  0.998
     eigenvectors (columns):
      -1.000 -0.000 -0.000 -0.000  0.000
       0.000  0.000 -0.436 -0.900  0.000
      -0.000  0.000  0.900 -0.436  0.000
      -0.000  0.193 -0.000 -0.000 -0.981
      -0.000  0.981  0.000  0.000  0.193
     occupation matrix ns (before diag.):
       0.988  0.000 -0.000 -0.000 -0.000
       0.000  0.997  0.000 -0.000 -0.000
      -0.000  0.000  0.997 -0.000 -0.000
      -0.000 -0.000 -0.000  0.998 -0.001
      -0.000 -0.000 -0.000 -0.001  0.993
     ------------------------ ATOM   16 ------------------------
     Tr[ns( 16)] (up, down, total) =   0.89538  4.97222  5.86760
     Atomic magnetic moment for atom  16 =  -4.07684
     SPIN  1
     eigenvalues:
       0.097  0.137  0.137  0.255  0.270
     eigenvectors (columns):
      -0.000  0.000 -0.000  1.000  0.000
       0.000 -0.885  0.466  0.000  0.000
       0.000 -0.466 -0.885  0.000 -0.000
       0.980  0.000 -0.000 -0.000  0.201
      -0.201 -0.000 -0.000 -0.000  0.980
     occupation matrix ns (before diag.):
       0.255  0.000  0.000  0.000  0.000
       0.000  0.137 -0.000 -0.000  0.000
       0.000 -0.000  0.137 -0.000 -0.000
       0.000 -0.000 -0.000  0.104  0.034
       0.000  0.000 -0.000  0.034  0.263
     SPIN  2
     eigenvalues:
       0.988  0.992  0.997  0.997  0.998
     eigenvectors (columns):
       1.000 -0.000 -0.000  0.000  0.000
       0.000 -0.000  0.436 -0.900 -0.000
      -0.000 -0.000 -0.900 -0.436 -0.000
       0.000  0.193 -0.000  0.000 -0.981
       0.000  0.981  0.000 -0.000  0.193
     occupation matrix ns (before diag.):
       0.988 -0.000  0.000 -0.000 -0.000
      -0.000  0.997  0.000  0.000  0.000
       0.000  0.000  0.997  0.000  0.000
      -0.000  0.000  0.000  0.998 -0.001
      -0.000  0.000  0.000 -0.001  0.993

     Number of occupied Hubbard levels =   44.4622

     HUBBARD ENERGY =    0.6383  (Ry)

     total cpu time spent up to now is      507.8 secs

     total energy              =   -3088.77843835 Ry
     estimated scf accuracy    <       0.00020854 Ry

     total magnetization       =    -0.00 Bohr mag/cell
     absolute magnetization    =    38.98 Bohr mag/cell

     iteration # 10     ecut=    90.00 Ry     beta= 0.30
     Davidson diagonalization with overlap

---- Real-time Memory Report at c_bands before calling an iterative solver
          1317 MiB given to the printing process from OS
           834 MiB allocation reported by mallinfo(arena+hblkhd)
        667042 MiB available memory on the node where the printing process lives
------------------
     ethr =  6.36E-08,  avg # of iterations =  2.7

     =================== HUBBARD OCCUPATIONS ===================
     ------------------------ ATOM    9 ------------------------
     Tr[ns(  9)] (up, down, total) =   4.93754  0.31056  5.24810
     Atomic magnetic moment for atom   9 =   4.62698
     SPIN  1
     eigenvalues:
       0.962  0.991  0.994  0.994  0.997
     eigenvectors (columns):
      -1.000  0.000 -0.000  0.000  0.000
       0.000 -0.000  0.669  0.743  0.000
      -0.000 -0.000  0.743 -0.669 -0.000
      -0.000 -0.139 -0.000  0.000 -0.990
       0.000  0.990  0.000 -0.000 -0.139
     occupation matrix ns (before diag.):
       0.962  0.000 -0.000 -0.000  0.000
       0.000  0.994 -0.000 -0.000  0.000
      -0.000 -0.000  0.994  0.000  0.000
      -0.000 -0.000  0.000  0.997  0.001
       0.000  0.000  0.000  0.001  0.991
     SPIN  2
     eigenvalues:
       0.041  0.042  0.042  0.079  0.107
     eigenvectors (columns):
       0.000  0.000  0.000  1.000  0.000
       0.000 -0.975  0.221 -0.000  0.000
       0.000 -0.221 -0.975  0.000 -0.000
      -0.986 -0.000 -0.000  0.000 -0.168
      -0.168 -0.000 -0.000 -0.000  0.986
     occupation matrix ns (before diag.):
       0.079 -0.000  0.000  0.000  0.000
      -0.000  0.042 -0.000  0.000  0.000
       0.000 -0.000  0.042  0.000 -0.000
       0.000  0.000  0.000  0.042 -0.011
       0.000  0.000 -0.000 -0.011  0.105
     ------------------------ ATOM   10 ------------------------
     Tr[ns( 10)] (up, down, total) =   4.93754  0.31056  5.24810
     Atomic magnetic moment for atom  10 =   4.62698
     SPIN  1
     eigenvalues:
       0.962  0.991  0.994  0.994  0.997
     eigenvectors (columns):
      -1.000  0.000  0.000 -0.000  0.000
      -0.000  0.000  0.669  0.743 -0.000
       0.000  0.000  0.743 -0.669  0.000
      -0.000 -0.139  0.000 -0.000 -0.990
       0.000  0.990 -0.000  0.000 -0.139
     occupation matrix ns (before diag.):
       0.962 -0.000  0.000 -0.000  0.000
      -0.000  0.994 -0.000  0.000 -0.000
       0.000 -0.000  0.994 -0.000 -0.000
      -0.000  0.000 -0.000  0.997  0.001
       0.000 -0.000 -0.000  0.001  0.991
     SPIN  2
     eigenvalues:
       0.041  0.042  0.042  0.079  0.107
     eigenvectors (columns):
      -0.000  0.000 -0.000  1.000  0.000
       0.000  0.975  0.221  0.000 -0.000
       0.000  0.221 -0.975 -0.000  0.000
       0.986 -0.000  0.000  0.000 -0.168
       0.168 -0.000  0.000 -0.000  0.986
     occupation matrix ns (before diag.):
       0.079  0.000 -0.000  0.000  0.000
       0.000  0.042 -0.000 -0.000 -0.000
      -0.000 -0.000  0.042 -0.000  0.000
       0.000 -0.000 -0.000  0.042 -0.011
       0.000 -0.000  0.000 -0.011  0.105
     ------------------------ ATOM   11 ------------------------
     Tr[ns( 11)] (up, down, total) =   0.31056  4.93755  5.24811
     Atomic magnetic moment for atom  11 =  -4.62699
     SPIN  1
     eigenvalues:
       0.041  0.042  0.042  0.079  0.107
     eigenvectors (columns):
      -0.000 -0.000 -0.000 -1.000 -0.000
      -0.000 -0.466  0.885  0.000  0.000
      -0.000 -0.885 -0.466  0.000  0.000
       0.986 -0.000 -0.000  0.000 -0.168
       0.168 -0.000  0.000 -0.000  0.986
     occupation matrix ns (before diag.):
       0.079 -0.000 -0.000  0.000 -0.000
      -0.000  0.042 -0.000  0.000  0.000
      -0.000 -0.000  0.042  0.000  0.000
       0.000  0.000  0.000  0.042 -0.011
      -0.000  0.000  0.000 -0.011  0.105
     SPIN  2
     eigenvalues:
       0.962  0.991  0.994  0.994  0.997
     eigenvectors (columns):
      -1.000  0.000 -0.000  0.000  0.000
      -0.000 -0.000  0.299 -0.954 -0.000
      -0.000 -0.000  0.954  0.299 -0.000
      -0.000 -0.139 -0.000  0.000 -0.990
       0.000  0.990  0.000 -0.000 -0.139
     occupation matrix ns (before diag.):
       0.962 -0.000 -0.000 -0.000  0.000
      -0.000  0.994 -0.000  0.000  0.000
      -0.000 -0.000  0.994  0.000  0.000
      -0.000  0.000  0.000  0.997  0.001
       0.000  0.000  0.000  0.001  0.991
     ------------------------ ATOM   12 ------------------------
     Tr[ns( 12)] (up, down, total) =   0.31058  4.93754  5.24812
     Atomic magnetic moment for atom  12 =  -4.62696
     SPIN  1
     eigenvalues:
       0.041  0.042  0.042  0.079  0.107
     eigenvectors (columns):
      -0.000 -0.000 -0.000 -1.000 -0.000
      -0.000  0.730 -0.683  0.000  0.000
      -0.000 -0.683 -0.730  0.000  0.000
       0.986 -0.000 -0.000  0.000 -0.168
       0.168 -0.000 -0.000 -0.000  0.986
     occupation matrix ns (before diag.):
       0.079 -0.000 -0.000  0.000 -0.000
      -0.000  0.042  0.000  0.000  0.000
      -0.000  0.000  0.042  0.000  0.000
       0.000  0.000  0.000  0.042 -0.011
      -0.000  0.000  0.000 -0.011  0.105
     SPIN  2
     eigenvalues:
       0.962  0.991  0.994  0.994  0.997
     eigenvectors (columns):
       1.000 -0.000 -0.000  0.000  0.000
       0.000 -0.000  0.465  0.885 -0.000
       0.000 -0.000  0.885 -0.465 -0.000
       0.000 -0.139 -0.000  0.000 -0.990
       0.000  0.990  0.000 -0.000 -0.139
     occupation matrix ns (before diag.):
       0.962 -0.000 -0.000 -0.000 -0.000
      -0.000  0.994 -0.000  0.000  0.000
      -0.000 -0.000  0.994  0.000  0.000
      -0.000  0.000  0.000  0.997  0.001
      -0.000  0.000  0.000  0.001  0.991
     ------------------------ ATOM   13 ------------------------
     Tr[ns( 13)] (up, down, total) =   4.97218  0.89181  5.86400
     Atomic magnetic moment for atom  13 =   4.08037
     SPIN  1
     eigenvalues:
       0.988  0.992  0.997  0.997  0.998
     eigenvectors (columns):
      -1.000  0.000 -0.000  0.000  0.000
      -0.000 -0.000  0.297 -0.955 -0.000
      -0.000 -0.000  0.955  0.297 -0.000
      -0.000  0.193 -0.000  0.000 -0.981
       0.000  0.981  0.000 -0.000  0.193
     occupation matrix ns (before diag.):
       0.988 -0.000 -0.000 -0.000  0.000
      -0.000  0.997 -0.000  0.000  0.000
      -0.000 -0.000  0.997  0.000  0.000
      -0.000  0.000  0.000  0.998 -0.001
       0.000  0.000  0.000 -0.001  0.993
     SPIN  2
     eigenvalues:
       0.096  0.136  0.136  0.254  0.270
     eigenvectors (columns):
      -0.000 -0.000 -0.000  1.000 -0.000
      -0.000 -0.990  0.144 -0.000  0.000
      -0.000 -0.144 -0.990 -0.000  0.000
       0.980 -0.000 -0.000  0.000  0.201
      -0.201  0.000  0.000  0.000  0.980
     occupation matrix ns (before diag.):
       0.254 -0.000 -0.000 -0.000 -0.000
      -0.000  0.136 -0.000  0.000  0.000
      -0.000 -0.000  0.136  0.000  0.000
      -0.000  0.000  0.000  0.103  0.034
      -0.000  0.000  0.000  0.034  0.263
     ------------------------ ATOM   14 ------------------------
     Tr[ns( 14)] (up, down, total) =   4.97218  0.89183  5.86401
     Atomic magnetic moment for atom  14 =   4.08035
     SPIN  1
     eigenvalues:
       0.988  0.992  0.997  0.997  0.998
     eigenvectors (columns):
      -1.000  0.000 -0.000  0.000  0.000
      -0.000 -0.000 -0.098 -0.995 -0.000
      -0.000 -0.000  0.995 -0.098 -0.000
      -0.000  0.193 -0.000  0.000 -0.981
       0.000  0.981  0.000 -0.000  0.193
     occupation matrix ns (before diag.):
       0.988 -0.000 -0.000 -0.000  0.000
      -0.000  0.997  0.000  0.000  0.000
      -0.000  0.000  0.997  0.000  0.000
      -0.000  0.000  0.000  0.998 -0.001
       0.000  0.000  0.000 -0.001  0.993
     SPIN  2
     eigenvalues:
       0.096  0.136  0.136  0.254  0.270
     eigenvectors (columns):
      -0.000  0.000 -0.000 -1.000  0.000
      -0.000  0.989  0.151  0.000  0.000
      -0.000  0.151 -0.989  0.000  0.000
       0.980  0.000 -0.000 -0.000  0.201
      -0.201 -0.000  0.000  0.000  0.980
     occupation matrix ns (before diag.):
       0.254 -0.000 -0.000  0.000 -0.000
      -0.000  0.136 -0.000  0.000  0.000
      -0.000 -0.000  0.136  0.000  0.000
       0.000  0.000  0.000  0.103  0.034
      -0.000  0.000  0.000  0.034  0.263
     ------------------------ ATOM   15 ------------------------
     Tr[ns( 15)] (up, down, total) =   0.89181  4.97218  5.86399
     Atomic magnetic moment for atom  15 =  -4.08037
     SPIN  1
     eigenvalues:
       0.096  0.136  0.136  0.254  0.270
     eigenvectors (columns):
      -0.000 -0.000 -0.000  1.000 -0.000
      -0.000 -0.897 -0.443 -0.000  0.000
      -0.000  0.443 -0.897 -0.000  0.000
       0.980 -0.000 -0.000  0.000  0.201
      -0.201  0.000  0.000  0.000  0.980
     occupation matrix ns (before diag.):
       0.254 -0.000 -0.000  0.000 -0.000
      -0.000  0.136  0.000  0.000  0.000
      -0.000  0.000  0.136  0.000  0.000
       0.000  0.000  0.000  0.103  0.034
      -0.000  0.000  0.000  0.034  0.263
     SPIN  2
     eigenvalues:
       0.988  0.992  0.997  0.997  0.998
     eigenvectors (columns):
       1.000  0.000  0.000 -0.000  0.000
      -0.000  0.000  0.707 -0.707  0.000
       0.000  0.000 -0.707 -0.707  0.000
       0.000  0.193 -0.000 -0.000 -0.981
      -0.000  0.981 -0.000  0.000  0.193
     occupation matrix ns (before diag.):
       0.988  0.000 -0.000 -0.000  0.000
       0.000  0.997  0.000 -0.000 -0.000
      -0.000  0.000  0.997 -0.000 -0.000
      -0.000 -0.000 -0.000  0.998 -0.001
       0.000 -0.000 -0.000 -0.001  0.993
     ------------------------ ATOM   16 ------------------------
     Tr[ns( 16)] (up, down, total) =   0.89181  4.97218  5.86399
     Atomic magnetic moment for atom  16 =  -4.08037
     SPIN  1
     eigenvalues:
       0.096  0.136  0.136  0.254  0.270
     eigenvectors (columns):
      -0.000 -0.000  0.000 -1.000 -0.000
       0.000  0.897 -0.443 -0.000 -0.000
       0.000 -0.443 -0.897 -0.000 -0.000
       0.980 -0.000  0.000 -0.000  0.201
      -0.201  0.000 -0.000 -0.000  0.980
     occupation matrix ns (before diag.):
       0.254  0.000  0.000  0.000 -0.000
       0.000  0.136  0.000 -0.000 -0.000
       0.000  0.000  0.136 -0.000 -0.000
       0.000 -0.000 -0.000  0.103  0.034
      -0.000 -0.000 -0.000  0.034  0.263
     SPIN  2
     eigenvalues:
       0.988  0.992  0.997  0.997  0.998
     eigenvectors (columns):
       1.000  0.000 -0.000  0.000  0.000
       0.000 -0.000  0.707 -0.707 -0.000
      -0.000 -0.000 -0.707 -0.707 -0.000
       0.000  0.193  0.000  0.000 -0.981
      -0.000  0.981  0.000 -0.000  0.193
     occupation matrix ns (before diag.):
       0.988 -0.000  0.000 -0.000  0.000
      -0.000  0.997  0.000  0.000  0.000
       0.000  0.000  0.997  0.000  0.000
      -0.000  0.000  0.000  0.998 -0.001
       0.000  0.000  0.000 -0.001  0.993

     Number of occupied Hubbard levels =   44.4484

     HUBBARD ENERGY =    0.6379  (Ry)

     total cpu time spent up to now is      556.7 secs

     total energy              =   -3088.77840438 Ry
     estimated scf accuracy    <       0.00012758 Ry

     total magnetization       =    -0.00 Bohr mag/cell
     absolute magnetization    =    38.98 Bohr mag/cell

     iteration # 11     ecut=    90.00 Ry     beta= 0.30
     Davidson diagonalization with overlap

---- Real-time Memory Report at c_bands before calling an iterative solver
          1329 MiB given to the printing process from OS
           834 MiB allocation reported by mallinfo(arena+hblkhd)
        666939 MiB available memory on the node where the printing process lives
------------------
     ethr =  3.89E-08,  avg # of iterations =  2.3

     =================== HUBBARD OCCUPATIONS ===================
     ------------------------ ATOM    9 ------------------------
     Tr[ns(  9)] (up, down, total) =   4.93715  0.30984  5.24699
     Atomic magnetic moment for atom   9 =   4.62731
     SPIN  1
     eigenvalues:
       0.962  0.991  0.994  0.994  0.997
     eigenvectors (columns):
      -1.000  0.000 -0.000 -0.000  0.000
      -0.000  0.000  0.524  0.852 -0.000
      -0.000  0.000  0.852 -0.524 -0.000
      -0.000 -0.140 -0.000  0.000 -0.990
       0.000  0.990 -0.000 -0.000 -0.140
     occupation matrix ns (before diag.):
       0.962 -0.000 -0.000 -0.000  0.000
      -0.000  0.994 -0.000  0.000 -0.000
      -0.000 -0.000  0.994  0.000 -0.000
      -0.000  0.000  0.000  0.997  0.001
       0.000 -0.000 -0.000  0.001  0.991
     SPIN  2
     eigenvalues:
       0.040  0.042  0.042  0.079  0.107
     eigenvectors (columns):
       0.000 -0.000  0.000  1.000  0.000
      -0.000 -0.918  0.396 -0.000  0.000
      -0.000 -0.396 -0.918  0.000 -0.000
       0.986 -0.000 -0.000 -0.000 -0.168
       0.168 -0.000 -0.000 -0.000  0.986
     occupation matrix ns (before diag.):
       0.079 -0.000  0.000 -0.000  0.000
      -0.000  0.042 -0.000  0.000  0.000
       0.000 -0.000  0.042  0.000 -0.000
      -0.000  0.000  0.000  0.042 -0.011
       0.000  0.000 -0.000 -0.011  0.105
     ------------------------ ATOM   10 ------------------------
     Tr[ns( 10)] (up, down, total) =   4.93715  0.30984  5.24699
     Atomic magnetic moment for atom  10 =   4.62731
     SPIN  1
     eigenvalues:
       0.962  0.991  0.994  0.994  0.997
     eigenvectors (columns):
      -1.000  0.000  0.000  0.000  0.000
       0.000 -0.000  0.524  0.852  0.000
       0.000 -0.000  0.852 -0.524  0.000
      -0.000 -0.140  0.000 -0.000 -0.990
       0.000  0.990  0.000  0.000 -0.140
     occupation matrix ns (before diag.):
       0.962  0.000  0.000 -0.000  0.000
       0.000  0.994 -0.000 -0.000  0.000
       0.000 -0.000  0.994 -0.000  0.000
      -0.000 -0.000 -0.000  0.997  0.001
       0.000  0.000  0.000  0.001  0.991
     SPIN  2
     eigenvalues:
       0.040  0.042  0.042  0.079  0.107
     eigenvectors (columns):
       0.000 -0.000 -0.000 -1.000  0.000
       0.000  0.918  0.396 -0.000 -0.000
       0.000  0.396 -0.918  0.000  0.000
       0.986 -0.000  0.000  0.000 -0.168
       0.168 -0.000  0.000  0.000  0.986
     occupation matrix ns (before diag.):
       0.079  0.000 -0.000 -0.000  0.000
       0.000  0.042 -0.000 -0.000 -0.000
      -0.000 -0.000  0.042 -0.000  0.000
      -0.000 -0.000 -0.000  0.042 -0.011
       0.000 -0.000  0.000 -0.011  0.105
     ------------------------ ATOM   11 ------------------------
     Tr[ns( 11)] (up, down, total) =   0.30984  4.93715  5.24699
     Atomic magnetic moment for atom  11 =  -4.62731
     SPIN  1
     eigenvalues:
       0.040  0.042  0.042  0.079  0.107
     eigenvectors (columns):
       0.000 -0.000 -0.000 -1.000 -0.000
      -0.000 -0.409  0.913  0.000  0.000
      -0.000 -0.913 -0.409  0.000  0.000
       0.986 -0.000  0.000  0.000 -0.168
       0.168 -0.000  0.000 -0.000  0.986
     occupation matrix ns (before diag.):
       0.079 -0.000 -0.000 -0.000 -0.000
      -0.000  0.042 -0.000  0.000  0.000
      -0.000 -0.000  0.042  0.000  0.000
      -0.000  0.000  0.000  0.042 -0.011
      -0.000  0.000  0.000 -0.011  0.105
     SPIN  2
     eigenvalues:
       0.962  0.991  0.994  0.994  0.997
     eigenvectors (columns):
      -1.000  0.000 -0.000  0.000 -0.000
      -0.000 -0.000  0.086 -0.996 -0.000
      -0.000 -0.000  0.996  0.086 -0.000
      -0.000 -0.140 -0.000  0.000 -0.990
       0.000  0.990  0.000 -0.000 -0.140
     occupation matrix ns (before diag.):
       0.962 -0.000 -0.000  0.000  0.000
      -0.000  0.994 -0.000  0.000  0.000
      -0.000 -0.000  0.994  0.000  0.000
       0.000  0.000  0.000  0.997  0.001
       0.000  0.000  0.000  0.001  0.991
     ------------------------ ATOM   12 ------------------------
     Tr[ns( 12)] (up, down, total) =   0.30985  4.93715  5.24700
     Atomic magnetic moment for atom  12 =  -4.62730
     SPIN  1
     eigenvalues:
       0.040  0.042  0.042  0.079  0.107
     eigenvectors (columns):
      -0.000 -0.000 -0.000 -1.000 -0.000
      -0.000  0.649 -0.761  0.000  0.000
      -0.000 -0.761 -0.649  0.000  0.000
       0.986 -0.000 -0.000  0.000 -0.168
       0.168 -0.000 -0.000 -0.000  0.986
     occupation matrix ns (before diag.):
       0.079 -0.000 -0.000  0.000 -0.000
      -0.000  0.042  0.000  0.000  0.000
      -0.000  0.000  0.042  0.000  0.000
       0.000  0.000  0.000  0.042 -0.011
      -0.000  0.000  0.000 -0.011  0.105
     SPIN  2
     eigenvalues:
       0.962  0.991  0.994  0.994  0.997
     eigenvectors (columns):
      -1.000  0.000 -0.000  0.000  0.000
      -0.000 -0.000  0.198 -0.980 -0.000
      -0.000 -0.000  0.980  0.198 -0.000
      -0.000 -0.140 -0.000  0.000 -0.990
       0.000  0.990  0.000 -0.000 -0.140
     occupation matrix ns (before diag.):
       0.962 -0.000 -0.000 -0.000  0.000
      -0.000  0.994 -0.000  0.000  0.000
      -0.000 -0.000  0.994  0.000  0.000
      -0.000  0.000  0.000  0.997  0.001
       0.000  0.000  0.000  0.001  0.991
     ------------------------ ATOM   13 ------------------------
     Tr[ns( 13)] (up, down, total) =   4.97227  0.89474  5.86701
     Atomic magnetic moment for atom  13 =   4.07754
     SPIN  1
     eigenvalues:
       0.988  0.992  0.997  0.997  0.998
     eigenvectors (columns):
      -1.000  0.000 -0.000  0.000  0.000
      -0.000 -0.000 -0.099 -0.995 -0.000
      -0.000 -0.000  0.995 -0.099 -0.000
      -0.000  0.193 -0.000  0.000 -0.981
       0.000  0.981  0.000 -0.000  0.193
     occupation matrix ns (before diag.):
       0.988 -0.000 -0.000 -0.000  0.000
      -0.000  0.997  0.000  0.000  0.000
      -0.000  0.000  0.997  0.000  0.000
      -0.000  0.000  0.000  0.998 -0.001
       0.000  0.000  0.000 -0.001  0.993
     SPIN  2
     eigenvalues:
       0.097  0.136  0.136  0.255  0.270
     eigenvectors (columns):
      -0.000  0.000 -0.000 -1.000  0.000
      -0.000  0.982  0.190  0.000  0.000
      -0.000  0.190 -0.982  0.000  0.000
       0.980  0.000 -0.000  0.000  0.201
      -0.201 -0.000  0.000  0.000  0.980
     occupation matrix ns (before diag.):
       0.255 -0.000 -0.000  0.000  0.000
      -0.000  0.136 -0.000  0.000  0.000
      -0.000 -0.000  0.136  0.000  0.000
       0.000  0.000  0.000  0.104  0.034
       0.000  0.000  0.000  0.034  0.263
     ------------------------ ATOM   14 ------------------------
     Tr[ns( 14)] (up, down, total) =   4.97227  0.89473  5.86700
     Atomic magnetic moment for atom  14 =   4.07754
     SPIN  1
     eigenvalues:
       0.988  0.992  0.997  0.997  0.998
     eigenvectors (columns):
      -1.000  0.000 -0.000  0.000  0.000
      -0.000 -0.000 -0.219 -0.976 -0.000
      -0.000 -0.000  0.976 -0.219 -0.000
       0.000  0.193 -0.000  0.000 -0.981
       0.000  0.981  0.000 -0.000  0.193
     occupation matrix ns (before diag.):
       0.988 -0.000 -0.000 -0.000  0.000
      -0.000  0.997  0.000  0.000  0.000
      -0.000  0.000  0.997  0.000  0.000
      -0.000  0.000  0.000  0.998 -0.001
       0.000  0.000  0.000 -0.001  0.993
     SPIN  2
     eigenvalues:
       0.097  0.136  0.136  0.255  0.270
     eigenvectors (columns):
      -0.000  0.000 -0.000 -1.000  0.000
      -0.000  0.992 -0.126  0.000  0.000
      -0.000 -0.126 -0.992  0.000  0.000
       0.980  0.000 -0.000  0.000  0.201
      -0.201 -0.000  0.000  0.000  0.980
     occupation matrix ns (before diag.):
       0.255 -0.000 -0.000  0.000  0.000
      -0.000  0.136  0.000  0.000  0.000
      -0.000  0.000  0.136  0.000  0.000
       0.000  0.000  0.000  0.104  0.034
       0.000  0.000  0.000  0.034  0.263
     ------------------------ ATOM   15 ------------------------
     Tr[ns( 15)] (up, down, total) =   0.89474  4.97227  5.86702
     Atomic magnetic moment for atom  15 =  -4.07753
     SPIN  1
     eigenvalues:
       0.097  0.136  0.136  0.255  0.270
     eigenvectors (columns):
       0.000  0.000 -0.000  1.000 -0.000
      -0.000 -0.755 -0.656 -0.000  0.000
       0.000  0.656 -0.755 -0.000  0.000
       0.980 -0.000 -0.000  0.000  0.201
      -0.201  0.000  0.000  0.000  0.980
     occupation matrix ns (before diag.):
       0.255 -0.000 -0.000 -0.000 -0.000
      -0.000  0.136  0.000  0.000  0.000
      -0.000  0.000  0.136  0.000  0.000
      -0.000  0.000  0.000  0.104  0.034
      -0.000  0.000  0.000  0.034  0.263
     SPIN  2
     eigenvalues:
       0.988  0.992  0.997  0.997  0.998
     eigenvectors (columns):
       1.000  0.000  0.000  0.000  0.000
      -0.000  0.000  0.646 -0.763  0.000
       0.000  0.000 -0.763 -0.646  0.000
      -0.000  0.193  0.000 -0.000 -0.981
      -0.000  0.981 -0.000  0.000  0.193
     occupation matrix ns (before diag.):
       0.988  0.000 -0.000  0.000  0.000
       0.000  0.997  0.000 -0.000 -0.000
      -0.000  0.000  0.997 -0.000 -0.000
       0.000 -0.000 -0.000  0.998 -0.001
       0.000 -0.000 -0.000 -0.001  0.993
     ------------------------ ATOM   16 ------------------------
     Tr[ns( 16)] (up, down, total) =   0.89474  4.97227  5.86702
     Atomic magnetic moment for atom  16 =  -4.07753
     SPIN  1
     eigenvalues:
       0.097  0.136  0.136  0.255  0.270
     eigenvectors (columns):
       0.000  0.000  0.000 -1.000 -0.000
       0.000  0.755 -0.656 -0.000 -0.000
      -0.000 -0.656 -0.755 -0.000 -0.000
       0.980 -0.000  0.000 -0.000  0.201
      -0.201  0.000 -0.000 -0.000  0.980
     occupation matrix ns (before diag.):
       0.255  0.000  0.000 -0.000 -0.000
       0.000  0.136  0.000 -0.000 -0.000
       0.000  0.000  0.136 -0.000 -0.000
      -0.000 -0.000 -0.000  0.104  0.034
      -0.000 -0.000 -0.000  0.034  0.263
     SPIN  2
     eigenvalues:
       0.988  0.992  0.997  0.997  0.998
     eigenvectors (columns):
      -1.000  0.000  0.000 -0.000  0.000
      -0.000 -0.000 -0.646 -0.763 -0.000
       0.000 -0.000  0.763 -0.646 -0.000
       0.000  0.193  0.000  0.000 -0.981
       0.000  0.981 -0.000 -0.000  0.193
     occupation matrix ns (before diag.):
       0.988 -0.000  0.000  0.000  0.000
      -0.000  0.997  0.000  0.000  0.000
       0.000  0.000  0.997  0.000  0.000
       0.000  0.000  0.000  0.998 -0.001
       0.000  0.000  0.000 -0.001  0.993

     Number of occupied Hubbard levels =   44.4560

     HUBBARD ENERGY =    0.6377  (Ry)

     total cpu time spent up to now is      611.1 secs

     total energy              =   -3088.77842893 Ry
     estimated scf accuracy    <       0.00006249 Ry

     total magnetization       =     0.00 Bohr mag/cell
     absolute magnetization    =    38.98 Bohr mag/cell

     iteration # 12     ecut=    90.00 Ry     beta= 0.30
     Davidson diagonalization with overlap

---- Real-time Memory Report at c_bands before calling an iterative solver
          1329 MiB given to the printing process from OS
           834 MiB allocation reported by mallinfo(arena+hblkhd)
        667399 MiB available memory on the node where the printing process lives
------------------
     ethr =  1.91E-08,  avg # of iterations =  2.0

     =================== HUBBARD OCCUPATIONS ===================
     ------------------------ ATOM    9 ------------------------
     Tr[ns(  9)] (up, down, total) =   4.93727  0.31006  5.24733
     Atomic magnetic moment for atom   9 =   4.62720
     SPIN  1
     eigenvalues:
       0.962  0.991  0.994  0.994  0.997
     eigenvectors (columns):
      -1.000  0.000 -0.000  0.000  0.000
       0.000 -0.000  0.644  0.765  0.000
      -0.000 -0.000  0.765 -0.644 -0.000
      -0.000 -0.140 -0.000  0.000 -0.990
       0.000  0.990  0.000  0.000 -0.140
     occupation matrix ns (before diag.):
       0.962  0.000 -0.000 -0.000  0.000
       0.000  0.994 -0.000 -0.000  0.000
      -0.000 -0.000  0.994  0.000  0.000
      -0.000 -0.000  0.000  0.997  0.001
       0.000  0.000  0.000  0.001  0.991
     SPIN  2
     eigenvalues:
       0.040  0.042  0.042  0.079  0.107
     eigenvectors (columns):
      -0.000 -0.000  0.000  1.000  0.000
      -0.000 -0.964  0.266 -0.000  0.000
      -0.000 -0.266 -0.964  0.000 -0.000
       0.986 -0.000 -0.000  0.000 -0.168
       0.168 -0.000 -0.000 -0.000  0.986
     occupation matrix ns (before diag.):
       0.079 -0.000  0.000 -0.000  0.000
      -0.000  0.042 -0.000  0.000  0.000
       0.000 -0.000  0.042  0.000 -0.000
      -0.000  0.000  0.000  0.042 -0.011
       0.000  0.000 -0.000 -0.011  0.105
     ------------------------ ATOM   10 ------------------------
     Tr[ns( 10)] (up, down, total) =   4.93727  0.31006  5.24733
     Atomic magnetic moment for atom  10 =   4.62720
     SPIN  1
     eigenvalues:
       0.962  0.991  0.994  0.994  0.997
     eigenvectors (columns):
      -1.000  0.000  0.000 -0.000  0.000
      -0.000  0.000  0.644  0.765 -0.000
       0.000  0.000  0.765 -0.644  0.000
      -0.000 -0.140  0.000 -0.000 -0.990
       0.000  0.990 -0.000 -0.000 -0.140
     occupation matrix ns (before diag.):
       0.962 -0.000  0.000 -0.000  0.000
      -0.000  0.994 -0.000  0.000 -0.000
       0.000 -0.000  0.994 -0.000 -0.000
      -0.000  0.000 -0.000  0.997  0.001
       0.000 -0.000 -0.000  0.001  0.991
     SPIN  2
     eigenvalues:
       0.040  0.042  0.042  0.079  0.107
     eigenvectors (columns):
      -0.000 -0.000 -0.000 -1.000  0.000
       0.000  0.964  0.266 -0.000 -0.000
       0.000  0.266 -0.964  0.000  0.000
       0.986 -0.000  0.000 -0.000 -0.168
       0.168 -0.000  0.000  0.000  0.986
     occupation matrix ns (before diag.):
       0.079  0.000 -0.000 -0.000  0.000
       0.000  0.042 -0.000 -0.000 -0.000
      -0.000 -0.000  0.042 -0.000  0.000
      -0.000 -0.000 -0.000  0.042 -0.011
       0.000 -0.000  0.000 -0.011  0.105
     ------------------------ ATOM   11 ------------------------
     Tr[ns( 11)] (up, down, total) =   0.31006  4.93727  5.24733
     Atomic magnetic moment for atom  11 =  -4.62720
     SPIN  1
     eigenvalues:
       0.040  0.042  0.042  0.079  0.107
     eigenvectors (columns):
      -0.000 -0.000 -0.000 -1.000 -0.000
      -0.000 -0.489  0.872  0.000  0.000
      -0.000 -0.872 -0.489  0.000  0.000
       0.986 -0.000 -0.000  0.000 -0.168
       0.168 -0.000  0.000 -0.000  0.986
     occupation matrix ns (before diag.):
       0.079 -0.000 -0.000  0.000 -0.000
      -0.000  0.042 -0.000  0.000  0.000
      -0.000 -0.000  0.042  0.000  0.000
       0.000  0.000  0.000  0.042 -0.011
      -0.000  0.000  0.000 -0.011  0.105
     SPIN  2
     eigenvalues:
       0.962  0.991  0.994  0.994  0.997
     eigenvectors (columns):
       1.000 -0.000 -0.000  0.000 -0.000
       0.000 -0.000  0.690  0.724 -0.000
       0.000 -0.000  0.724 -0.690 -0.000
      -0.000 -0.140 -0.000  0.000 -0.990
       0.000  0.990  0.000 -0.000 -0.140
     occupation matrix ns (before diag.):
       0.962 -0.000 -0.000  0.000 -0.000
      -0.000  0.994 -0.000  0.000  0.000
      -0.000 -0.000  0.994  0.000  0.000
       0.000  0.000  0.000  0.997  0.001
      -0.000  0.000  0.000  0.001  0.991
     ------------------------ ATOM   12 ------------------------
     Tr[ns( 12)] (up, down, total) =   0.31007  4.93727  5.24733
     Atomic magnetic moment for atom  12 =  -4.62720
     SPIN  1
     eigenvalues:
       0.040  0.042  0.042  0.079  0.107
     eigenvectors (columns):
      -0.000 -0.000 -0.000 -1.000 -0.000
      -0.000  0.696 -0.718  0.000  0.000
      -0.000 -0.718 -0.696  0.000  0.000
       0.986 -0.000 -0.000 -0.000 -0.168
       0.168 -0.000 -0.000 -0.000  0.986
     occupation matrix ns (before diag.):
       0.079 -0.000 -0.000  0.000 -0.000
      -0.000  0.042  0.000  0.000  0.000
      -0.000  0.000  0.042  0.000  0.000
       0.000  0.000  0.000  0.042 -0.011
      -0.000  0.000  0.000 -0.011  0.105
     SPIN  2
     eigenvalues:
       0.962  0.991  0.994  0.994  0.997
     eigenvectors (columns):
       1.000 -0.000 -0.000  0.000  0.000
       0.000 -0.000  0.875  0.484 -0.000
       0.000 -0.000  0.484 -0.875 -0.000
       0.000 -0.140 -0.000  0.000 -0.990
       0.000  0.990  0.000 -0.000 -0.140
     occupation matrix ns (before diag.):
       0.962 -0.000 -0.000 -0.000 -0.000
      -0.000  0.994 -0.000  0.000  0.000
      -0.000 -0.000  0.994  0.000  0.000
      -0.000  0.000  0.000  0.997  0.001
      -0.000  0.000  0.000  0.001  0.991
     ------------------------ ATOM   13 ------------------------
     Tr[ns( 13)] (up, down, total) =   4.97225  0.89426  5.86651
     Atomic magnetic moment for atom  13 =   4.07799
     SPIN  1
     eigenvalues:
       0.988  0.992  0.997  0.997  0.998
     eigenvectors (columns):
      -1.000  0.000 -0.000  0.000  0.000
      -0.000 -0.000 -0.318 -0.948 -0.000
      -0.000 -0.000  0.948 -0.318 -0.000
      -0.000  0.193 -0.000  0.000 -0.981
       0.000  0.981  0.000 -0.000  0.193
     occupation matrix ns (before diag.):
       0.988 -0.000 -0.000 -0.000  0.000
      -0.000  0.997  0.000  0.000  0.000
      -0.000  0.000  0.997  0.000  0.000
      -0.000  0.000  0.000  0.998 -0.001
       0.000  0.000  0.000 -0.001  0.993
     SPIN  2
     eigenvalues:
       0.097  0.136  0.136  0.255  0.270
     eigenvectors (columns):
      -0.000 -0.000 -0.000  1.000 -0.000
      -0.000 -0.979 -0.204 -0.000  0.000
      -0.000  0.204 -0.979 -0.000  0.000
       0.980 -0.000 -0.000  0.000  0.201
      -0.201  0.000  0.000  0.000  0.980
     occupation matrix ns (before diag.):
       0.255 -0.000 -0.000  0.000 -0.000
      -0.000  0.136  0.000  0.000  0.000
      -0.000  0.000  0.136  0.000  0.000
       0.000  0.000  0.000  0.104  0.034
      -0.000  0.000  0.000  0.034  0.263
     ------------------------ ATOM   14 ------------------------
     Tr[ns( 14)] (up, down, total) =   4.97225  0.89426  5.86651
     Atomic magnetic moment for atom  14 =   4.07799
     SPIN  1
     eigenvalues:
       0.988  0.992  0.997  0.997  0.998
     eigenvectors (columns):
      -1.000  0.000 -0.000  0.000  0.000
      -0.000 -0.000 -0.476 -0.879 -0.000
      -0.000 -0.000  0.879 -0.476 -0.000
      -0.000  0.193 -0.000  0.000 -0.981
       0.000  0.981  0.000 -0.000  0.193
     occupation matrix ns (before diag.):
       0.988 -0.000 -0.000 -0.000  0.000
      -0.000  0.997  0.000  0.000  0.000
      -0.000  0.000  0.997  0.000  0.000
      -0.000  0.000  0.000  0.998 -0.001
       0.000  0.000  0.000 -0.001  0.993
     SPIN  2
     eigenvalues:
       0.097  0.136  0.136  0.255  0.270
     eigenvectors (columns):
      -0.000  0.000 -0.000 -1.000  0.000
      -0.000  0.993  0.121  0.000  0.000
      -0.000  0.121 -0.993  0.000  0.000
       0.980  0.000 -0.000  0.000  0.201
      -0.201 -0.000  0.000  0.000  0.980
     occupation matrix ns (before diag.):
       0.255 -0.000 -0.000  0.000  0.000
      -0.000  0.136 -0.000  0.000  0.000
      -0.000 -0.000  0.136  0.000  0.000
       0.000  0.000  0.000  0.104  0.034
       0.000  0.000  0.000  0.034  0.263
     ------------------------ ATOM   15 ------------------------
     Tr[ns( 15)] (up, down, total) =   0.89426  4.97225  5.86651
     Atomic magnetic moment for atom  15 =  -4.07799
     SPIN  1
     eigenvalues:
       0.097  0.136  0.136  0.255  0.270
     eigenvectors (columns):
      -0.000 -0.000 -0.000 -1.000  0.000
      -0.000 -0.961  0.276  0.000  0.000
       0.000 -0.276 -0.961  0.000  0.000
       0.980 -0.000  0.000  0.000  0.201
      -0.201  0.000  0.000  0.000  0.980
     occupation matrix ns (before diag.):
       0.255 -0.000 -0.000  0.000  0.000
      -0.000  0.136 -0.000  0.000 -0.000
      -0.000 -0.000  0.136  0.000  0.000
       0.000  0.000  0.000  0.104  0.034
       0.000 -0.000  0.000  0.034  0.263
     SPIN  2
     eigenvalues:
       0.988  0.992  0.997  0.997  0.998
     eigenvectors (columns):
      -1.000 -0.000  0.000 -0.000  0.000
       0.000  0.000  0.749  0.662  0.000
      -0.000 -0.000 -0.662  0.749  0.000
      -0.000  0.193 -0.000  0.000 -0.981
      -0.000  0.981 -0.000 -0.000  0.193
     occupation matrix ns (before diag.):
       0.988  0.000 -0.000 -0.000 -0.000
       0.000  0.997  0.000 -0.000  0.000
      -0.000  0.000  0.997 -0.000  0.000
      -0.000 -0.000 -0.000  0.998 -0.001
      -0.000  0.000  0.000 -0.001  0.993
     ------------------------ ATOM   16 ------------------------
     Tr[ns( 16)] (up, down, total) =   0.89426  4.97225  5.86651
     Atomic magnetic moment for atom  16 =  -4.07799
     SPIN  1
     eigenvalues:
       0.097  0.136  0.136  0.255  0.270
     eigenvectors (columns):
      -0.000  0.000 -0.000  1.000  0.000
       0.000 -0.961 -0.276  0.000 -0.000
      -0.000 -0.276  0.961  0.000 -0.000
       0.980  0.000  0.000 -0.000  0.201
      -0.201 -0.000  0.000 -0.000  0.980
     occupation matrix ns (before diag.):
       0.255  0.000  0.000  0.000  0.000
       0.000  0.136 -0.000 -0.000  0.000
       0.000 -0.000  0.136 -0.000 -0.000
       0.000 -0.000 -0.000  0.104  0.034
       0.000  0.000 -0.000  0.034  0.263
     SPIN  2
     eigenvalues:
       0.988  0.992  0.997  0.997  0.998
     eigenvectors (columns):
       1.000 -0.000 -0.000 -0.000  0.000
       0.000 -0.000  0.749 -0.662 -0.000
      -0.000  0.000 -0.662 -0.749 -0.000
       0.000  0.193  0.000  0.000 -0.981
       0.000  0.981  0.000 -0.000  0.193
     occupation matrix ns (before diag.):
       0.988 -0.000  0.000 -0.000 -0.000
      -0.000  0.997  0.000  0.000 -0.000
       0.000  0.000  0.997  0.000 -0.000
      -0.000  0.000  0.000  0.998 -0.001
      -0.000 -0.000 -0.000 -0.001  0.993

     Number of occupied Hubbard levels =   44.4554

     HUBBARD ENERGY =    0.6379  (Ry)

     total cpu time spent up to now is      660.3 secs

     total energy              =   -3088.77843184 Ry
     estimated scf accuracy    <       0.00001144 Ry

     total magnetization       =    -0.00 Bohr mag/cell
     absolute magnetization    =    38.98 Bohr mag/cell

     iteration # 13     ecut=    90.00 Ry     beta= 0.30
     Davidson diagonalization with overlap

---- Real-time Memory Report at c_bands before calling an iterative solver
          1329 MiB given to the printing process from OS
           834 MiB allocation reported by mallinfo(arena+hblkhd)
        666774 MiB available memory on the node where the printing process lives
------------------
     ethr =  3.49E-09,  avg # of iterations =  3.0

     =================== HUBBARD OCCUPATIONS ===================
     ------------------------ ATOM    9 ------------------------
     Tr[ns(  9)] (up, down, total) =   4.93731  0.31016  5.24747
     Atomic magnetic moment for atom   9 =   4.62716
     SPIN  1
     eigenvalues:
       0.962  0.991  0.994  0.994  0.997
     eigenvectors (columns):
      -1.000 -0.000 -0.000 -0.000 -0.000
       0.000 -0.000  0.404 -0.915  0.000
      -0.000 -0.000  0.915  0.404 -0.000
       0.000 -0.140 -0.000 -0.000 -0.990
      -0.000  0.990  0.000 -0.000 -0.140
     occupation matrix ns (before diag.):
       0.962  0.000 -0.000  0.000 -0.000
       0.000  0.994 -0.000 -0.000  0.000
      -0.000 -0.000  0.994  0.000  0.000
       0.000 -0.000  0.000  0.997  0.001
      -0.000  0.000  0.000  0.001  0.991
     SPIN  2
     eigenvalues:
       0.040  0.042  0.042  0.079  0.107
     eigenvectors (columns):
      -0.000 -0.000  0.000 -1.000 -0.000
       0.000  0.916  0.402  0.000  0.000
       0.000  0.402 -0.916 -0.000 -0.000
      -0.986  0.000 -0.000  0.000 -0.168
      -0.168  0.000 -0.000 -0.000  0.986
     occupation matrix ns (before diag.):
       0.079 -0.000  0.000  0.000 -0.000
      -0.000  0.042 -0.000  0.000  0.000
       0.000 -0.000  0.042  0.000 -0.000
       0.000  0.000  0.000  0.042 -0.011
      -0.000  0.000 -0.000 -0.011  0.105
     ------------------------ ATOM   10 ------------------------
     Tr[ns( 10)] (up, down, total) =   4.93731  0.31016  5.24747
     Atomic magnetic moment for atom  10 =   4.62716
     SPIN  1
     eigenvalues:
       0.962  0.991  0.994  0.994  0.997
     eigenvectors (columns):
      -1.000 -0.000  0.000  0.000 -0.000
      -0.000  0.000  0.404 -0.915 -0.000
       0.000  0.000  0.915  0.404  0.000
       0.000 -0.140  0.000  0.000 -0.990
      -0.000  0.990 -0.000  0.000 -0.140
     occupation matrix ns (before diag.):
       0.962 -0.000  0.000  0.000 -0.000
      -0.000  0.994 -0.000  0.000 -0.000
       0.000 -0.000  0.994 -0.000 -0.000
       0.000  0.000 -0.000  0.997  0.001
      -0.000 -0.000 -0.000  0.001  0.991
     SPIN  2
     eigenvalues:
       0.040  0.042  0.042  0.079  0.107
     eigenvectors (columns):
       0.000 -0.000 -0.000 -1.000 -0.000
       0.000 -0.916  0.402 -0.000 -0.000
       0.000 -0.402 -0.916  0.000  0.000
       0.986  0.000  0.000  0.000 -0.168
       0.168  0.000  0.000 -0.000  0.986
     occupation matrix ns (before diag.):
       0.079  0.000 -0.000  0.000 -0.000
       0.000  0.042 -0.000 -0.000 -0.000
      -0.000 -0.000  0.042 -0.000  0.000
       0.000 -0.000 -0.000  0.042 -0.011
      -0.000 -0.000  0.000 -0.011  0.105
     ------------------------ ATOM   11 ------------------------
     Tr[ns( 11)] (up, down, total) =   0.31015  4.93731  5.24747
     Atomic magnetic moment for atom  11 =  -4.62716
     SPIN  1
     eigenvalues:
       0.040  0.042  0.042  0.079  0.107
     eigenvectors (columns):
       0.000 -0.000 -0.000 -1.000 -0.000
      -0.000 -0.485  0.875  0.000  0.000
      -0.000 -0.875 -0.485  0.000  0.000
       0.986 -0.000 -0.000  0.000 -0.168
       0.168 -0.000  0.000 -0.000  0.986
     occupation matrix ns (before diag.):
       0.079 -0.000 -0.000  0.000 -0.000
      -0.000  0.042 -0.000  0.000  0.000
      -0.000 -0.000  0.042  0.000  0.000
       0.000  0.000  0.000  0.042 -0.011
      -0.000  0.000  0.000 -0.011  0.105
     SPIN  2
     eigenvalues:
       0.962  0.991  0.994  0.994  0.997
     eigenvectors (columns):
       1.000 -0.000 -0.000  0.000 -0.000
       0.000 -0.000  0.791  0.612 -0.000
       0.000 -0.000  0.612 -0.791 -0.000
      -0.000 -0.140 -0.000  0.000 -0.990
       0.000  0.990  0.000 -0.000 -0.140
     occupation matrix ns (before diag.):
       0.962 -0.000 -0.000  0.000 -0.000
      -0.000  0.994 -0.000  0.000  0.000
      -0.000 -0.000  0.994  0.000  0.000
       0.000  0.000  0.000  0.997  0.001
      -0.000  0.000  0.000  0.001  0.991
     ------------------------ ATOM   12 ------------------------
     Tr[ns( 12)] (up, down, total) =   0.31016  4.93731  5.24747
     Atomic magnetic moment for atom  12 =  -4.62716
     SPIN  1
     eigenvalues:
       0.040  0.042  0.042  0.079  0.107
     eigenvectors (columns):
      -0.000 -0.000 -0.000 -1.000 -0.000
      -0.000  0.421 -0.907  0.000  0.000
      -0.000 -0.907 -0.421  0.000  0.000
       0.986 -0.000 -0.000  0.000 -0.168
       0.168 -0.000 -0.000 -0.000  0.986
     occupation matrix ns (before diag.):
       0.079 -0.000 -0.000  0.000 -0.000
      -0.000  0.042  0.000  0.000  0.000
      -0.000  0.000  0.042  0.000  0.000
       0.000  0.000  0.000  0.042 -0.011
      -0.000  0.000  0.000 -0.011  0.105
     SPIN  2
     eigenvalues:
       0.962  0.991  0.994  0.994  0.997
     eigenvectors (columns):
       1.000 -0.000 -0.000  0.000  0.000
       0.000 -0.000  0.865  0.502 -0.000
       0.000 -0.000  0.502 -0.865 -0.000
       0.000 -0.140 -0.000  0.000 -0.990
       0.000  0.990  0.000 -0.000 -0.140
     occupation matrix ns (before diag.):
       0.962 -0.000 -0.000 -0.000 -0.000
      -0.000  0.994 -0.000  0.000  0.000
      -0.000 -0.000  0.994  0.000  0.000
      -0.000  0.000  0.000  0.997  0.001
      -0.000  0.000  0.000  0.001  0.991
     ------------------------ ATOM   13 ------------------------
     Tr[ns( 13)] (up, down, total) =   4.97224  0.89370  5.86594
     Atomic magnetic moment for atom  13 =   4.07853
     SPIN  1
     eigenvalues:
       0.988  0.992  0.997  0.997  0.998
     eigenvectors (columns):
      -1.000  0.000 -0.000  0.000  0.000
      -0.000 -0.000 -0.256 -0.967 -0.000
      -0.000 -0.000  0.967 -0.256 -0.000
      -0.000  0.193 -0.000  0.000 -0.981
       0.000  0.981  0.000 -0.000  0.193
     occupation matrix ns (before diag.):
       0.988 -0.000 -0.000 -0.000  0.000
      -0.000  0.997  0.000  0.000  0.000
      -0.000  0.000  0.997  0.000  0.000
      -0.000  0.000  0.000  0.998 -0.001
       0.000  0.000  0.000 -0.001  0.993
     SPIN  2
     eigenvalues:
       0.097  0.136  0.136  0.255  0.270
     eigenvectors (columns):
      -0.000  0.000 -0.000  1.000 -0.000
      -0.000 -0.965 -0.264 -0.000  0.000
      -0.000  0.264 -0.965 -0.000  0.000
       0.980 -0.000 -0.000  0.000  0.201
      -0.201  0.000  0.000  0.000  0.980
     occupation matrix ns (before diag.):
       0.255 -0.000 -0.000  0.000 -0.000
      -0.000  0.136  0.000  0.000  0.000
      -0.000  0.000  0.136  0.000  0.000
       0.000  0.000  0.000  0.104  0.034
      -0.000  0.000  0.000  0.034  0.263
     ------------------------ ATOM   14 ------------------------
     Tr[ns( 14)] (up, down, total) =   4.97224  0.89370  5.86594
     Atomic magnetic moment for atom  14 =   4.07853
     SPIN  1
     eigenvalues:
       0.988  0.992  0.997  0.997  0.998
     eigenvectors (columns):
      -1.000  0.000 -0.000  0.000  0.000
      -0.000 -0.000 -0.689 -0.725 -0.000
      -0.000 -0.000  0.725 -0.689 -0.000
      -0.000  0.193 -0.000  0.000 -0.981
       0.000  0.981  0.000 -0.000  0.193
     occupation matrix ns (before diag.):
       0.988 -0.000 -0.000 -0.000  0.000
      -0.000  0.997  0.000  0.000  0.000
      -0.000  0.000  0.997  0.000  0.000
      -0.000  0.000  0.000  0.998 -0.001
       0.000  0.000  0.000 -0.001  0.993
     SPIN  2
     eigenvalues:
       0.097  0.136  0.136  0.255  0.270
     eigenvectors (columns):
      -0.000  0.000 -0.000 -1.000  0.000
      -0.000  1.000  0.011  0.000  0.000
      -0.000  0.011 -1.000  0.000  0.000
       0.980  0.000 -0.000  0.000  0.201
      -0.201 -0.000  0.000  0.000  0.980
     occupation matrix ns (before diag.):
       0.255 -0.000 -0.000  0.000  0.000
      -0.000  0.136 -0.000  0.000  0.000
      -0.000 -0.000  0.136  0.000  0.000
       0.000  0.000  0.000  0.104  0.034
       0.000  0.000  0.000  0.034  0.263
     ------------------------ ATOM   15 ------------------------
     Tr[ns( 15)] (up, down, total) =   0.89371  4.97224  5.86594
     Atomic magnetic moment for atom  15 =  -4.07853
     SPIN  1
     eigenvalues:
       0.097  0.136  0.136  0.255  0.270
     eigenvectors (columns):
      -0.000 -0.000 -0.000 -1.000  0.000
      -0.000 -0.998  0.064  0.000  0.000
       0.000 -0.064 -0.998  0.000  0.000
       0.980 -0.000  0.000  0.000  0.201
      -0.201  0.000  0.000  0.000  0.980
     occupation matrix ns (before diag.):
       0.255 -0.000 -0.000  0.000  0.000
      -0.000  0.136 -0.000  0.000 -0.000
      -0.000 -0.000  0.136 -0.000  0.000
       0.000  0.000 -0.000  0.104  0.034
       0.000 -0.000  0.000  0.034  0.263
     SPIN  2
     eigenvalues:
       0.988  0.992  0.997  0.997  0.998
     eigenvectors (columns):
      -1.000  0.000 -0.000 -0.000  0.000
       0.000 -0.000 -0.799 -0.601  0.000
      -0.000 -0.000  0.601 -0.799  0.000
      -0.000  0.193 -0.000 -0.000 -0.981
       0.000  0.981  0.000 -0.000  0.193
     occupation matrix ns (before diag.):
       0.988  0.000 -0.000 -0.000  0.000
       0.000  0.997  0.000 -0.000  0.000
      -0.000  0.000  0.997  0.000  0.000
      -0.000 -0.000  0.000  0.998 -0.001
       0.000  0.000  0.000 -0.001  0.993
     ------------------------ ATOM   16 ------------------------
     Tr[ns( 16)] (up, down, total) =   0.89371  4.97224  5.86594
     Atomic magnetic moment for atom  16 =  -4.07853
     SPIN  1
     eigenvalues:
       0.097  0.136  0.136  0.255  0.270
     eigenvectors (columns):
      -0.000  0.000 -0.000  1.000  0.000
       0.000 -0.998 -0.064  0.000 -0.000
      -0.000 -0.064  0.998  0.000 -0.000
       0.980  0.000  0.000 -0.000  0.201
      -0.201 -0.000  0.000 -0.000  0.980
     occupation matrix ns (before diag.):
       0.255  0.000  0.000  0.000  0.000
       0.000  0.136 -0.000 -0.000  0.000
       0.000 -0.000  0.136  0.000 -0.000
       0.000 -0.000  0.000  0.104  0.034
       0.000  0.000 -0.000  0.034  0.263
     SPIN  2
     eigenvalues:
       0.988  0.992  0.997  0.997  0.998
     eigenvectors (columns):
       1.000  0.000 -0.000  0.000  0.000
       0.000  0.000  0.799 -0.601 -0.000
      -0.000  0.000 -0.601 -0.799 -0.000
       0.000  0.193 -0.000  0.000 -0.981
      -0.000  0.981  0.000  0.000  0.193
     occupation matrix ns (before diag.):
       0.988 -0.000  0.000 -0.000  0.000
      -0.000  0.997  0.000  0.000 -0.000
       0.000  0.000  0.997 -0.000 -0.000
      -0.000  0.000 -0.000  0.998 -0.001
       0.000 -0.000 -0.000 -0.001  0.993

     Number of occupied Hubbard levels =   44.4536

     HUBBARD ENERGY =    0.6382  (Ry)

     total cpu time spent up to now is      711.4 secs

     total energy              =   -3088.77843359 Ry
     estimated scf accuracy    <       0.00000128 Ry

     total magnetization       =    -0.00 Bohr mag/cell
     absolute magnetization    =    38.98 Bohr mag/cell

     iteration # 14     ecut=    90.00 Ry     beta= 0.30
     Davidson diagonalization with overlap

---- Real-time Memory Report at c_bands before calling an iterative solver
          1329 MiB given to the printing process from OS
           834 MiB allocation reported by mallinfo(arena+hblkhd)
        666739 MiB available memory on the node where the printing process lives
------------------
     ethr =  3.91E-10,  avg # of iterations =  4.7

     =================== HUBBARD OCCUPATIONS ===================
     ------------------------ ATOM    9 ------------------------
     Tr[ns(  9)] (up, down, total) =   4.93732  0.31017  5.24749
     Atomic magnetic moment for atom   9 =   4.62714
     SPIN  1
     eigenvalues:
       0.962  0.991  0.994  0.994  0.997
     eigenvectors (columns):
      -1.000 -0.000 -0.000  0.000  0.000
       0.000  0.000 -0.429 -0.903  0.000
       0.000 -0.000 -0.903  0.429 -0.000
      -0.000 -0.140  0.000 -0.000 -0.990
      -0.000  0.990  0.000  0.000 -0.140
     occupation matrix ns (before diag.):
       0.962  0.000  0.000 -0.000 -0.000
       0.000  0.994 -0.000 -0.000 -0.000
       0.000 -0.000  0.994  0.000  0.000
      -0.000 -0.000  0.000  0.997  0.001
      -0.000 -0.000  0.000  0.001  0.991
     SPIN  2
     eigenvalues:
       0.040  0.042  0.042  0.079  0.107
     eigenvectors (columns):
       0.000 -0.000 -0.000 -1.000 -0.000
      -0.000 -0.837 -0.547  0.000  0.000
      -0.000 -0.547  0.837 -0.000  0.000
       0.986 -0.000  0.000  0.000 -0.168
       0.168 -0.000  0.000 -0.000  0.986
     occupation matrix ns (before diag.):
       0.079 -0.000  0.000  0.000 -0.000
      -0.000  0.042 -0.000 -0.000  0.000
       0.000 -0.000  0.042  0.000  0.000
       0.000 -0.000  0.000  0.042 -0.011
      -0.000  0.000  0.000 -0.011  0.105
     ------------------------ ATOM   10 ------------------------
     Tr[ns( 10)] (up, down, total) =   4.93732  0.31017  5.24749
     Atomic magnetic moment for atom  10 =   4.62714
     SPIN  1
     eigenvalues:
       0.962  0.991  0.994  0.994  0.997
     eigenvectors (columns):
      -1.000 -0.000  0.000 -0.000  0.000
      -0.000 -0.000 -0.429 -0.903 -0.000
      -0.000  0.000 -0.903  0.429  0.000
      -0.000 -0.140 -0.000  0.000 -0.990
      -0.000  0.990 -0.000 -0.000 -0.140
     occupation matrix ns (before diag.):
       0.962 -0.000 -0.000 -0.000 -0.000
      -0.000  0.994 -0.000  0.000  0.000
      -0.000 -0.000  0.994 -0.000 -0.000
      -0.000  0.000 -0.000  0.997  0.001
      -0.000  0.000 -0.000  0.001  0.991
     SPIN  2
     eigenvalues:
       0.040  0.042  0.042  0.079  0.107
     eigenvectors (columns):
       0.000 -0.000  0.000  1.000 -0.000
       0.000  0.837 -0.547  0.000 -0.000
       0.000  0.547  0.837 -0.000 -0.000
       0.986 -0.000 -0.000 -0.000 -0.168
       0.168 -0.000 -0.000  0.000  0.986
     occupation matrix ns (before diag.):
       0.079  0.000 -0.000  0.000 -0.000
       0.000  0.042 -0.000  0.000 -0.000
      -0.000 -0.000  0.042 -0.000 -0.000
       0.000  0.000 -0.000  0.042 -0.011
      -0.000 -0.000 -0.000 -0.011  0.105
     ------------------------ ATOM   11 ------------------------
     Tr[ns( 11)] (up, down, total) =   0.31017  4.93732  5.24749
     Atomic magnetic moment for atom  11 =  -4.62714
     SPIN  1
     eigenvalues:
       0.040  0.042  0.042  0.079  0.107
     eigenvectors (columns):
       0.000 -0.000 -0.000 -1.000 -0.000
      -0.000 -0.671  0.741  0.000  0.000
      -0.000 -0.741 -0.671  0.000  0.000
       0.986 -0.000 -0.000  0.000 -0.168
       0.168 -0.000 -0.000 -0.000  0.986
     occupation matrix ns (before diag.):
       0.079 -0.000 -0.000 -0.000 -0.000
      -0.000  0.042 -0.000  0.000  0.000
      -0.000 -0.000  0.042  0.000  0.000
      -0.000  0.000  0.000  0.042 -0.011
      -0.000  0.000  0.000 -0.011  0.105
     SPIN  2
     eigenvalues:
       0.962  0.991  0.994  0.994  0.997
     eigenvectors (columns):
      -1.000  0.000 -0.000  0.000 -0.000
      -0.000 -0.000  0.341 -0.940 -0.000
      -0.000 -0.000  0.940  0.341 -0.000
      -0.000 -0.140 -0.000  0.000 -0.990
       0.000  0.990  0.000 -0.000 -0.140
     occupation matrix ns (before diag.):
       0.962 -0.000 -0.000  0.000  0.000
      -0.000  0.994 -0.000  0.000  0.000
      -0.000 -0.000  0.994  0.000  0.000
       0.000  0.000  0.000  0.997  0.001
       0.000  0.000  0.000  0.001  0.991
     ------------------------ ATOM   12 ------------------------
     Tr[ns( 12)] (up, down, total) =   0.31017  4.93731  5.24749
     Atomic magnetic moment for atom  12 =  -4.62714
     SPIN  1
     eigenvalues:
       0.040  0.042  0.042  0.079  0.107
     eigenvectors (columns):
      -0.000  0.000 -0.000 -1.000 -0.000
      -0.000  0.999 -0.054  0.000  0.000
      -0.000 -0.054 -0.999  0.000  0.000
       0.986  0.000 -0.000 -0.000 -0.168
       0.168  0.000 -0.000 -0.000  0.986
     occupation matrix ns (before diag.):
       0.079 -0.000 -0.000  0.000 -0.000
      -0.000  0.042  0.000  0.000  0.000
      -0.000  0.000  0.042  0.000  0.000
       0.000  0.000  0.000  0.042 -0.011
      -0.000  0.000  0.000 -0.011  0.105
     SPIN  2
     eigenvalues:
       0.962  0.991  0.994  0.994  0.997
     eigenvectors (columns):
      -1.000  0.000 -0.000  0.000  0.000
      -0.000 -0.000 -0.002 -1.000 -0.000
      -0.000 -0.000  1.000 -0.002 -0.000
      -0.000 -0.140 -0.000  0.000 -0.990
       0.000  0.990  0.000 -0.000 -0.140
     occupation matrix ns (before diag.):
       0.962 -0.000 -0.000 -0.000  0.000
      -0.000  0.994  0.000  0.000  0.000
      -0.000  0.000  0.994  0.000  0.000
      -0.000  0.000  0.000  0.997  0.001
       0.000  0.000  0.000  0.001  0.991
     ------------------------ ATOM   13 ------------------------
     Tr[ns( 13)] (up, down, total) =   4.97224  0.89374  5.86598
     Atomic magnetic moment for atom  13 =   4.07849
     SPIN  1
     eigenvalues:
       0.988  0.992  0.997  0.997  0.998
     eigenvectors (columns):
       1.000 -0.000 -0.000  0.000  0.000
       0.000 -0.000  0.576  0.818 -0.000
       0.000 -0.000  0.818 -0.576 -0.000
       0.000  0.193 -0.000  0.000 -0.981
       0.000  0.981  0.000 -0.000  0.193
     occupation matrix ns (before diag.):
       0.988 -0.000 -0.000 -0.000 -0.000
      -0.000  0.997 -0.000  0.000  0.000
      -0.000 -0.000  0.997  0.000  0.000
      -0.000  0.000  0.000  0.998 -0.001
      -0.000  0.000  0.000 -0.001  0.993
     SPIN  2
     eigenvalues:
       0.097  0.136  0.136  0.255  0.270
     eigenvectors (columns):
       0.000 -0.000 -0.000 -1.000  0.000
      -0.000 -0.744  0.668  0.000  0.000
      -0.000 -0.668 -0.744  0.000  0.000
       0.980 -0.000 -0.000  0.000  0.201
      -0.201  0.000  0.000  0.000  0.980
     occupation matrix ns (before diag.):
       0.255 -0.000 -0.000 -0.000  0.000
      -0.000  0.136 -0.000  0.000  0.000
      -0.000 -0.000  0.136  0.000  0.000
      -0.000  0.000  0.000  0.104  0.034
       0.000  0.000  0.000  0.034  0.263
     ------------------------ ATOM   14 ------------------------
     Tr[ns( 14)] (up, down, total) =   4.97224  0.89374  5.86598
     Atomic magnetic moment for atom  14 =   4.07849
     SPIN  1
     eigenvalues:
       0.988  0.992  0.997  0.997  0.998
     eigenvectors (columns):
      -1.000  0.000 -0.000  0.000  0.000
      -0.000 -0.000 -0.253 -0.967 -0.000
      -0.000 -0.000  0.967 -0.253 -0.000
      -0.000  0.193 -0.000  0.000 -0.981
       0.000  0.981  0.000 -0.000  0.193
     occupation matrix ns (before diag.):
       0.988 -0.000 -0.000 -0.000  0.000
      -0.000  0.997  0.000  0.000  0.000
      -0.000  0.000  0.997  0.000  0.000
      -0.000  0.000  0.000  0.998 -0.001
       0.000  0.000  0.000 -0.001  0.993
     SPIN  2
     eigenvalues:
       0.097  0.136  0.136  0.255  0.270
     eigenvectors (columns):
      -0.000  0.000 -0.000 -1.000  0.000
      -0.000  0.997  0.083  0.000  0.000
      -0.000  0.083 -0.997  0.000  0.000
       0.980  0.000 -0.000 -0.000  0.201
      -0.201 -0.000  0.000  0.000  0.980
     occupation matrix ns (before diag.):
       0.255 -0.000 -0.000  0.000  0.000
      -0.000  0.136 -0.000  0.000  0.000
      -0.000 -0.000  0.136  0.000  0.000
       0.000  0.000  0.000  0.104  0.034
       0.000  0.000  0.000  0.034  0.263
     ------------------------ ATOM   15 ------------------------
     Tr[ns( 15)] (up, down, total) =   0.89375  4.97224  5.86598
     Atomic magnetic moment for atom  15 =  -4.07849
     SPIN  1
     eigenvalues:
       0.097  0.136  0.136  0.255  0.270
     eigenvectors (columns):
      -0.000 -0.000 -0.000  1.000 -0.000
      -0.000 -0.846 -0.533 -0.000 -0.000
       0.000  0.533 -0.846 -0.000  0.000
       0.980 -0.000  0.000  0.000  0.201
      -0.201 -0.000  0.000  0.000  0.980
     occupation matrix ns (before diag.):
       0.255 -0.000 -0.000  0.000 -0.000
      -0.000  0.136  0.000  0.000 -0.000
      -0.000  0.000  0.136 -0.000  0.000
       0.000  0.000 -0.000  0.104  0.034
      -0.000 -0.000  0.000  0.034  0.263
     SPIN  2
     eigenvalues:
       0.988  0.992  0.997  0.997  0.998
     eigenvectors (columns):
      -1.000  0.000  0.000 -0.000  0.000
       0.000 -0.000  0.112 -0.994  0.000
      -0.000 -0.000  0.994  0.112  0.000
       0.000  0.193  0.000 -0.000 -0.981
       0.000  0.981  0.000  0.000  0.193
     occupation matrix ns (before diag.):
       0.988  0.000 -0.000  0.000  0.000
       0.000  0.997 -0.000 -0.000  0.000
      -0.000 -0.000  0.997 -0.000  0.000
       0.000 -0.000 -0.000  0.998 -0.001
       0.000  0.000  0.000 -0.001  0.993
     ------------------------ ATOM   16 ------------------------
     Tr[ns( 16)] (up, down, total) =   0.89375  4.97224  5.86598
     Atomic magnetic moment for atom  16 =  -4.07849
     SPIN  1
     eigenvalues:
       0.097  0.136  0.136  0.255  0.270
     eigenvectors (columns):
      -0.000 -0.000  0.000 -1.000 -0.000
       0.000  0.846 -0.533 -0.000  0.000
      -0.000 -0.533 -0.846 -0.000 -0.000
       0.980 -0.000 -0.000 -0.000  0.201
      -0.201 -0.000 -0.000 -0.000  0.980
     occupation matrix ns (before diag.):
       0.255  0.000  0.000  0.000 -0.000
       0.000  0.136  0.000 -0.000  0.000
       0.000  0.000  0.136  0.000 -0.000
       0.000 -0.000  0.000  0.104  0.034
      -0.000  0.000 -0.000  0.034  0.263
     SPIN  2
     eigenvalues:
       0.988  0.992  0.997  0.997  0.998
     eigenvectors (columns):
       1.000  0.000  0.000  0.000  0.000
       0.000  0.000 -0.112 -0.994 -0.000
      -0.000  0.000 -0.994  0.112 -0.000
      -0.000  0.193  0.000  0.000 -0.981
      -0.000  0.981  0.000 -0.000  0.193
     occupation matrix ns (before diag.):
       0.988 -0.000  0.000  0.000  0.000
      -0.000  0.997 -0.000  0.000 -0.000
       0.000 -0.000  0.997  0.000 -0.000
       0.000  0.000  0.000  0.998 -0.001
       0.000 -0.000 -0.000 -0.001  0.993

     Number of occupied Hubbard levels =   44.4539

     HUBBARD ENERGY =    0.6383  (Ry)

     total cpu time spent up to now is      765.4 secs

     total energy              =   -3088.77843382 Ry
     estimated scf accuracy    <       0.00000040 Ry

     total magnetization       =     0.00 Bohr mag/cell
     absolute magnetization    =    38.98 Bohr mag/cell

     iteration # 15     ecut=    90.00 Ry     beta= 0.30
     Davidson diagonalization with overlap

---- Real-time Memory Report at c_bands before calling an iterative solver
          1329 MiB given to the printing process from OS
           834 MiB allocation reported by mallinfo(arena+hblkhd)
        667016 MiB available memory on the node where the printing process lives
------------------
     ethr =  1.22E-10,  avg # of iterations =  2.1

     =================== HUBBARD OCCUPATIONS ===================
     ------------------------ ATOM    9 ------------------------
     Tr[ns(  9)] (up, down, total) =   4.93732  0.31017  5.24750
     Atomic magnetic moment for atom   9 =   4.62715
     SPIN  1
     eigenvalues:
       0.962  0.991  0.994  0.994  0.997
     eigenvectors (columns):
       1.000 -0.000  0.000 -0.000  0.000
      -0.000  0.000  0.180 -0.984  0.000
      -0.000 -0.000  0.984  0.180 -0.000
       0.000 -0.140 -0.000 -0.000 -0.990
       0.000  0.990 -0.000  0.000 -0.140
     occupation matrix ns (before diag.):
       0.962  0.000  0.000 -0.000 -0.000
       0.000  0.994 -0.000 -0.000 -0.000
       0.000 -0.000  0.994  0.000  0.000
      -0.000 -0.000  0.000  0.997  0.001
      -0.000 -0.000  0.000  0.001  0.991
     SPIN  2
     eigenvalues:
       0.040  0.042  0.042  0.079  0.107
     eigenvectors (columns):
       0.000 -0.000 -0.000 -1.000 -0.000
      -0.000 -0.848 -0.531  0.000  0.000
      -0.000 -0.531  0.848 -0.000  0.000
       0.986 -0.000  0.000  0.000 -0.168
       0.168 -0.000  0.000 -0.000  0.986
     occupation matrix ns (before diag.):
       0.079 -0.000  0.000  0.000 -0.000
      -0.000  0.042 -0.000 -0.000  0.000
       0.000 -0.000  0.042  0.000  0.000
       0.000 -0.000  0.000  0.042 -0.011
      -0.000  0.000  0.000 -0.011  0.105
     ------------------------ ATOM   10 ------------------------
     Tr[ns( 10)] (up, down, total) =   4.93732  0.31017  5.24750
     Atomic magnetic moment for atom  10 =   4.62715
     SPIN  1
     eigenvalues:
       0.962  0.991  0.994  0.994  0.997
     eigenvectors (columns):
       1.000 -0.000 -0.000  0.000  0.000
       0.000 -0.000  0.180 -0.984 -0.000
       0.000  0.000  0.984  0.180  0.000
       0.000 -0.140  0.000  0.000 -0.990
       0.000  0.990  0.000 -0.000 -0.140
     occupation matrix ns (before diag.):
       0.962 -0.000 -0.000 -0.000 -0.000
      -0.000  0.994 -0.000  0.000  0.000
      -0.000 -0.000  0.994 -0.000 -0.000
      -0.000  0.000 -0.000  0.997  0.001
      -0.000  0.000 -0.000  0.001  0.991
     SPIN  2
     eigenvalues:
       0.040  0.042  0.042  0.079  0.107
     eigenvectors (columns):
       0.000 -0.000  0.000  1.000 -0.000
       0.000  0.848 -0.531  0.000 -0.000
       0.000  0.531  0.848 -0.000 -0.000
       0.986 -0.000 -0.000 -0.000 -0.168
       0.168 -0.000 -0.000  0.000  0.986
     occupation matrix ns (before diag.):
       0.079  0.000 -0.000  0.000 -0.000
       0.000  0.042 -0.000  0.000 -0.000
      -0.000 -0.000  0.042 -0.000 -0.000
       0.000  0.000 -0.000  0.042 -0.011
      -0.000 -0.000 -0.000 -0.011  0.105
     ------------------------ ATOM   11 ------------------------
     Tr[ns( 11)] (up, down, total) =   0.31017  4.93732  5.24750
     Atomic magnetic moment for atom  11 =  -4.62715
     SPIN  1
     eigenvalues:
       0.040  0.042  0.042  0.079  0.107
     eigenvectors (columns):
       0.000 -0.000 -0.000 -1.000 -0.000
      -0.000 -0.698  0.716  0.000  0.000
      -0.000 -0.716 -0.698  0.000  0.000
       0.986 -0.000 -0.000  0.000 -0.168
       0.168 -0.000 -0.000 -0.000  0.986
     occupation matrix ns (before diag.):
       0.079 -0.000 -0.000  0.000 -0.000
      -0.000  0.042 -0.000  0.000  0.000
      -0.000 -0.000  0.042  0.000  0.000
       0.000  0.000  0.000  0.042 -0.011
      -0.000  0.000  0.000 -0.011  0.105
     SPIN  2
     eigenvalues:
       0.962  0.991  0.994  0.994  0.997
     eigenvectors (columns):
      -1.000  0.000 -0.000 -0.000 -0.000
      -0.000 -0.000  0.601 -0.799 -0.000
      -0.000 -0.000  0.799  0.601 -0.000
      -0.000 -0.140 -0.000 -0.000 -0.990
       0.000  0.990  0.000  0.000 -0.140
     occupation matrix ns (before diag.):
       0.962 -0.000 -0.000 -0.000  0.000
      -0.000  0.994 -0.000  0.000  0.000
      -0.000 -0.000  0.994  0.000  0.000
      -0.000  0.000  0.000  0.997  0.001
       0.000  0.000  0.000  0.001  0.991
     ------------------------ ATOM   12 ------------------------
     Tr[ns( 12)] (up, down, total) =   0.31017  4.93732  5.24750
     Atomic magnetic moment for atom  12 =  -4.62715
     SPIN  1
     eigenvalues:
       0.040  0.042  0.042  0.079  0.107
     eigenvectors (columns):
      -0.000  0.000 -0.000 -1.000 -0.000
      -0.000  0.992  0.125  0.000  0.000
      -0.000  0.125 -0.992  0.000  0.000
       0.986  0.000 -0.000 -0.000 -0.168
       0.168  0.000 -0.000 -0.000  0.986
     occupation matrix ns (before diag.):
       0.079 -0.000 -0.000  0.000  0.000
      -0.000  0.042 -0.000  0.000  0.000
      -0.000 -0.000  0.042  0.000  0.000
       0.000  0.000  0.000  0.042 -0.011
       0.000  0.000  0.000 -0.011  0.105
     SPIN  2
     eigenvalues:
       0.962  0.991  0.994  0.994  0.997
     eigenvectors (columns):
       1.000 -0.000 -0.000 -0.000  0.000
       0.000 -0.000  0.017  1.000 -0.000
       0.000 -0.000  1.000 -0.017 -0.000
       0.000 -0.140 -0.000 -0.000 -0.990
       0.000  0.990  0.000  0.000 -0.140
     occupation matrix ns (before diag.):
       0.962 -0.000 -0.000 -0.000 -0.000
      -0.000  0.994 -0.000  0.000  0.000
      -0.000 -0.000  0.994  0.000  0.000
      -0.000  0.000  0.000  0.997  0.001
      -0.000  0.000  0.000  0.001  0.991
     ------------------------ ATOM   13 ------------------------
     Tr[ns( 13)] (up, down, total) =   4.97224  0.89374  5.86598
     Atomic magnetic moment for atom  13 =   4.07850
     SPIN  1
     eigenvalues:
       0.988  0.992  0.997  0.997  0.998
     eigenvectors (columns):
       1.000 -0.000  0.000  0.000 -0.000
       0.000 -0.000  0.672 -0.740 -0.000
       0.000 -0.000 -0.740 -0.672 -0.000
       0.000  0.193  0.000  0.000 -0.981
       0.000  0.981 -0.000 -0.000  0.193
     occupation matrix ns (before diag.):
       0.988 -0.000 -0.000 -0.000 -0.000
      -0.000  0.997  0.000  0.000  0.000
      -0.000  0.000  0.997  0.000  0.000
      -0.000  0.000  0.000  0.998 -0.001
      -0.000  0.000  0.000 -0.001  0.993
     SPIN  2
     eigenvalues:
       0.097  0.136  0.136  0.255  0.270
     eigenvectors (columns):
       0.000 -0.000 -0.000 -1.000  0.000
      -0.000 -0.466  0.885  0.000  0.000
      -0.000 -0.885 -0.466  0.000  0.000
       0.980 -0.000  0.000  0.000  0.201
      -0.201  0.000  0.000  0.000  0.980
     occupation matrix ns (before diag.):
       0.255 -0.000 -0.000 -0.000  0.000
      -0.000  0.136 -0.000  0.000  0.000
      -0.000 -0.000  0.136  0.000  0.000
      -0.000  0.000  0.000  0.104  0.034
       0.000  0.000  0.000  0.034  0.263
     ------------------------ ATOM   14 ------------------------
     Tr[ns( 14)] (up, down, total) =   4.97224  0.89374  5.86598
     Atomic magnetic moment for atom  14 =   4.07849
     SPIN  1
     eigenvalues:
       0.988  0.992  0.997  0.997  0.998
     eigenvectors (columns):
      -1.000  0.000 -0.000  0.000  0.000
      -0.000 -0.000 -0.077 -0.997 -0.000
      -0.000 -0.000  0.997 -0.077 -0.000
      -0.000  0.193 -0.000  0.000 -0.981
       0.000  0.981  0.000 -0.000  0.193
     occupation matrix ns (before diag.):
       0.988 -0.000 -0.000 -0.000  0.000
      -0.000  0.997  0.000  0.000  0.000
      -0.000  0.000  0.997  0.000  0.000
      -0.000  0.000  0.000  0.998 -0.001
       0.000  0.000  0.000 -0.001  0.993
     SPIN  2
     eigenvalues:
       0.097  0.136  0.136  0.255  0.270
     eigenvectors (columns):
      -0.000  0.000 -0.000 -1.000  0.000
      -0.000  0.994  0.109  0.000  0.000
      -0.000  0.109 -0.994  0.000  0.000
       0.980  0.000 -0.000 -0.000  0.201
      -0.201 -0.000  0.000  0.000  0.980
     occupation matrix ns (before diag.):
       0.255 -0.000 -0.000  0.000  0.000
      -0.000  0.136 -0.000  0.000  0.000
      -0.000 -0.000  0.136  0.000  0.000
       0.000  0.000  0.000  0.104  0.034
       0.000  0.000  0.000  0.034  0.263
     ------------------------ ATOM   15 ------------------------
     Tr[ns( 15)] (up, down, total) =   0.89375  4.97224  5.86598
     Atomic magnetic moment for atom  15 =  -4.07849
     SPIN  1
     eigenvalues:
       0.097  0.136  0.136  0.255  0.270
     eigenvectors (columns):
      -0.000 -0.000  0.000 -1.000  0.000
      -0.000 -0.963  0.271  0.000 -0.000
       0.000  0.271  0.963  0.000  0.000
       0.980 -0.000 -0.000  0.000  0.201
      -0.201 -0.000 -0.000  0.000  0.980
     occupation matrix ns (before diag.):
       0.255 -0.000 -0.000  0.000  0.000
      -0.000  0.136  0.000  0.000 -0.000
      -0.000  0.000  0.136 -0.000  0.000
       0.000  0.000 -0.000  0.104  0.034
       0.000 -0.000  0.000  0.034  0.263
     SPIN  2
     eigenvalues:
       0.988  0.992  0.997  0.997  0.998
     eigenvectors (columns):
       1.000  0.000 -0.000 -0.000  0.000
      -0.000 -0.000 -0.092 -0.996  0.000
      -0.000  0.000 -0.996  0.092 -0.000
       0.000  0.193 -0.000 -0.000 -0.981
      -0.000  0.981  0.000  0.000  0.193
     occupation matrix ns (before diag.):
       0.988  0.000  0.000 -0.000  0.000
       0.000  0.997 -0.000 -0.000  0.000
       0.000 -0.000  0.997 -0.000 -0.000
      -0.000 -0.000 -0.000  0.998 -0.001
       0.000  0.000 -0.000 -0.001  0.993
     ------------------------ ATOM   16 ------------------------
     Tr[ns( 16)] (up, down, total) =   0.89375  4.97224  5.86598
     Atomic magnetic moment for atom  16 =  -4.07849
     SPIN  1
     eigenvalues:
       0.097  0.136  0.136  0.255  0.270
     eigenvectors (columns):
      -0.000 -0.000 -0.000  1.000  0.000
       0.000  0.963  0.271  0.000  0.000
      -0.000 -0.271  0.963  0.000 -0.000
       0.980 -0.000  0.000 -0.000  0.201
      -0.201 -0.000  0.000 -0.000  0.980
     occupation matrix ns (before diag.):
       0.255  0.000  0.000  0.000  0.000
       0.000  0.136  0.000 -0.000  0.000
       0.000  0.000  0.136  0.000 -0.000
       0.000 -0.000  0.000  0.104  0.034
       0.000  0.000 -0.000  0.034  0.263
     SPIN  2
     eigenvalues:
       0.988  0.992  0.997  0.997  0.998
     eigenvectors (columns):
      -1.000  0.000 -0.000  0.000  0.000
      -0.000  0.000  0.092 -0.996 -0.000
      -0.000 -0.000  0.996  0.092  0.000
      -0.000  0.193 -0.000  0.000 -0.981
       0.000  0.981  0.000 -0.000  0.193
     occupation matrix ns (before diag.):
       0.988 -0.000 -0.000 -0.000  0.000
      -0.000  0.997 -0.000  0.000 -0.000
      -0.000 -0.000  0.997  0.000  0.000
      -0.000  0.000  0.000  0.998 -0.001
       0.000 -0.000  0.000 -0.001  0.993

     Number of occupied Hubbard levels =   44.4539

     HUBBARD ENERGY =    0.6382  (Ry)

     Magnetic moment per site  (integrated on atomic sphere of radius R)
     atom   1 (R=0.206)  charge=  6.8279  magn=  0.0000
     atom   2 (R=0.206)  charge=  6.8280  magn=  0.0000
     atom   3 (R=0.206)  charge=  6.8281  magn= -0.0000
     atom   4 (R=0.206)  charge=  6.8281  magn= -0.0000
     atom   5 (R=0.166)  charge=  7.2884  magn=  0.0000
     atom   6 (R=0.166)  charge=  7.2882  magn=  0.0000
     atom   7 (R=0.166)  charge=  7.2886  magn=  0.0000
     atom   8 (R=0.166)  charge=  7.2886  magn=  0.0000
     atom   9 (R=0.151)  charge= 12.2838  magn=  4.0613
     atom  10 (R=0.151)  charge= 12.2838  magn=  4.0613
     atom  11 (R=0.151)  charge= 12.2839  magn= -4.0614
     atom  12 (R=0.151)  charge= 12.2838  magn= -4.0613
     atom  13 (R=0.140)  charge= 12.8125  magn=  3.7804
     atom  14 (R=0.140)  charge= 12.8126  magn=  3.7804
     atom  15 (R=0.140)  charge= 12.8127  magn= -3.7804
     atom  16 (R=0.140)  charge= 12.8127  magn= -3.7804
     atom  17 (R=0.140)  charge=  5.2889  magn=  0.1339
     atom  18 (R=0.140)  charge=  5.2889  magn=  0.1339
     atom  19 (R=0.140)  charge=  5.2891  magn= -0.1339
     atom  20 (R=0.140)  charge=  5.2891  magn= -0.1339
     atom  21 (R=0.140)  charge=  5.2963  magn= -0.1367
     atom  22 (R=0.140)  charge=  5.2967  magn= -0.1367
     atom  23 (R=0.140)  charge=  5.2967  magn= -0.1367
     atom  24 (R=0.140)  charge=  5.2963  magn= -0.1367
     atom  25 (R=0.140)  charge=  5.2967  magn= -0.1367
     atom  26 (R=0.140)  charge=  5.2966  magn= -0.1367
     atom  27 (R=0.140)  charge=  5.2966  magn= -0.1367
     atom  28 (R=0.140)  charge=  5.2967  magn= -0.1367
     atom  29 (R=0.140)  charge=  5.2966  magn=  0.1367
     atom  30 (R=0.140)  charge=  5.2967  magn=  0.1367
     atom  31 (R=0.140)  charge=  5.2967  magn=  0.1367
     atom  32 (R=0.140)  charge=  5.2966  magn=  0.1367
     atom  33 (R=0.140)  charge=  5.2967  magn=  0.1367
     atom  34 (R=0.140)  charge=  5.2963  magn=  0.1367
     atom  35 (R=0.140)  charge=  5.2963  magn=  0.1367
     atom  36 (R=0.140)  charge=  5.2967  magn=  0.1367

     total cpu time spent up to now is      812.3 secs

     End of self-consistent calculation

 ------ SPIN UP ------------


          k = 0.0000 0.0000 0.0000 ( 48047 PWs)   bands (ev):

   -80.5944 -80.5944 -76.0186 -76.0186 -69.5446 -69.5446 -64.9584 -64.9584
   -46.7641 -46.7641 -46.6923 -46.6923 -46.6923 -46.6923 -42.0372 -42.0372
   -41.8801 -41.8801 -41.8801 -41.8801 -38.5976 -38.5976 -38.4146 -38.4146
   -38.4146 -38.4146 -33.7903 -33.7903 -33.5253 -33.5253 -33.5253 -33.5253
   -30.3238 -30.3163 -30.3161 -30.3086 -15.9909 -15.9203 -15.9198 -15.8569
   -10.7368 -10.7363 -10.7363 -10.6065 -10.6032 -10.5905 -10.5888 -10.5685
   -10.5635 -10.4641 -10.3978 -10.3978  -7.0529  -6.9671  -6.7804  -6.7454
    -6.5241  -6.4841  -6.3693  -6.2089  -6.1857  -6.1780  -6.1715  -6.1614
    -6.1614  -6.0844  -6.0155  -5.7902  -5.7728  -5.7728  -5.7414  -5.7169
    -1.5994  -1.5994  -1.3217  -1.3144  -1.1426  -1.1361  -1.1349  -1.1310
    -1.0096  -1.0096  -0.9499  -0.9370   3.4110   3.4277   3.4843   3.4969
     3.5029   3.5218   3.5275   3.5607   3.5607   3.5716   4.7514   5.3352
     5.3517   5.5469   5.6956   5.7484   5.9002   5.9540   6.0003   6.0003
     6.1248   6.1603   6.2791   6.3273   6.3561   6.4892   6.5131   6.6937
     6.6937   6.9086   6.9802   7.0966   7.1265   7.2440   7.2440   7.3037
     7.3725   7.4468   7.5037   7.6785   7.6886   7.7450   7.7856   7.9083
     8.0039   8.0039   8.0514   8.1195   8.1433   8.3349   8.4455   8.4830
     8.4830   8.5080   8.5771   8.6431   8.7217   8.7217   8.7463   8.8310
     8.8409   9.0081   9.0448   9.0448   9.0996   9.2333   9.2333   9.2926
     9.2981   9.3078   9.3549   9.3990   9.4575   9.4663   9.4663   9.5826
     9.6183  10.3648  10.9019  11.7046  12.5588  12.5990  12.6038  12.6292
    12.6919  12.6920  12.7324  12.7880  13.3796  13.5475  13.5892  13.6538
    14.3689  14.4635  14.6358  15.0061  15.0373  15.0373  15.1734  15.2968
    15.3740  15.4413  15.4481  15.7028  15.7029  15.7209  15.7455  15.7455
    15.7942  15.8517  15.9672  16.0297  16.0547

     occupation numbers 
     1.0000   1.0000   1.0000   1.0000   1.0000   1.0000   1.0000   1.0000
     1.0000   1.0000   1.0000   1.0000   1.0000   1.0000   1.0000   1.0000
     1.0000   1.0000   1.0000   1.0000   1.0000   1.0000   1.0000   1.0000
     1.0000   1.0000   1.0000   1.0000   1.0000   1.0000   1.0000   1.0000
     1.0000   1.0000   1.0000   1.0000   1.0000   1.0000   1.0000   1.0000
     1.0000   1.0000   1.0000   1.0000   1.0000   1.0000   1.0000   1.0000
     1.0000   1.0000   1.0000   1.0000   1.0000   1.0000   1.0000   1.0000
     1.0000   1.0000   1.0000   1.0000   1.0000   1.0000   1.0000   1.0000
     1.0000   1.0000   1.0000   1.0000   1.0000   1.0000   1.0000   1.0000
     1.0000   1.0000   1.0000   1.0000   1.0000   1.0000   1.0000   1.0000
     1.0000   1.0000   1.0000   1.0000   1.0000   1.0000   1.0000   1.0000
     1.0000   1.0000   1.0000   1.0000   1.0000   1.0000   1.0000   1.0000
     1.0000   1.0000   1.0000   1.0000   1.0000   1.0000   1.0000   1.0000
     1.0000   1.0000   1.0000   1.0000   1.0000   1.0000   1.0000   1.0000
     1.0000   1.0000   1.0000   1.0000   1.0000   1.0000   1.0000   1.0000
     1.0000   1.0000   1.0000   1.0000   1.0000   1.0000   1.0000   1.0000
     1.0000   1.0000   1.0000   1.0000   1.0000   1.0000   1.0000   1.0000
     1.0000   1.0000   1.0000   1.0000   1.0000   1.0000   1.0000   1.0000
     1.0000   1.0000   1.0000   1.0000   1.0000   1.0000   1.0000   1.0000
     1.0000   1.0000   1.0000   1.0000   1.0000   1.0000   1.0000   1.0000
     1.0000   1.0000   1.0000   1.0000   0.0000   0.0000   0.0000   0.0000
     0.0000   0.0000   0.0000   0.0000   0.0000   0.0000   0.0000   0.0000
     0.0000   0.0000   0.0000   0.0000   0.0000   0.0000   0.0000   0.0000
     0.0000   0.0000   0.0000   0.0000   0.0000   0.0000   0.0000   0.0000
     0.0000   0.0000   0.0000   0.0000   0.0000

          k = 0.0000 0.0000 0.2456 ( 48026 PWs)   bands (ev):

   -80.5945 -80.5944 -76.0186 -76.0186 -69.5446 -69.5446 -64.9584 -64.9584
   -46.7641 -46.7640 -46.6923 -46.6923 -46.6923 -46.6923 -42.0372 -42.0372
   -41.8801 -41.8801 -41.8801 -41.8801 -38.5976 -38.5976 -38.4146 -38.4146
   -38.4146 -38.4146 -33.7903 -33.7903 -33.5253 -33.5253 -33.5253 -33.5253
   -30.3238 -30.3162 -30.3161 -30.3086 -15.9914 -15.9207 -15.9203 -15.8573
   -10.7361 -10.7361 -10.7297 -10.6034 -10.5999 -10.5900 -10.5882 -10.5678
   -10.5627 -10.4614 -10.3978 -10.3978  -7.0634  -6.9597  -6.8129  -6.7281
    -6.5716  -6.5261  -6.4483  -6.2088  -6.1748  -6.1748  -6.1710  -6.1660
    -6.0858  -6.0541  -5.9929  -5.7856  -5.7584  -5.7584  -5.7367  -5.7212
    -1.5988  -1.5988  -1.3185  -1.3112  -1.1557  -1.1535  -1.1396  -1.1381
    -1.0100  -1.0100  -0.9444  -0.9317   3.4196   3.4273   3.4843   3.5019
     3.5132   3.5202   3.5254   3.5585   3.5599   3.5713   4.6218   5.2276
     5.3487   5.4585   5.7605   5.9024   5.9203   5.9980   6.0019   6.0745
     6.1677   6.3003   6.3170   6.3878   6.4204   6.4837   6.5261   6.7230
     6.7302   6.8346   6.9262   6.9299   7.1126   7.2195   7.2323   7.3220
     7.3816   7.4438   7.5131   7.5684   7.6151   7.7134   7.7918   7.8075
     7.8503   7.8625   8.0466   8.0593   8.3188   8.3973   8.4457   8.4749
     8.5013   8.5078   8.6614   8.7338   8.8019   8.8082   8.8448   8.8868
     9.0333   9.0480   9.0955   9.1478   9.1594   9.1888   9.2151   9.2409
     9.2768   9.3095   9.3232   9.3335   9.4244   9.4586   9.4802   9.5080
     9.6466  10.3141  10.8943  11.7045  12.2530  12.4758  12.5947  12.6013
    12.6101  12.6912  12.6971  12.7840  13.5527  13.5777  13.8200  13.8509
    14.3964  14.6137  14.9417  14.9530  15.0639  15.1200  15.1724  15.2268
    15.3508  15.4335  15.5799  15.5898  15.7535  15.7661  15.7731  15.7865
    15.8588  15.8916  16.0510  16.0550  16.0677

     occupation numbers 
     1.0000   1.0000   1.0000   1.0000   1.0000   1.0000   1.0000   1.0000
     1.0000   1.0000   1.0000   1.0000   1.0000   1.0000   1.0000   1.0000
     1.0000   1.0000   1.0000   1.0000   1.0000   1.0000   1.0000   1.0000
     1.0000   1.0000   1.0000   1.0000   1.0000   1.0000   1.0000   1.0000
     1.0000   1.0000   1.0000   1.0000   1.0000   1.0000   1.0000   1.0000
     1.0000   1.0000   1.0000   1.0000   1.0000   1.0000   1.0000   1.0000
     1.0000   1.0000   1.0000   1.0000   1.0000   1.0000   1.0000   1.0000
     1.0000   1.0000   1.0000   1.0000   1.0000   1.0000   1.0000   1.0000
     1.0000   1.0000   1.0000   1.0000   1.0000   1.0000   1.0000   1.0000
     1.0000   1.0000   1.0000   1.0000   1.0000   1.0000   1.0000   1.0000
     1.0000   1.0000   1.0000   1.0000   1.0000   1.0000   1.0000   1.0000
     1.0000   1.0000   1.0000   1.0000   1.0000   1.0000   1.0000   1.0000
     1.0000   1.0000   1.0000   1.0000   1.0000   1.0000   1.0000   1.0000
     1.0000   1.0000   1.0000   1.0000   1.0000   1.0000   1.0000   1.0000
     1.0000   1.0000   1.0000   1.0000   1.0000   1.0000   1.0000   1.0000
     1.0000   1.0000   1.0000   1.0000   1.0000   1.0000   1.0000   1.0000
     1.0000   1.0000   1.0000   1.0000   1.0000   1.0000   1.0000   1.0000
     1.0000   1.0000   1.0000   1.0000   1.0000   1.0000   1.0000   1.0000
     1.0000   1.0000   1.0000   1.0000   1.0000   1.0000   1.0000   1.0000
     1.0000   1.0000   1.0000   1.0000   1.0000   1.0000   1.0000   1.0000
     1.0000   1.0000   1.0000   1.0000   0.0000   0.0000   0.0000   0.0000
     0.0000   0.0000   0.0000   0.0000   0.0000   0.0000   0.0000   0.0000
     0.0000   0.0000   0.0000   0.0000   0.0000   0.0000   0.0000   0.0000
     0.0000   0.0000   0.0000   0.0000   0.0000   0.0000   0.0000   0.0000
     0.0000   0.0000   0.0000   0.0000   0.0000

          k = 0.0000-0.2500 0.0000 ( 48016 PWs)   bands (ev):

   -80.5944 -80.5944 -76.0186 -76.0186 -69.5446 -69.5446 -64.9584 -64.9584
   -46.7641 -46.7641 -46.6923 -46.6923 -46.6923 -46.6923 -42.0372 -42.0372
   -41.8801 -41.8801 -41.8801 -41.8801 -38.5976 -38.5976 -38.4146 -38.4146
   -38.4146 -38.4146 -33.7903 -33.7903 -33.5253 -33.5253 -33.5253 -33.5253
   -30.3216 -30.3216 -30.3108 -30.3108 -15.9694 -15.9694 -15.8745 -15.8745
   -10.7026 -10.7026 -10.6944 -10.6944 -10.6858 -10.6857 -10.5046 -10.5046
   -10.4585 -10.4585 -10.4495 -10.4495  -6.9758  -6.9758  -6.7933  -6.7933
    -6.5640  -6.5640  -6.2159  -6.2159  -6.1924  -6.1924  -6.1823  -6.1823
    -6.1278  -6.1278  -5.8876  -5.8876  -5.7815  -5.7815  -5.7230  -5.7230
    -1.5195  -1.5195  -1.3468  -1.3468  -1.1406  -1.1406  -1.1305  -1.1305
    -1.1023  -1.1023  -0.9090  -0.9090   3.4560   3.4560   3.4868   3.4868
     3.5009   3.5009   3.5277   3.5277   3.5589   3.5589   5.0115   5.0115
     5.4648   5.4648   5.7545   5.7545   5.8824   5.8824   5.9302   5.9302
     6.1052   6.1052   6.4360   6.4360   6.5378   6.5378   6.6361   6.6361
     6.8355   6.8355   6.9067   6.9068   7.0217   7.0217   7.2727   7.2727
     7.4275   7.4275   7.4842   7.4842   7.8763   7.8763   8.0036   8.0036
     8.0515   8.0515   8.1478   8.1478   8.2334   8.2334   8.4415   8.4415
     8.5078   8.5078   8.6113   8.6113   8.7228   8.7228   8.7782   8.7782
     8.9647   8.9647   9.0104   9.0104   9.1114   9.1114   9.1389   9.1390
     9.2312   9.2312   9.3298   9.3298   9.4201   9.4201   9.5885   9.5885
     9.9157   9.9157  11.3747  11.3747  12.6131  12.6131  12.6524  12.6524
    12.6821  12.6821  12.7075  12.7075  13.5702  13.5702  13.8656  13.8656
    14.2124  14.2124  14.6080  14.6080  15.0252  15.0252  15.1434  15.1434
    15.2244  15.2244  15.5795  15.5797  15.6545  15.6546  15.8479  15.8479
    16.0083  16.0083  16.0728  16.0729  16.2346

     occupation numbers 
     1.0000   1.0000   1.0000   1.0000   1.0000   1.0000   1.0000   1.0000
     1.0000   1.0000   1.0000   1.0000   1.0000   1.0000   1.0000   1.0000
     1.0000   1.0000   1.0000   1.0000   1.0000   1.0000   1.0000   1.0000
     1.0000   1.0000   1.0000   1.0000   1.0000   1.0000   1.0000   1.0000
     1.0000   1.0000   1.0000   1.0000   1.0000   1.0000   1.0000   1.0000
     1.0000   1.0000   1.0000   1.0000   1.0000   1.0000   1.0000   1.0000
     1.0000   1.0000   1.0000   1.0000   1.0000   1.0000   1.0000   1.0000
     1.0000   1.0000   1.0000   1.0000   1.0000   1.0000   1.0000   1.0000
     1.0000   1.0000   1.0000   1.0000   1.0000   1.0000   1.0000   1.0000
     1.0000   1.0000   1.0000   1.0000   1.0000   1.0000   1.0000   1.0000
     1.0000   1.0000   1.0000   1.0000   1.0000   1.0000   1.0000   1.0000
     1.0000   1.0000   1.0000   1.0000   1.0000   1.0000   1.0000   1.0000
     1.0000   1.0000   1.0000   1.0000   1.0000   1.0000   1.0000   1.0000
     1.0000   1.0000   1.0000   1.0000   1.0000   1.0000   1.0000   1.0000
     1.0000   1.0000   1.0000   1.0000   1.0000   1.0000   1.0000   1.0000
     1.0000   1.0000   1.0000   1.0000   1.0000   1.0000   1.0000   1.0000
     1.0000   1.0000   1.0000   1.0000   1.0000   1.0000   1.0000   1.0000
     1.0000   1.0000   1.0000   1.0000   1.0000   1.0000   1.0000   1.0000
     1.0000   1.0000   1.0000   1.0000   1.0000   1.0000   1.0000   1.0000
     1.0000   1.0000   1.0000   1.0000   1.0000   1.0000   1.0000   1.0000
     1.0000   1.0000   1.0000   1.0000   0.0000   0.0000   0.0000   0.0000
     0.0000   0.0000   0.0000   0.0000   0.0000   0.0000   0.0000   0.0000
     0.0000   0.0000   0.0000   0.0000   0.0000   0.0000   0.0000   0.0000
     0.0000   0.0000   0.0000   0.0000   0.0000   0.0000   0.0000   0.0000
     0.0000   0.0000   0.0000   0.0000   0.0000

          k = 0.0000-0.2500 0.2456 ( 48052 PWs)   bands (ev):

   -80.5945 -80.5944 -76.0186 -76.0186 -69.5446 -69.5446 -64.9584 -64.9584
   -46.7641 -46.7640 -46.6923 -46.6923 -46.6923 -46.6923 -42.0372 -42.0372
   -41.8801 -41.8801 -41.8801 -41.8801 -38.5976 -38.5976 -38.4146 -38.4146
   -38.4146 -38.4146 -33.7903 -33.7903 -33.5253 -33.5253 -33.5253 -33.5253
   -30.3216 -30.3216 -30.3108 -30.3108 -15.9699 -15.9699 -15.8750 -15.8750
   -10.6998 -10.6998 -10.6935 -10.6935 -10.6829 -10.6828 -10.5016 -10.5016
   -10.4587 -10.4586 -10.4494 -10.4494  -6.9522  -6.9522  -6.8314  -6.8314
    -6.6337  -6.6337  -6.2183  -6.2183  -6.1924  -6.1924  -6.1650  -6.1650
    -6.0765  -6.0765  -5.8889  -5.8889  -5.7709  -5.7709  -5.7220  -5.7220
    -1.5176  -1.5176  -1.3432  -1.3432  -1.1468  -1.1468  -1.1461  -1.1461
    -1.1001  -1.1001  -0.9072  -0.9071   3.4593   3.4593   3.4878   3.4878
     3.5000   3.5000   3.5314   3.5314   3.5590   3.5590   4.8864   4.8864
     5.4385   5.4385   5.8365   5.8365   5.9248   5.9248   6.0302   6.0302
     6.1460   6.1460   6.4038   6.4038   6.5609   6.5609   6.7302   6.7302
     6.8196   6.8196   6.8921   6.8921   6.9969   6.9969   7.2487   7.2487
     7.4303   7.4303   7.4854   7.4854   7.6898   7.6898   7.8339   7.8339
     8.0126   8.0126   8.1499   8.1499   8.2759   8.2759   8.4176   8.4176
     8.5482   8.5482   8.6774   8.6774   8.8227   8.8227   8.8824   8.8824
     9.0022   9.0022   9.0978   9.0978   9.1348   9.1348   9.2200   9.2200
     9.2444   9.2444   9.3471   9.3472   9.3842   9.3842   9.5332   9.5332
     9.8559   9.8559  11.3725  11.3725  12.3564  12.3564  12.6414  12.6414
    12.6460  12.6460  12.7080  12.7080  13.5721  13.5721  14.1193  14.1193
    14.3412  14.3412  14.7435  14.7435  15.1207  15.1207  15.1567  15.1568
    15.3376  15.3376  15.5652  15.5653  15.6789  15.6790  15.8678  15.8679
    15.9834  15.9836  16.0720  16.0735  16.1909

     occupation numbers 
     1.0000   1.0000   1.0000   1.0000   1.0000   1.0000   1.0000   1.0000
     1.0000   1.0000   1.0000   1.0000   1.0000   1.0000   1.0000   1.0000
     1.0000   1.0000   1.0000   1.0000   1.0000   1.0000   1.0000   1.0000
     1.0000   1.0000   1.0000   1.0000   1.0000   1.0000   1.0000   1.0000
     1.0000   1.0000   1.0000   1.0000   1.0000   1.0000   1.0000   1.0000
     1.0000   1.0000   1.0000   1.0000   1.0000   1.0000   1.0000   1.0000
     1.0000   1.0000   1.0000   1.0000   1.0000   1.0000   1.0000   1.0000
     1.0000   1.0000   1.0000   1.0000   1.0000   1.0000   1.0000   1.0000
     1.0000   1.0000   1.0000   1.0000   1.0000   1.0000   1.0000   1.0000
     1.0000   1.0000   1.0000   1.0000   1.0000   1.0000   1.0000   1.0000
     1.0000   1.0000   1.0000   1.0000   1.0000   1.0000   1.0000   1.0000
     1.0000   1.0000   1.0000   1.0000   1.0000   1.0000   1.0000   1.0000
     1.0000   1.0000   1.0000   1.0000   1.0000   1.0000   1.0000   1.0000
     1.0000   1.0000   1.0000   1.0000   1.0000   1.0000   1.0000   1.0000
     1.0000   1.0000   1.0000   1.0000   1.0000   1.0000   1.0000   1.0000
     1.0000   1.0000   1.0000   1.0000   1.0000   1.0000   1.0000   1.0000
     1.0000   1.0000   1.0000   1.0000   1.0000   1.0000   1.0000   1.0000
     1.0000   1.0000   1.0000   1.0000   1.0000   1.0000   1.0000   1.0000
     1.0000   1.0000   1.0000   1.0000   1.0000   1.0000   1.0000   1.0000
     1.0000   1.0000   1.0000   1.0000   1.0000   1.0000   1.0000   1.0000
     1.0000   1.0000   1.0000   1.0000   0.0000   0.0000   0.0000   0.0000
     0.0000   0.0000   0.0000   0.0000   0.0000   0.0000   0.0000   0.0000
     0.0000   0.0000   0.0000   0.0000   0.0000   0.0000   0.0000   0.0000
     0.0000   0.0000   0.0000   0.0000   0.0000   0.0000   0.0000   0.0000
     0.0000   0.0000   0.0000   0.0000   0.0000

          k = 0.2500 0.0000 0.0000 ( 47992 PWs)   bands (ev):

   -80.5945 -80.5944 -76.0186 -76.0186 -69.5446 -69.5446 -64.9584 -64.9584
   -46.7641 -46.7641 -46.6923 -46.6923 -46.6923 -46.6923 -42.0372 -42.0372
   -41.8801 -41.8801 -41.8801 -41.8801 -38.5976 -38.5976 -38.4146 -38.4146
   -38.4146 -38.4146 -33.7903 -33.7903 -33.5253 -33.5253 -33.5253 -33.5253
   -30.3216 -30.3162 -30.3161 -30.3108 -15.9694 -15.9178 -15.9175 -15.8745
   -10.7150 -10.7123 -10.7026 -10.6944 -10.6857 -10.5938 -10.5928 -10.5046
   -10.4585 -10.4495 -10.4452 -10.4439  -7.0188  -6.9758  -6.7933  -6.7899
    -6.5640  -6.4777  -6.3785  -6.3009  -6.2860  -6.2159  -6.1924  -6.1823
    -6.1278  -5.9778  -5.9104  -5.8876  -5.7980  -5.7815  -5.7622  -5.7230
    -1.5195  -1.3468  -1.1555  -1.1406  -1.1364  -1.1305  -1.1276  -1.1191
    -1.1023  -0.9263  -0.9173  -0.9090   3.3722   3.4560   3.4676   3.4868
     3.5009   3.5091   3.5277   3.5498   3.5589   3.5744   5.0115   5.1275
     5.4648   5.5544   5.7545   5.8160   5.8626   5.8824   5.9302   6.1052
     6.1824   6.2561   6.2991   6.4360   6.5378   6.5905   6.6361   6.6385
     6.8355   6.9067   7.0217   7.0732   7.1089   7.2111   7.2329   7.2727
     7.3705   7.4275   7.4626   7.4842   7.6868   7.7833   7.8605   7.8763
     7.9497   7.9937   8.0036   8.0515   8.1087   8.1478   8.2334   8.3034
     8.3855   8.4030   8.4415   8.5078   8.5312   8.6113   8.6268   8.7228
     8.7330   8.7782   8.9647   9.0104   9.0199   9.1015   9.1114   9.1375
     9.1390   9.2312   9.2715   9.3298   9.4201   9.4412   9.5373   9.5885
     9.9071   9.9157  10.4446  11.3747  12.6131  12.6409  12.6524  12.6594
    12.6821  12.7075  12.8180  12.8505  13.3517  13.5702  13.8656  14.2124
    14.6080  14.7358  15.0252  15.1332  15.1434  15.2244  15.2575  15.3106
    15.3822  15.5797  15.6306  15.6546  15.7004  15.7875  15.8372  15.8479
    16.0072  16.0083  16.0729  16.1393  16.2140

     occupation numbers 
     1.0000   1.0000   1.0000   1.0000   1.0000   1.0000   1.0000   1.0000
     1.0000   1.0000   1.0000   1.0000   1.0000   1.0000   1.0000   1.0000
     1.0000   1.0000   1.0000   1.0000   1.0000   1.0000   1.0000   1.0000
     1.0000   1.0000   1.0000   1.0000   1.0000   1.0000   1.0000   1.0000
     1.0000   1.0000   1.0000   1.0000   1.0000   1.0000   1.0000   1.0000
     1.0000   1.0000   1.0000   1.0000   1.0000   1.0000   1.0000   1.0000
     1.0000   1.0000   1.0000   1.0000   1.0000   1.0000   1.0000   1.0000
     1.0000   1.0000   1.0000   1.0000   1.0000   1.0000   1.0000   1.0000
     1.0000   1.0000   1.0000   1.0000   1.0000   1.0000   1.0000   1.0000
     1.0000   1.0000   1.0000   1.0000   1.0000   1.0000   1.0000   1.0000
     1.0000   1.0000   1.0000   1.0000   1.0000   1.0000   1.0000   1.0000
     1.0000   1.0000   1.0000   1.0000   1.0000   1.0000   1.0000   1.0000
     1.0000   1.0000   1.0000   1.0000   1.0000   1.0000   1.0000   1.0000
     1.0000   1.0000   1.0000   1.0000   1.0000   1.0000   1.0000   1.0000
     1.0000   1.0000   1.0000   1.0000   1.0000   1.0000   1.0000   1.0000
     1.0000   1.0000   1.0000   1.0000   1.0000   1.0000   1.0000   1.0000
     1.0000   1.0000   1.0000   1.0000   1.0000   1.0000   1.0000   1.0000
     1.0000   1.0000   1.0000   1.0000   1.0000   1.0000   1.0000   1.0000
     1.0000   1.0000   1.0000   1.0000   1.0000   1.0000   1.0000   1.0000
     1.0000   1.0000   1.0000   1.0000   1.0000   1.0000   1.0000   1.0000
     1.0000   1.0000   1.0000   1.0000   0.0000   0.0000   0.0000   0.0000
     0.0000   0.0000   0.0000   0.0000   0.0000   0.0000   0.0000   0.0000
     0.0000   0.0000   0.0000   0.0000   0.0000   0.0000   0.0000   0.0000
     0.0000   0.0000   0.0000   0.0000   0.0000   0.0000   0.0000   0.0000
     0.0000   0.0000   0.0000   0.0000   0.0000

          k = 0.2500 0.0000 0.2456 ( 48032 PWs)   bands (ev):

   -80.5945 -80.5944 -76.0186 -76.0186 -69.5446 -69.5446 -64.9584 -64.9584
   -46.7641 -46.7640 -46.6923 -46.6923 -46.6923 -46.6923 -42.0372 -42.0372
   -41.8801 -41.8801 -41.8801 -41.8801 -38.5976 -38.5976 -38.4146 -38.4146
   -38.4146 -38.4146 -33.7903 -33.7903 -33.5253 -33.5253 -33.5253 -33.5253
   -30.3216 -30.3162 -30.3161 -30.3108 -15.9699 -15.9182 -15.9179 -15.8750
   -10.7147 -10.7120 -10.6998 -10.6935 -10.6828 -10.5895 -10.5884 -10.5016
   -10.4586 -10.4494 -10.4453 -10.4439  -7.0246  -6.9522  -6.8314  -6.7989
    -6.6337  -6.5000  -6.4324  -6.2888  -6.2550  -6.2183  -6.1924  -6.1650
    -6.0765  -5.9752  -5.8923  -5.8889  -5.7863  -5.7709  -5.7560  -5.7220
    -1.5176  -1.3432  -1.1570  -1.1468  -1.1461  -1.1386  -1.1342  -1.1207
    -1.1001  -0.9235  -0.9146  -0.9072   3.3729   3.4593   3.4696   3.4878
     3.5000   3.5099   3.5314   3.5479   3.5590   3.5744   4.8864   5.0732
     5.4385   5.4778   5.8365   5.8424   5.8951   5.9248   6.0302   6.1460
     6.2002   6.3384   6.3926   6.4038   6.5609   6.6240   6.6787   6.7302
     6.8196   6.8921   6.9670   6.9969   7.0756   7.1943   7.2406   7.2487
     7.3654   7.3839   7.4303   7.4854   7.5345   7.6898   7.6986   7.7808
     7.8339   7.8827   8.0126   8.0759   8.1499   8.1638   8.2759   8.2845
     8.3999   8.4176   8.5482   8.5914   8.6615   8.6774   8.7323   8.7963
     8.8227   8.8824   9.0022   9.0488   9.0952   9.0978   9.1348   9.1772
     9.2200   9.2444   9.3169   9.3471   9.3842   9.4423   9.5155   9.5332
     9.8559   9.8645  10.4448  11.3725  12.3564  12.5826  12.6362  12.6414
    12.6460  12.6474  12.7080  12.8543  13.3388  13.5721  14.1193  14.3412
    14.6682  14.7435  15.1207  15.1211  15.1568  15.2782  15.3374  15.3376
    15.4465  15.5652  15.6269  15.6790  15.8042  15.8678  15.8894  15.9834
    16.0032  16.0720  16.1131  16.1604  16.1907

     occupation numbers 
     1.0000   1.0000   1.0000   1.0000   1.0000   1.0000   1.0000   1.0000
     1.0000   1.0000   1.0000   1.0000   1.0000   1.0000   1.0000   1.0000
     1.0000   1.0000   1.0000   1.0000   1.0000   1.0000   1.0000   1.0000
     1.0000   1.0000   1.0000   1.0000   1.0000   1.0000   1.0000   1.0000
     1.0000   1.0000   1.0000   1.0000   1.0000   1.0000   1.0000   1.0000
     1.0000   1.0000   1.0000   1.0000   1.0000   1.0000   1.0000   1.0000
     1.0000   1.0000   1.0000   1.0000   1.0000   1.0000   1.0000   1.0000
     1.0000   1.0000   1.0000   1.0000   1.0000   1.0000   1.0000   1.0000
     1.0000   1.0000   1.0000   1.0000   1.0000   1.0000   1.0000   1.0000
     1.0000   1.0000   1.0000   1.0000   1.0000   1.0000   1.0000   1.0000
     1.0000   1.0000   1.0000   1.0000   1.0000   1.0000   1.0000   1.0000
     1.0000   1.0000   1.0000   1.0000   1.0000   1.0000   1.0000   1.0000
     1.0000   1.0000   1.0000   1.0000   1.0000   1.0000   1.0000   1.0000
     1.0000   1.0000   1.0000   1.0000   1.0000   1.0000   1.0000   1.0000
     1.0000   1.0000   1.0000   1.0000   1.0000   1.0000   1.0000   1.0000
     1.0000   1.0000   1.0000   1.0000   1.0000   1.0000   1.0000   1.0000
     1.0000   1.0000   1.0000   1.0000   1.0000   1.0000   1.0000   1.0000
     1.0000   1.0000   1.0000   1.0000   1.0000   1.0000   1.0000   1.0000
     1.0000   1.0000   1.0000   1.0000   1.0000   1.0000   1.0000   1.0000
     1.0000   1.0000   1.0000   1.0000   1.0000   1.0000   1.0000   1.0000
     1.0000   1.0000   1.0000   1.0000   0.0000   0.0000   0.0000   0.0000
     0.0000   0.0000   0.0000   0.0000   0.0000   0.0000   0.0000   0.0000
     0.0000   0.0000   0.0000   0.0000   0.0000   0.0000   0.0000   0.0000
     0.0000   0.0000   0.0000   0.0000   0.0000   0.0000   0.0000   0.0000
     0.0000   0.0000   0.0000   0.0000   0.0000

          k = 0.2500-0.2500 0.0000 ( 47946 PWs)   bands (ev):

   -80.5944 -80.5944 -76.0186 -76.0186 -69.5446 -69.5446 -64.9584 -64.9584
   -46.7641 -46.7641 -46.6923 -46.6923 -46.6923 -46.6923 -42.0372 -42.0372
   -41.8801 -41.8801 -41.8801 -41.8801 -38.5976 -38.5976 -38.4146 -38.4146
   -38.4146 -38.4146 -33.7903 -33.7903 -33.5253 -33.5253 -33.5253 -33.5253
   -30.3200 -30.3200 -30.3124 -30.3124 -15.9534 -15.9534 -15.8862 -15.8862
   -10.7517 -10.7517 -10.6651 -10.6651 -10.5957 -10.5957 -10.5680 -10.5680
   -10.5263 -10.5263 -10.3924 -10.3924  -6.9842  -6.9842  -6.7872  -6.7872
    -6.5799  -6.5799  -6.2943  -6.2943  -6.2711  -6.2711  -6.1823  -6.1823
    -6.0481  -6.0481  -5.8706  -5.8706  -5.8224  -5.8224  -5.7337  -5.7337
    -1.3121  -1.3121  -1.2538  -1.2538  -1.1352  -1.1352  -1.1271  -1.1271
    -1.0146  -1.0146  -0.9299  -0.9299   3.4265   3.4265   3.4501   3.4501
     3.5235   3.5235   3.5387   3.5387   3.5619   3.5620   5.1015   5.1015
     5.5136   5.5136   5.8250   5.8250   5.9126   5.9126   5.9758   5.9758
     6.1541   6.1541   6.2551   6.2551   6.5627   6.5627   6.8018   6.8018
     6.9041   6.9041   7.0013   7.0013   7.0722   7.0722   7.2078   7.2078
     7.4112   7.4112   7.5563   7.5563   7.7144   7.7144   7.8969   7.8969
     8.0060   8.0060   8.0675   8.0675   8.1350   8.1350   8.3146   8.3146
     8.3986   8.3986   8.5094   8.5094   8.5326   8.5326   8.6647   8.6647
     8.7847   8.7847   8.9560   8.9560   9.0146   9.0146   9.0989   9.0989
     9.2246   9.2246   9.2919   9.2920   9.4175   9.4175   9.4546   9.4546
     9.8097   9.8097  10.9728  10.9728  12.6016  12.6016  12.6952  12.6952
    12.7429  12.7429  12.7925  12.7925  13.4307  13.4307  14.2803  14.2803
    14.6589  14.6589  14.8746  14.8746  15.1705  15.1705  15.2327  15.2328
    15.3801  15.3801  15.6017  15.6017  15.6709  15.6710  15.9194  15.9194
    16.0233  16.0234  16.3104  16.3108  16.4795

     occupation numbers 
     1.0000   1.0000   1.0000   1.0000   1.0000   1.0000   1.0000   1.0000
     1.0000   1.0000   1.0000   1.0000   1.0000   1.0000   1.0000   1.0000
     1.0000   1.0000   1.0000   1.0000   1.0000   1.0000   1.0000   1.0000
     1.0000   1.0000   1.0000   1.0000   1.0000   1.0000   1.0000   1.0000
     1.0000   1.0000   1.0000   1.0000   1.0000   1.0000   1.0000   1.0000
     1.0000   1.0000   1.0000   1.0000   1.0000   1.0000   1.0000   1.0000
     1.0000   1.0000   1.0000   1.0000   1.0000   1.0000   1.0000   1.0000
     1.0000   1.0000   1.0000   1.0000   1.0000   1.0000   1.0000   1.0000
     1.0000   1.0000   1.0000   1.0000   1.0000   1.0000   1.0000   1.0000
     1.0000   1.0000   1.0000   1.0000   1.0000   1.0000   1.0000   1.0000
     1.0000   1.0000   1.0000   1.0000   1.0000   1.0000   1.0000   1.0000
     1.0000   1.0000   1.0000   1.0000   1.0000   1.0000   1.0000   1.0000
     1.0000   1.0000   1.0000   1.0000   1.0000   1.0000   1.0000   1.0000
     1.0000   1.0000   1.0000   1.0000   1.0000   1.0000   1.0000   1.0000
     1.0000   1.0000   1.0000   1.0000   1.0000   1.0000   1.0000   1.0000
     1.0000   1.0000   1.0000   1.0000   1.0000   1.0000   1.0000   1.0000
     1.0000   1.0000   1.0000   1.0000   1.0000   1.0000   1.0000   1.0000
     1.0000   1.0000   1.0000   1.0000   1.0000   1.0000   1.0000   1.0000
     1.0000   1.0000   1.0000   1.0000   1.0000   1.0000   1.0000   1.0000
     1.0000   1.0000   1.0000   1.0000   1.0000   1.0000   1.0000   1.0000
     1.0000   1.0000   1.0000   1.0000   0.0000   0.0000   0.0000   0.0000
     0.0000   0.0000   0.0000   0.0000   0.0000   0.0000   0.0000   0.0000
     0.0000   0.0000   0.0000   0.0000   0.0000   0.0000   0.0000   0.0000
     0.0000   0.0000   0.0000   0.0000   0.0000   0.0000   0.0000   0.0000
     0.0000   0.0000   0.0000   0.0000   0.0000

          k = 0.2500-0.2500 0.2456 ( 48044 PWs)   bands (ev):

   -80.5945 -80.5944 -76.0186 -76.0186 -69.5446 -69.5446 -64.9584 -64.9584
   -46.7641 -46.7640 -46.6923 -46.6923 -46.6923 -46.6923 -42.0372 -42.0372
   -41.8801 -41.8801 -41.8801 -41.8801 -38.5976 -38.5976 -38.4146 -38.4146
   -38.4146 -38.4146 -33.7903 -33.7903 -33.5253 -33.5253 -33.5253 -33.5253
   -30.3200 -30.3200 -30.3124 -30.3124 -15.9539 -15.9538 -15.8867 -15.8866
   -10.7513 -10.7513 -10.6595 -10.6595 -10.5956 -10.5956 -10.5680 -10.5680
   -10.5229 -10.5229 -10.3924 -10.3924  -6.9741  -6.9741  -6.7837  -6.7837
    -6.6804  -6.6804  -6.2868  -6.2868  -6.2389  -6.2389  -6.1817  -6.1817
    -6.0229  -6.0229  -5.8645  -5.8645  -5.8208  -5.8208  -5.7285  -5.7285
    -1.3111  -1.3111  -1.2489  -1.2489  -1.1436  -1.1436  -1.1374  -1.1373
    -1.0106  -1.0106  -0.9304  -0.9304   3.4261   3.4261   3.4545   3.4546
     3.5253   3.5253   3.5373   3.5373   3.5616   3.5616   5.0024   5.0024
     5.4599   5.4599   5.8731   5.8731   5.9365   5.9365   6.1393   6.1393
     6.1630   6.1630   6.2936   6.2936   6.5587   6.5587   6.7551   6.7551
     6.9209   6.9209   7.0323   7.0323   7.1349   7.1349   7.2312   7.2312
     7.3586   7.3586   7.4742   7.4742   7.5487   7.5487   7.6727   7.6727
     7.9535   7.9535   8.0864   8.0864   8.1608   8.1608   8.3695   8.3695
     8.4513   8.4513   8.5771   8.5771   8.6632   8.6632   8.7337   8.7337
     8.8414   8.8414   8.9958   8.9958   9.0774   9.0774   9.1358   9.1358
     9.2279   9.2279   9.3002   9.3002   9.3965   9.3965   9.4894   9.4894
     9.7458   9.7458  10.9712  10.9712  12.4651  12.4651  12.5995  12.5995
    12.6905  12.6905  12.7955  12.7955  13.4276  13.4276  14.4076  14.4076
    14.7412  14.7413  14.9291  14.9291  15.1550  15.1550  15.3200  15.3200
    15.6124  15.6124  15.6608  15.6608  15.8183  15.8184  15.8678  15.8679
    15.9951  15.9951  16.3032  16.3035  16.3951

     occupation numbers 
     1.0000   1.0000   1.0000   1.0000   1.0000   1.0000   1.0000   1.0000
     1.0000   1.0000   1.0000   1.0000   1.0000   1.0000   1.0000   1.0000
     1.0000   1.0000   1.0000   1.0000   1.0000   1.0000   1.0000   1.0000
     1.0000   1.0000   1.0000   1.0000   1.0000   1.0000   1.0000   1.0000
     1.0000   1.0000   1.0000   1.0000   1.0000   1.0000   1.0000   1.0000
     1.0000   1.0000   1.0000   1.0000   1.0000   1.0000   1.0000   1.0000
     1.0000   1.0000   1.0000   1.0000   1.0000   1.0000   1.0000   1.0000
     1.0000   1.0000   1.0000   1.0000   1.0000   1.0000   1.0000   1.0000
     1.0000   1.0000   1.0000   1.0000   1.0000   1.0000   1.0000   1.0000
     1.0000   1.0000   1.0000   1.0000   1.0000   1.0000   1.0000   1.0000
     1.0000   1.0000   1.0000   1.0000   1.0000   1.0000   1.0000   1.0000
     1.0000   1.0000   1.0000   1.0000   1.0000   1.0000   1.0000   1.0000
     1.0000   1.0000   1.0000   1.0000   1.0000   1.0000   1.0000   1.0000
     1.0000   1.0000   1.0000   1.0000   1.0000   1.0000   1.0000   1.0000
     1.0000   1.0000   1.0000   1.0000   1.0000   1.0000   1.0000   1.0000
     1.0000   1.0000   1.0000   1.0000   1.0000   1.0000   1.0000   1.0000
     1.0000   1.0000   1.0000   1.0000   1.0000   1.0000   1.0000   1.0000
     1.0000   1.0000   1.0000   1.0000   1.0000   1.0000   1.0000   1.0000
     1.0000   1.0000   1.0000   1.0000   1.0000   1.0000   1.0000   1.0000
     1.0000   1.0000   1.0000   1.0000   1.0000   1.0000   1.0000   1.0000
     1.0000   1.0000   1.0000   1.0000   0.0000   0.0000   0.0000   0.0000
     0.0000   0.0000   0.0000   0.0000   0.0000   0.0000   0.0000   0.0000
     0.0000   0.0000   0.0000   0.0000   0.0000   0.0000   0.0000   0.0000
     0.0000   0.0000   0.0000   0.0000   0.0000   0.0000   0.0000   0.0000
     0.0000   0.0000   0.0000   0.0000   0.0000

          k =-0.5000 0.0000 0.0000 ( 48100 PWs)   bands (ev):

   -80.5945 -80.5944 -76.0186 -76.0186 -69.5446 -69.5446 -64.9584 -64.9584
   -46.7641 -46.7641 -46.6923 -46.6923 -46.6923 -46.6923 -42.0372 -42.0372
   -41.8801 -41.8801 -41.8801 -41.8801 -38.5976 -38.5976 -38.4146 -38.4146
   -38.4146 -38.4146 -33.7903 -33.7903 -33.5253 -33.5253 -33.5253 -33.5253
   -30.3163 -30.3161 -30.3161 -30.3161 -15.9203 -15.9198 -15.9152 -15.9152
   -10.7678 -10.7650 -10.6065 -10.6032 -10.5905 -10.5889 -10.5889 -10.5888
   -10.5685 -10.5635 -10.3877 -10.3866  -7.0699  -6.9671  -6.8373  -6.7454
    -6.4841  -6.4615  -6.3786  -6.3693  -6.3657  -6.3657  -6.1857  -6.1715
    -6.0844  -6.0155  -5.9321  -5.8285  -5.8012  -5.8012  -5.7902  -5.7414
    -1.3217  -1.3144  -1.1361  -1.1349  -1.1212  -1.1212  -1.0219  -0.9956
    -0.9499  -0.9370  -0.8466  -0.8461   3.3231   3.4277   3.4864   3.4864
     3.5029   3.5146   3.5218   3.5275   3.5716   3.5778   4.9825   5.3352
     5.5469   5.5505   5.7484   5.8044   5.8044   5.9002   6.1248   6.1603
     6.1826   6.2735   6.3273   6.3561   6.4404   6.5131   6.8067   6.9110
     6.9730   6.9730   6.9802   7.0966   7.1265   7.2357   7.2357   7.3037
     7.3725   7.5629   7.5629   7.6251   7.6785   7.6886   7.6975   7.6975
     7.7450   7.7856   7.8801   7.9083   7.9718   8.1195   8.1247   8.1247
     8.1433   8.2574   8.3349   8.4455   8.5502   8.5502   8.5771   8.6431
     8.6507   8.6507   8.7463   8.8189   8.8409   9.0081   9.0984   9.0996
     9.1278   9.2926   9.2981   9.3278   9.3278   9.3708   9.4575   9.4663
     9.5826   9.9844  10.3648  10.9019  12.5990  12.6292  12.6969  12.6969
    12.7324  12.7880  12.8747  12.8979  13.1971  13.5475  14.4635  15.0061
    15.1396  15.1396  15.1734  15.2481  15.2967  15.3741  15.4365  15.4365
    15.4481  15.4969  15.7029  15.7029  15.7473  15.7943  15.8511  15.8511
    15.9672  16.0548  16.1402  16.1402  16.1674

     occupation numbers 
     1.0000   1.0000   1.0000   1.0000   1.0000   1.0000   1.0000   1.0000
     1.0000   1.0000   1.0000   1.0000   1.0000   1.0000   1.0000   1.0000
     1.0000   1.0000   1.0000   1.0000   1.0000   1.0000   1.0000   1.0000
     1.0000   1.0000   1.0000   1.0000   1.0000   1.0000   1.0000   1.0000
     1.0000   1.0000   1.0000   1.0000   1.0000   1.0000   1.0000   1.0000
     1.0000   1.0000   1.0000   1.0000   1.0000   1.0000   1.0000   1.0000
     1.0000   1.0000   1.0000   1.0000   1.0000   1.0000   1.0000   1.0000
     1.0000   1.0000   1.0000   1.0000   1.0000   1.0000   1.0000   1.0000
     1.0000   1.0000   1.0000   1.0000   1.0000   1.0000   1.0000   1.0000
     1.0000   1.0000   1.0000   1.0000   1.0000   1.0000   1.0000   1.0000
     1.0000   1.0000   1.0000   1.0000   1.0000   1.0000   1.0000   1.0000
     1.0000   1.0000   1.0000   1.0000   1.0000   1.0000   1.0000   1.0000
     1.0000   1.0000   1.0000   1.0000   1.0000   1.0000   1.0000   1.0000
     1.0000   1.0000   1.0000   1.0000   1.0000   1.0000   1.0000   1.0000
     1.0000   1.0000   1.0000   1.0000   1.0000   1.0000   1.0000   1.0000
     1.0000   1.0000   1.0000   1.0000   1.0000   1.0000   1.0000   1.0000
     1.0000   1.0000   1.0000   1.0000   1.0000   1.0000   1.0000   1.0000
     1.0000   1.0000   1.0000   1.0000   1.0000   1.0000   1.0000   1.0000
     1.0000   1.0000   1.0000   1.0000   1.0000   1.0000   1.0000   1.0000
     1.0000   1.0000   1.0000   1.0000   1.0000   1.0000   1.0000   1.0000
     1.0000   1.0000   1.0000   1.0000   0.0000   0.0000   0.0000   0.0000
     0.0000   0.0000   0.0000   0.0000   0.0000   0.0000   0.0000   0.0000
     0.0000   0.0000   0.0000   0.0000   0.0000   0.0000   0.0000   0.0000
     0.0000   0.0000   0.0000   0.0000   0.0000   0.0000   0.0000   0.0000
     0.0000   0.0000   0.0000   0.0000   0.0000

          k =-0.5000 0.0000 0.2456 ( 48018 PWs)   bands (ev):

   -80.5945 -80.5944 -76.0186 -76.0186 -69.5446 -69.5446 -64.9584 -64.9584
   -46.7641 -46.7640 -46.6923 -46.6923 -46.6923 -46.6923 -42.0372 -42.0372
   -41.8801 -41.8801 -41.8801 -41.8801 -38.5976 -38.5976 -38.4146 -38.4146
   -38.4146 -38.4146 -33.7903 -33.7903 -33.5253 -33.5253 -33.5253 -33.5253
   -30.3163 -30.3161 -30.3161 -30.3161 -15.9207 -15.9203 -15.9156 -15.9156
   -10.7673 -10.7645 -10.6034 -10.5999 -10.5900 -10.5882 -10.5848 -10.5845
   -10.5678 -10.5627 -10.3878 -10.3867  -7.0865  -6.9597  -6.8670  -6.7281
    -6.5261  -6.4483  -6.4365  -6.4014  -6.3979  -6.3231  -6.1710  -6.1660
    -6.0542  -5.9929  -5.9583  -5.8371  -5.7856  -5.7730  -5.7657  -5.7367
    -1.3185  -1.3112  -1.1401  -1.1396  -1.1381  -1.1282  -1.0202  -0.9940
    -0.9444  -0.9317  -0.8472  -0.8467   3.3228   3.4273   3.4907   3.4916
     3.5019   3.5124   3.5202   3.5254   3.5713   3.5801   4.9502   5.2276
     5.4585   5.4871   5.7605   5.8824   5.9024   5.9056   6.1677   6.1924
     6.3003   6.3666   6.3878   6.4204   6.4802   6.5261   6.6823   6.8644
     6.9262   6.9299   7.0151   7.0262   7.1126   7.1586   7.2575   7.3220
     7.3816   7.4323   7.4466   7.5131   7.5684   7.6175   7.6699   7.7134
     7.7271   7.7918   7.8075   7.8597   8.0466   8.0789   8.1327   8.1470
     8.3188   8.4222   8.4457   8.4522   8.4662   8.4749   8.6614   8.7338
     8.7524   8.7795   8.8188   8.8868   9.0333   9.0970   9.0984   9.1478
     9.1888   9.2410   9.2768   9.3122   9.3232   9.3640   9.4586   9.4802
     9.5608   9.9945  10.3141  10.8943  12.4758  12.5947  12.6101  12.6892
    12.6915  12.6928  12.7840  12.8816  13.1802  13.5527  14.3964  14.9530
    15.1724  15.2057  15.2105  15.2268  15.2495  15.3508  15.4210  15.4689
    15.5799  15.7182  15.7332  15.7535  15.7731  15.8588  15.9691  16.0420
    16.0494  16.0500  16.0552  16.0915  16.1321

     occupation numbers 
     1.0000   1.0000   1.0000   1.0000   1.0000   1.0000   1.0000   1.0000
     1.0000   1.0000   1.0000   1.0000   1.0000   1.0000   1.0000   1.0000
     1.0000   1.0000   1.0000   1.0000   1.0000   1.0000   1.0000   1.0000
     1.0000   1.0000   1.0000   1.0000   1.0000   1.0000   1.0000   1.0000
     1.0000   1.0000   1.0000   1.0000   1.0000   1.0000   1.0000   1.0000
     1.0000   1.0000   1.0000   1.0000   1.0000   1.0000   1.0000   1.0000
     1.0000   1.0000   1.0000   1.0000   1.0000   1.0000   1.0000   1.0000
     1.0000   1.0000   1.0000   1.0000   1.0000   1.0000   1.0000   1.0000
     1.0000   1.0000   1.0000   1.0000   1.0000   1.0000   1.0000   1.0000
     1.0000   1.0000   1.0000   1.0000   1.0000   1.0000   1.0000   1.0000
     1.0000   1.0000   1.0000   1.0000   1.0000   1.0000   1.0000   1.0000
     1.0000   1.0000   1.0000   1.0000   1.0000   1.0000   1.0000   1.0000
     1.0000   1.0000   1.0000   1.0000   1.0000   1.0000   1.0000   1.0000
     1.0000   1.0000   1.0000   1.0000   1.0000   1.0000   1.0000   1.0000
     1.0000   1.0000   1.0000   1.0000   1.0000   1.0000   1.0000   1.0000
     1.0000   1.0000   1.0000   1.0000   1.0000   1.0000   1.0000   1.0000
     1.0000   1.0000   1.0000   1.0000   1.0000   1.0000   1.0000   1.0000
     1.0000   1.0000   1.0000   1.0000   1.0000   1.0000   1.0000   1.0000
     1.0000   1.0000   1.0000   1.0000   1.0000   1.0000   1.0000   1.0000
     1.0000   1.0000   1.0000   1.0000   1.0000   1.0000   1.0000   1.0000
     1.0000   1.0000   1.0000   1.0000   0.0000   0.0000   0.0000   0.0000
     0.0000   0.0000   0.0000   0.0000   0.0000   0.0000   0.0000   0.0000
     0.0000   0.0000   0.0000   0.0000   0.0000   0.0000   0.0000   0.0000
     0.0000   0.0000   0.0000   0.0000   0.0000   0.0000   0.0000   0.0000
     0.0000   0.0000   0.0000   0.0000   0.0000

          k =-0.5000-0.2500 0.0000 ( 47968 PWs)   bands (ev):

   -80.5945 -80.5944 -76.0186 -76.0186 -69.5446 -69.5446 -64.9584 -64.9584
   -46.7641 -46.7641 -46.6923 -46.6923 -46.6923 -46.6923 -42.0372 -42.0372
   -41.8801 -41.8801 -41.8801 -41.8801 -38.5976 -38.5976 -38.4146 -38.4146
   -38.4146 -38.4146 -33.7903 -33.7903 -33.5253 -33.5253 -33.5253 -33.5253
   -30.3162 -30.3162 -30.3161 -30.3161 -15.9178 -15.9178 -15.9175 -15.9175
   -10.7150 -10.7150 -10.7123 -10.7123 -10.5938 -10.5938 -10.5928 -10.5928
   -10.4452 -10.4452 -10.4439 -10.4439  -7.0188  -7.0188  -6.7899  -6.7899
    -6.4777  -6.4777  -6.3785  -6.3785  -6.3009  -6.3009  -6.2860  -6.2860
    -5.9778  -5.9778  -5.9104  -5.9104  -5.7980  -5.7980  -5.7622  -5.7622
    -1.1555  -1.1555  -1.1364  -1.1364  -1.1276  -1.1276  -1.1191  -1.1191
    -0.9263  -0.9263  -0.9173  -0.9173   3.3722   3.3722   3.4676   3.4676
     3.5091   3.5091   3.5498   3.5498   3.5744   3.5744   5.1275   5.1275
     5.5544   5.5544   5.8160   5.8160   5.8626   5.8626   6.1824   6.1824
     6.2561   6.2561   6.2990   6.2991   6.5905   6.5905   6.6385   6.6385
     7.0732   7.0732   7.1089   7.1089   7.2111   7.2111   7.2329   7.2329
     7.3705   7.3705   7.4626   7.4626   7.6868   7.6868   7.7833   7.7833
     7.8605   7.8605   7.9497   7.9497   7.9937   7.9937   8.1087   8.1087
     8.3034   8.3034   8.3855   8.3855   8.4031   8.4031   8.5312   8.5312
     8.6268   8.6268   8.7330   8.7330   9.0199   9.0199   9.1015   9.1015
     9.1375   9.1375   9.2715   9.2715   9.4412   9.4412   9.5373   9.5373
     9.9071   9.9071  10.4446  10.4446  12.6409  12.6409  12.6594  12.6594
    12.8180  12.8180  12.8505  12.8505  13.3517  13.3517  14.7358  14.7358
    15.1332  15.1332  15.2575  15.2575  15.3106  15.3107  15.3822  15.3822
    15.6305  15.6306  15.7004  15.7006  15.7875  15.7875  15.8372  15.8374
    16.0072  16.0075  16.1394  16.1421  16.2140

     occupation numbers 
     1.0000   1.0000   1.0000   1.0000   1.0000   1.0000   1.0000   1.0000
     1.0000   1.0000   1.0000   1.0000   1.0000   1.0000   1.0000   1.0000
     1.0000   1.0000   1.0000   1.0000   1.0000   1.0000   1.0000   1.0000
     1.0000   1.0000   1.0000   1.0000   1.0000   1.0000   1.0000   1.0000
     1.0000   1.0000   1.0000   1.0000   1.0000   1.0000   1.0000   1.0000
     1.0000   1.0000   1.0000   1.0000   1.0000   1.0000   1.0000   1.0000
     1.0000   1.0000   1.0000   1.0000   1.0000   1.0000   1.0000   1.0000
     1.0000   1.0000   1.0000   1.0000   1.0000   1.0000   1.0000   1.0000
     1.0000   1.0000   1.0000   1.0000   1.0000   1.0000   1.0000   1.0000
     1.0000   1.0000   1.0000   1.0000   1.0000   1.0000   1.0000   1.0000
     1.0000   1.0000   1.0000   1.0000   1.0000   1.0000   1.0000   1.0000
     1.0000   1.0000   1.0000   1.0000   1.0000   1.0000   1.0000   1.0000
     1.0000   1.0000   1.0000   1.0000   1.0000   1.0000   1.0000   1.0000
     1.0000   1.0000   1.0000   1.0000   1.0000   1.0000   1.0000   1.0000
     1.0000   1.0000   1.0000   1.0000   1.0000   1.0000   1.0000   1.0000
     1.0000   1.0000   1.0000   1.0000   1.0000   1.0000   1.0000   1.0000
     1.0000   1.0000   1.0000   1.0000   1.0000   1.0000   1.0000   1.0000
     1.0000   1.0000   1.0000   1.0000   1.0000   1.0000   1.0000   1.0000
     1.0000   1.0000   1.0000   1.0000   1.0000   1.0000   1.0000   1.0000
     1.0000   1.0000   1.0000   1.0000   1.0000   1.0000   1.0000   1.0000
     1.0000   1.0000   1.0000   1.0000   0.0000   0.0000   0.0000   0.0000
     0.0000   0.0000   0.0000   0.0000   0.0000   0.0000   0.0000   0.0000
     0.0000   0.0000   0.0000   0.0000   0.0000   0.0000   0.0000   0.0000
     0.0000   0.0000   0.0000   0.0000   0.0000   0.0000   0.0000   0.0000
     0.0000   0.0000   0.0000   0.0000   0.0000

          k =-0.5000-0.2500 0.2456 ( 48012 PWs)   bands (ev):

   -80.5945 -80.5945 -76.0186 -76.0186 -69.5446 -69.5446 -64.9584 -64.9584
   -46.7641 -46.7640 -46.6923 -46.6923 -46.6923 -46.6923 -42.0372 -42.0372
   -41.8801 -41.8801 -41.8801 -41.8801 -38.5976 -38.5976 -38.4146 -38.4146
   -38.4146 -38.4146 -33.7903 -33.7903 -33.5253 -33.5253 -33.5253 -33.5253
   -30.3162 -30.3162 -30.3161 -30.3161 -15.9182 -15.9182 -15.9179 -15.9179
   -10.7147 -10.7147 -10.7120 -10.7119 -10.5895 -10.5895 -10.5884 -10.5884
   -10.4453 -10.4453 -10.4439 -10.4439  -7.0246  -7.0246  -6.7989  -6.7989
    -6.5000  -6.4999  -6.4325  -6.4324  -6.2888  -6.2888  -6.2550  -6.2550
    -5.9752  -5.9752  -5.8923  -5.8923  -5.7863  -5.7863  -5.7560  -5.7560
    -1.1570  -1.1570  -1.1386  -1.1386  -1.1342  -1.1342  -1.1207  -1.1207
    -0.9235  -0.9235  -0.9146  -0.9146   3.3729   3.3729   3.4696   3.4696
     3.5099   3.5099   3.5479   3.5479   3.5744   3.5744   5.0732   5.0732
     5.4778   5.4778   5.8424   5.8424   5.8951   5.8951   6.2002   6.2002
     6.3384   6.3384   6.3926   6.3926   6.6240   6.6240   6.6787   6.6787
     6.9670   6.9670   7.0756   7.0756   7.1943   7.1943   7.2406   7.2406
     7.3654   7.3654   7.3839   7.3839   7.5345   7.5345   7.6986   7.6986
     7.7808   7.7808   7.8827   7.8827   8.0759   8.0759   8.1638   8.1638
     8.2845   8.2845   8.3999   8.3999   8.5914   8.5914   8.6615   8.6615
     8.7323   8.7323   8.7963   8.7963   9.0488   9.0488   9.0952   9.0952
     9.1772   9.1772   9.3169   9.3169   9.4423   9.4424   9.5155   9.5155
     9.8645   9.8645  10.4447  10.4448  12.5826  12.5826  12.6362  12.6362
    12.6474  12.6474  12.8543  12.8543  13.3388  13.3388  14.6682  14.6683
    15.1211  15.1211  15.2783  15.2783  15.3374  15.3374  15.4465  15.4465
    15.6269  15.6269  15.8042  15.8043  15.8894  15.8895  16.0032  16.0035
    16.1131  16.1132  16.1607  16.1610  16.2046

     occupation numbers 
     1.0000   1.0000   1.0000   1.0000   1.0000   1.0000   1.0000   1.0000
     1.0000   1.0000   1.0000   1.0000   1.0000   1.0000   1.0000   1.0000
     1.0000   1.0000   1.0000   1.0000   1.0000   1.0000   1.0000   1.0000
     1.0000   1.0000   1.0000   1.0000   1.0000   1.0000   1.0000   1.0000
     1.0000   1.0000   1.0000   1.0000   1.0000   1.0000   1.0000   1.0000
     1.0000   1.0000   1.0000   1.0000   1.0000   1.0000   1.0000   1.0000
     1.0000   1.0000   1.0000   1.0000   1.0000   1.0000   1.0000   1.0000
     1.0000   1.0000   1.0000   1.0000   1.0000   1.0000   1.0000   1.0000
     1.0000   1.0000   1.0000   1.0000   1.0000   1.0000   1.0000   1.0000
     1.0000   1.0000   1.0000   1.0000   1.0000   1.0000   1.0000   1.0000
     1.0000   1.0000   1.0000   1.0000   1.0000   1.0000   1.0000   1.0000
     1.0000   1.0000   1.0000   1.0000   1.0000   1.0000   1.0000   1.0000
     1.0000   1.0000   1.0000   1.0000   1.0000   1.0000   1.0000   1.0000
     1.0000   1.0000   1.0000   1.0000   1.0000   1.0000   1.0000   1.0000
     1.0000   1.0000   1.0000   1.0000   1.0000   1.0000   1.0000   1.0000
     1.0000   1.0000   1.0000   1.0000   1.0000   1.0000   1.0000   1.0000
     1.0000   1.0000   1.0000   1.0000   1.0000   1.0000   1.0000   1.0000
     1.0000   1.0000   1.0000   1.0000   1.0000   1.0000   1.0000   1.0000
     1.0000   1.0000   1.0000   1.0000   1.0000   1.0000   1.0000   1.0000
     1.0000   1.0000   1.0000   1.0000   1.0000   1.0000   1.0000   1.0000
     1.0000   1.0000   1.0000   1.0000   0.0000   0.0000   0.0000   0.0000
     0.0000   0.0000   0.0000   0.0000   0.0000   0.0000   0.0000   0.0000
     0.0000   0.0000   0.0000   0.0000   0.0000   0.0000   0.0000   0.0000
     0.0000   0.0000   0.0000   0.0000   0.0000   0.0000   0.0000   0.0000
     0.0000   0.0000   0.0000   0.0000   0.0000

 ------ SPIN DOWN ----------


          k = 0.0000 0.0000 0.0000 ( 48047 PWs)   bands (ev):

   -80.5944 -80.5944 -76.0187 -76.0186 -69.5446 -69.5446 -64.9584 -64.9584
   -46.7641 -46.7641 -46.6923 -46.6923 -46.6923 -46.6923 -42.0372 -42.0372
   -41.8801 -41.8801 -41.8801 -41.8801 -38.5976 -38.5976 -38.4146 -38.4146
   -38.4146 -38.4146 -33.7903 -33.7903 -33.5253 -33.5253 -33.5253 -33.5253
   -30.3238 -30.3163 -30.3161 -30.3086 -15.9909 -15.9203 -15.9198 -15.8569
   -10.7368 -10.7363 -10.7363 -10.6065 -10.6032 -10.5905 -10.5888 -10.5685
   -10.5635 -10.4641 -10.3978 -10.3978  -7.0529  -6.9671  -6.7804  -6.7454
    -6.5241  -6.4841  -6.3693  -6.2089  -6.1857  -6.1780  -6.1715  -6.1614
    -6.1614  -6.0844  -6.0155  -5.7902  -5.7728  -5.7728  -5.7414  -5.7169
    -1.5994  -1.5994  -1.3217  -1.3144  -1.1426  -1.1361  -1.1349  -1.1310
    -1.0096  -1.0096  -0.9499  -0.9370   3.4110   3.4277   3.4843   3.4969
     3.5029   3.5218   3.5275   3.5607   3.5607   3.5716   4.7514   5.3352
     5.3517   5.5469   5.6956   5.7485   5.9002   5.9540   6.0003   6.0003
     6.1248   6.1603   6.2791   6.3273   6.3561   6.4892   6.5131   6.6937
     6.6937   6.9086   6.9802   7.0966   7.1265   7.2440   7.2440   7.3037
     7.3725   7.4468   7.5037   7.6785   7.6886   7.7450   7.7856   7.9083
     8.0039   8.0039   8.0514   8.1195   8.1433   8.3349   8.4455   8.4830
     8.4830   8.5081   8.5771   8.6431   8.7217   8.7217   8.7463   8.8310
     8.8409   9.0081   9.0448   9.0448   9.0996   9.2333   9.2333   9.2926
     9.2981   9.3078   9.3549   9.3990   9.4575   9.4663   9.4663   9.5826
     9.6183  10.3648  10.9019  11.7046  12.5588  12.5990  12.6038  12.6292
    12.6920  12.6920  12.7324  12.7880  13.3796  13.5475  13.5892  13.6538
    14.3689  14.4635  14.6358  15.0061  15.0373  15.0373  15.1734  15.2968
    15.3740  15.4413  15.4481  15.7028  15.7029  15.7209  15.7455  15.7455
    15.7942  15.8517  15.9672  16.0297  16.0547

     occupation numbers 
     1.0000   1.0000   1.0000   1.0000   1.0000   1.0000   1.0000   1.0000
     1.0000   1.0000   1.0000   1.0000   1.0000   1.0000   1.0000   1.0000
     1.0000   1.0000   1.0000   1.0000   1.0000   1.0000   1.0000   1.0000
     1.0000   1.0000   1.0000   1.0000   1.0000   1.0000   1.0000   1.0000
     1.0000   1.0000   1.0000   1.0000   1.0000   1.0000   1.0000   1.0000
     1.0000   1.0000   1.0000   1.0000   1.0000   1.0000   1.0000   1.0000
     1.0000   1.0000   1.0000   1.0000   1.0000   1.0000   1.0000   1.0000
     1.0000   1.0000   1.0000   1.0000   1.0000   1.0000   1.0000   1.0000
     1.0000   1.0000   1.0000   1.0000   1.0000   1.0000   1.0000   1.0000
     1.0000   1.0000   1.0000   1.0000   1.0000   1.0000   1.0000   1.0000
     1.0000   1.0000   1.0000   1.0000   1.0000   1.0000   1.0000   1.0000
     1.0000   1.0000   1.0000   1.0000   1.0000   1.0000   1.0000   1.0000
     1.0000   1.0000   1.0000   1.0000   1.0000   1.0000   1.0000   1.0000
     1.0000   1.0000   1.0000   1.0000   1.0000   1.0000   1.0000   1.0000
     1.0000   1.0000   1.0000   1.0000   1.0000   1.0000   1.0000   1.0000
     1.0000   1.0000   1.0000   1.0000   1.0000   1.0000   1.0000   1.0000
     1.0000   1.0000   1.0000   1.0000   1.0000   1.0000   1.0000   1.0000
     1.0000   1.0000   1.0000   1.0000   1.0000   1.0000   1.0000   1.0000
     1.0000   1.0000   1.0000   1.0000   1.0000   1.0000   1.0000   1.0000
     1.0000   1.0000   1.0000   1.0000   1.0000   1.0000   1.0000   1.0000
     1.0000   1.0000   1.0000   1.0000   0.0000   0.0000   0.0000   0.0000
     0.0000   0.0000   0.0000   0.0000   0.0000   0.0000   0.0000   0.0000
     0.0000   0.0000   0.0000   0.0000   0.0000   0.0000   0.0000   0.0000
     0.0000   0.0000   0.0000   0.0000   0.0000   0.0000   0.0000   0.0000
     0.0000   0.0000   0.0000   0.0000   0.0000

          k = 0.0000 0.0000 0.2456 ( 48026 PWs)   bands (ev):

   -80.5944 -80.5944 -76.0186 -76.0186 -69.5446 -69.5446 -64.9584 -64.9584
   -46.7640 -46.7640 -46.6923 -46.6923 -46.6923 -46.6923 -42.0372 -42.0372
   -41.8801 -41.8801 -41.8801 -41.8801 -38.5976 -38.5976 -38.4146 -38.4146
   -38.4146 -38.4146 -33.7904 -33.7903 -33.5253 -33.5253 -33.5253 -33.5253
   -30.3238 -30.3163 -30.3161 -30.3086 -15.9914 -15.9207 -15.9203 -15.8573
   -10.7361 -10.7361 -10.7297 -10.6034 -10.5999 -10.5900 -10.5882 -10.5678
   -10.5627 -10.4614 -10.3978 -10.3978  -7.0634  -6.9598  -6.8129  -6.7281
    -6.5716  -6.5261  -6.4483  -6.2088  -6.1748  -6.1748  -6.1710  -6.1660
    -6.0858  -6.0542  -5.9929  -5.7856  -5.7584  -5.7584  -5.7368  -5.7212
    -1.5989  -1.5988  -1.3185  -1.3112  -1.1557  -1.1535  -1.1396  -1.1381
    -1.0100  -1.0100  -0.9444  -0.9317   3.4196   3.4273   3.4843   3.5019
     3.5132   3.5202   3.5254   3.5585   3.5599   3.5713   4.6218   5.2276
     5.3487   5.4585   5.7605   5.9024   5.9203   5.9980   6.0019   6.0746
     6.1677   6.3003   6.3170   6.3878   6.4204   6.4837   6.5262   6.7230
     6.7302   6.8346   6.9262   6.9299   7.1126   7.2195   7.2323   7.3220
     7.3816   7.4438   7.5131   7.5684   7.6151   7.7134   7.7918   7.8075
     7.8503   7.8625   8.0466   8.0593   8.3188   8.3973   8.4457   8.4749
     8.5013   8.5078   8.6614   8.7338   8.8019   8.8082   8.8448   8.8868
     9.0333   9.0480   9.0955   9.1478   9.1594   9.1888   9.2151   9.2409
     9.2768   9.3095   9.3232   9.3335   9.4244   9.4586   9.4802   9.5080
     9.6466  10.3141  10.8943  11.7045  12.2530  12.4758  12.5947  12.6013
    12.6101  12.6912  12.6971  12.7840  13.5527  13.5777  13.8200  13.8509
    14.3964  14.6137  14.9417  14.9530  15.0639  15.1200  15.1724  15.2269
    15.3508  15.4335  15.5800  15.5898  15.7535  15.7661  15.7731  15.7865
    15.8589  15.8918  16.0553  16.0677  16.0813

     occupation numbers 
     1.0000   1.0000   1.0000   1.0000   1.0000   1.0000   1.0000   1.0000
     1.0000   1.0000   1.0000   1.0000   1.0000   1.0000   1.0000   1.0000
     1.0000   1.0000   1.0000   1.0000   1.0000   1.0000   1.0000   1.0000
     1.0000   1.0000   1.0000   1.0000   1.0000   1.0000   1.0000   1.0000
     1.0000   1.0000   1.0000   1.0000   1.0000   1.0000   1.0000   1.0000
     1.0000   1.0000   1.0000   1.0000   1.0000   1.0000   1.0000   1.0000
     1.0000   1.0000   1.0000   1.0000   1.0000   1.0000   1.0000   1.0000
     1.0000   1.0000   1.0000   1.0000   1.0000   1.0000   1.0000   1.0000
     1.0000   1.0000   1.0000   1.0000   1.0000   1.0000   1.0000   1.0000
     1.0000   1.0000   1.0000   1.0000   1.0000   1.0000   1.0000   1.0000
     1.0000   1.0000   1.0000   1.0000   1.0000   1.0000   1.0000   1.0000
     1.0000   1.0000   1.0000   1.0000   1.0000   1.0000   1.0000   1.0000
     1.0000   1.0000   1.0000   1.0000   1.0000   1.0000   1.0000   1.0000
     1.0000   1.0000   1.0000   1.0000   1.0000   1.0000   1.0000   1.0000
     1.0000   1.0000   1.0000   1.0000   1.0000   1.0000   1.0000   1.0000
     1.0000   1.0000   1.0000   1.0000   1.0000   1.0000   1.0000   1.0000
     1.0000   1.0000   1.0000   1.0000   1.0000   1.0000   1.0000   1.0000
     1.0000   1.0000   1.0000   1.0000   1.0000   1.0000   1.0000   1.0000
     1.0000   1.0000   1.0000   1.0000   1.0000   1.0000   1.0000   1.0000
     1.0000   1.0000   1.0000   1.0000   1.0000   1.0000   1.0000   1.0000
     1.0000   1.0000   1.0000   1.0000   0.0000   0.0000   0.0000   0.0000
     0.0000   0.0000   0.0000   0.0000   0.0000   0.0000   0.0000   0.0000
     0.0000   0.0000   0.0000   0.0000   0.0000   0.0000   0.0000   0.0000
     0.0000   0.0000   0.0000   0.0000   0.0000   0.0000   0.0000   0.0000
     0.0000   0.0000   0.0000   0.0000   0.0000

          k = 0.0000-0.2500 0.0000 ( 48016 PWs)   bands (ev):

   -80.5944 -80.5944 -76.0186 -76.0186 -69.5446 -69.5446 -64.9584 -64.9584
   -46.7641 -46.7641 -46.6923 -46.6923 -46.6923 -46.6923 -42.0372 -42.0372
   -41.8801 -41.8801 -41.8801 -41.8801 -38.5976 -38.5976 -38.4146 -38.4146
   -38.4146 -38.4146 -33.7903 -33.7903 -33.5253 -33.5253 -33.5253 -33.5253
   -30.3216 -30.3216 -30.3108 -30.3108 -15.9694 -15.9694 -15.8745 -15.8745
   -10.7026 -10.7026 -10.6944 -10.6944 -10.6858 -10.6857 -10.5046 -10.5046
   -10.4585 -10.4585 -10.4495 -10.4495  -6.9758  -6.9758  -6.7933  -6.7933
    -6.5640  -6.5640  -6.2159  -6.2159  -6.1924  -6.1924  -6.1823  -6.1823
    -6.1278  -6.1278  -5.8876  -5.8876  -5.7815  -5.7815  -5.7230  -5.7230
    -1.5195  -1.5195  -1.3468  -1.3468  -1.1406  -1.1406  -1.1305  -1.1305
    -1.1023  -1.1023  -0.9090  -0.9090   3.4560   3.4560   3.4868   3.4868
     3.5009   3.5009   3.5277   3.5277   3.5589   3.5589   5.0115   5.0115
     5.4648   5.4648   5.7545   5.7545   5.8824   5.8824   5.9302   5.9302
     6.1052   6.1052   6.4360   6.4360   6.5378   6.5378   6.6361   6.6361
     6.8355   6.8355   6.9068   6.9068   7.0217   7.0217   7.2727   7.2727
     7.4275   7.4275   7.4842   7.4842   7.8763   7.8763   8.0036   8.0036
     8.0515   8.0515   8.1478   8.1478   8.2334   8.2334   8.4415   8.4415
     8.5078   8.5078   8.6113   8.6113   8.7228   8.7228   8.7782   8.7782
     8.9647   8.9647   9.0104   9.0104   9.1114   9.1114   9.1390   9.1390
     9.2312   9.2312   9.3298   9.3298   9.4201   9.4201   9.5885   9.5885
     9.9157   9.9157  11.3747  11.3747  12.6131  12.6131  12.6524  12.6524
    12.6821  12.6821  12.7075  12.7075  13.5701  13.5702  13.8656  13.8656
    14.2124  14.2124  14.6080  14.6080  15.0252  15.0252  15.1434  15.1434
    15.2244  15.2244  15.5795  15.5795  15.6545  15.6546  15.8479  15.8480
    16.0082  16.0083  16.0727  16.0728  16.2348

     occupation numbers 
     1.0000   1.0000   1.0000   1.0000   1.0000   1.0000   1.0000   1.0000
     1.0000   1.0000   1.0000   1.0000   1.0000   1.0000   1.0000   1.0000
     1.0000   1.0000   1.0000   1.0000   1.0000   1.0000   1.0000   1.0000
     1.0000   1.0000   1.0000   1.0000   1.0000   1.0000   1.0000   1.0000
     1.0000   1.0000   1.0000   1.0000   1.0000   1.0000   1.0000   1.0000
     1.0000   1.0000   1.0000   1.0000   1.0000   1.0000   1.0000   1.0000
     1.0000   1.0000   1.0000   1.0000   1.0000   1.0000   1.0000   1.0000
     1.0000   1.0000   1.0000   1.0000   1.0000   1.0000   1.0000   1.0000
     1.0000   1.0000   1.0000   1.0000   1.0000   1.0000   1.0000   1.0000
     1.0000   1.0000   1.0000   1.0000   1.0000   1.0000   1.0000   1.0000
     1.0000   1.0000   1.0000   1.0000   1.0000   1.0000   1.0000   1.0000
     1.0000   1.0000   1.0000   1.0000   1.0000   1.0000   1.0000   1.0000
     1.0000   1.0000   1.0000   1.0000   1.0000   1.0000   1.0000   1.0000
     1.0000   1.0000   1.0000   1.0000   1.0000   1.0000   1.0000   1.0000
     1.0000   1.0000   1.0000   1.0000   1.0000   1.0000   1.0000   1.0000
     1.0000   1.0000   1.0000   1.0000   1.0000   1.0000   1.0000   1.0000
     1.0000   1.0000   1.0000   1.0000   1.0000   1.0000   1.0000   1.0000
     1.0000   1.0000   1.0000   1.0000   1.0000   1.0000   1.0000   1.0000
     1.0000   1.0000   1.0000   1.0000   1.0000   1.0000   1.0000   1.0000
     1.0000   1.0000   1.0000   1.0000   1.0000   1.0000   1.0000   1.0000
     1.0000   1.0000   1.0000   1.0000   0.0000   0.0000   0.0000   0.0000
     0.0000   0.0000   0.0000   0.0000   0.0000   0.0000   0.0000   0.0000
     0.0000   0.0000   0.0000   0.0000   0.0000   0.0000   0.0000   0.0000
     0.0000   0.0000   0.0000   0.0000   0.0000   0.0000   0.0000   0.0000
     0.0000   0.0000   0.0000   0.0000   0.0000

          k = 0.0000-0.2500 0.2456 ( 48052 PWs)   bands (ev):

   -80.5944 -80.5944 -76.0186 -76.0186 -69.5446 -69.5446 -64.9584 -64.9584
   -46.7640 -46.7640 -46.6923 -46.6923 -46.6923 -46.6923 -42.0372 -42.0372
   -41.8801 -41.8801 -41.8801 -41.8801 -38.5976 -38.5976 -38.4146 -38.4146
   -38.4146 -38.4146 -33.7903 -33.7903 -33.5253 -33.5253 -33.5253 -33.5253
   -30.3216 -30.3216 -30.3108 -30.3108 -15.9699 -15.9699 -15.8750 -15.8750
   -10.6998 -10.6998 -10.6935 -10.6935 -10.6829 -10.6828 -10.5016 -10.5016
   -10.4587 -10.4586 -10.4494 -10.4494  -6.9522  -6.9522  -6.8314  -6.8314
    -6.6337  -6.6337  -6.2183  -6.2183  -6.1924  -6.1924  -6.1650  -6.1650
    -6.0765  -6.0765  -5.8889  -5.8889  -5.7709  -5.7709  -5.7220  -5.7220
    -1.5176  -1.5176  -1.3432  -1.3432  -1.1468  -1.1468  -1.1461  -1.1461
    -1.1001  -1.1001  -0.9072  -0.9071   3.4593   3.4593   3.4878   3.4878
     3.5000   3.5000   3.5314   3.5314   3.5590   3.5590   4.8864   4.8864
     5.4385   5.4385   5.8365   5.8365   5.9248   5.9248   6.0302   6.0302
     6.1460   6.1460   6.4038   6.4038   6.5609   6.5609   6.7302   6.7302
     6.8196   6.8196   6.8921   6.8921   6.9969   6.9969   7.2487   7.2487
     7.4303   7.4303   7.4853   7.4854   7.6898   7.6898   7.8339   7.8339
     8.0126   8.0126   8.1499   8.1499   8.2759   8.2759   8.4176   8.4176
     8.5482   8.5482   8.6774   8.6774   8.8227   8.8227   8.8824   8.8824
     9.0022   9.0022   9.0978   9.0978   9.1348   9.1348   9.2200   9.2200
     9.2444   9.2444   9.3471   9.3472   9.3842   9.3842   9.5332   9.5332
     9.8559   9.8559  11.3725  11.3725  12.3564  12.3564  12.6414  12.6415
    12.6460  12.6460  12.7079  12.7080  13.5721  13.5721  14.1193  14.1193
    14.3412  14.3412  14.7435  14.7435  15.1207  15.1207  15.1567  15.1568
    15.3376  15.3376  15.5652  15.5653  15.6789  15.6790  15.8678  15.8679
    15.9834  15.9836  16.0720  16.0735  16.1907

     occupation numbers 
     1.0000   1.0000   1.0000   1.0000   1.0000   1.0000   1.0000   1.0000
     1.0000   1.0000   1.0000   1.0000   1.0000   1.0000   1.0000   1.0000
     1.0000   1.0000   1.0000   1.0000   1.0000   1.0000   1.0000   1.0000
     1.0000   1.0000   1.0000   1.0000   1.0000   1.0000   1.0000   1.0000
     1.0000   1.0000   1.0000   1.0000   1.0000   1.0000   1.0000   1.0000
     1.0000   1.0000   1.0000   1.0000   1.0000   1.0000   1.0000   1.0000
     1.0000   1.0000   1.0000   1.0000   1.0000   1.0000   1.0000   1.0000
     1.0000   1.0000   1.0000   1.0000   1.0000   1.0000   1.0000   1.0000
     1.0000   1.0000   1.0000   1.0000   1.0000   1.0000   1.0000   1.0000
     1.0000   1.0000   1.0000   1.0000   1.0000   1.0000   1.0000   1.0000
     1.0000   1.0000   1.0000   1.0000   1.0000   1.0000   1.0000   1.0000
     1.0000   1.0000   1.0000   1.0000   1.0000   1.0000   1.0000   1.0000
     1.0000   1.0000   1.0000   1.0000   1.0000   1.0000   1.0000   1.0000
     1.0000   1.0000   1.0000   1.0000   1.0000   1.0000   1.0000   1.0000
     1.0000   1.0000   1.0000   1.0000   1.0000   1.0000   1.0000   1.0000
     1.0000   1.0000   1.0000   1.0000   1.0000   1.0000   1.0000   1.0000
     1.0000   1.0000   1.0000   1.0000   1.0000   1.0000   1.0000   1.0000
     1.0000   1.0000   1.0000   1.0000   1.0000   1.0000   1.0000   1.0000
     1.0000   1.0000   1.0000   1.0000   1.0000   1.0000   1.0000   1.0000
     1.0000   1.0000   1.0000   1.0000   1.0000   1.0000   1.0000   1.0000
     1.0000   1.0000   1.0000   1.0000   0.0000   0.0000   0.0000   0.0000
     0.0000   0.0000   0.0000   0.0000   0.0000   0.0000   0.0000   0.0000
     0.0000   0.0000   0.0000   0.0000   0.0000   0.0000   0.0000   0.0000
     0.0000   0.0000   0.0000   0.0000   0.0000   0.0000   0.0000   0.0000
     0.0000   0.0000   0.0000   0.0000   0.0000

          k = 0.2500 0.0000 0.0000 ( 47992 PWs)   bands (ev):

   -80.5944 -80.5944 -76.0186 -76.0186 -69.5446 -69.5446 -64.9584 -64.9584
   -46.7641 -46.7641 -46.6923 -46.6923 -46.6923 -46.6923 -42.0372 -42.0371
   -41.8801 -41.8801 -41.8801 -41.8801 -38.5976 -38.5976 -38.4146 -38.4146
   -38.4146 -38.4146 -33.7903 -33.7903 -33.5253 -33.5253 -33.5253 -33.5253
   -30.3216 -30.3162 -30.3161 -30.3108 -15.9694 -15.9178 -15.9175 -15.8745
   -10.7150 -10.7123 -10.7026 -10.6944 -10.6857 -10.5938 -10.5928 -10.5046
   -10.4585 -10.4495 -10.4452 -10.4439  -7.0188  -6.9758  -6.7933  -6.7899
    -6.5640  -6.4777  -6.3785  -6.3009  -6.2860  -6.2159  -6.1924  -6.1823
    -6.1278  -5.9778  -5.9104  -5.8876  -5.7980  -5.7815  -5.7622  -5.7230
    -1.5195  -1.3468  -1.1555  -1.1406  -1.1364  -1.1305  -1.1276  -1.1191
    -1.1023  -0.9263  -0.9173  -0.9090   3.3722   3.4560   3.4676   3.4868
     3.5009   3.5091   3.5277   3.5498   3.5589   3.5744   5.0115   5.1275
     5.4648   5.5544   5.7545   5.8160   5.8626   5.8824   5.9302   6.1052
     6.1824   6.2561   6.2990   6.4360   6.5378   6.5905   6.6361   6.6385
     6.8355   6.9068   7.0217   7.0732   7.1089   7.2111   7.2329   7.2727
     7.3705   7.4275   7.4626   7.4842   7.6868   7.7833   7.8605   7.8763
     7.9497   7.9937   8.0036   8.0515   8.1087   8.1478   8.2334   8.3034
     8.3855   8.4030   8.4415   8.5078   8.5312   8.6113   8.6268   8.7228
     8.7330   8.7782   8.9647   9.0104   9.0199   9.1015   9.1114   9.1375
     9.1390   9.2312   9.2715   9.3298   9.4201   9.4412   9.5373   9.5885
     9.9071   9.9157  10.4446  11.3747  12.6131  12.6409  12.6524  12.6594
    12.6821  12.7075  12.8180  12.8505  13.3517  13.5702  13.8656  14.2124
    14.6080  14.7358  15.0252  15.1332  15.1434  15.2244  15.2575  15.3106
    15.3822  15.5797  15.6306  15.6546  15.7004  15.7875  15.8372  15.8479
    16.0072  16.0083  16.0729  16.1391  16.2140

     occupation numbers 
     1.0000   1.0000   1.0000   1.0000   1.0000   1.0000   1.0000   1.0000
     1.0000   1.0000   1.0000   1.0000   1.0000   1.0000   1.0000   1.0000
     1.0000   1.0000   1.0000   1.0000   1.0000   1.0000   1.0000   1.0000
     1.0000   1.0000   1.0000   1.0000   1.0000   1.0000   1.0000   1.0000
     1.0000   1.0000   1.0000   1.0000   1.0000   1.0000   1.0000   1.0000
     1.0000   1.0000   1.0000   1.0000   1.0000   1.0000   1.0000   1.0000
     1.0000   1.0000   1.0000   1.0000   1.0000   1.0000   1.0000   1.0000
     1.0000   1.0000   1.0000   1.0000   1.0000   1.0000   1.0000   1.0000
     1.0000   1.0000   1.0000   1.0000   1.0000   1.0000   1.0000   1.0000
     1.0000   1.0000   1.0000   1.0000   1.0000   1.0000   1.0000   1.0000
     1.0000   1.0000   1.0000   1.0000   1.0000   1.0000   1.0000   1.0000
     1.0000   1.0000   1.0000   1.0000   1.0000   1.0000   1.0000   1.0000
     1.0000   1.0000   1.0000   1.0000   1.0000   1.0000   1.0000   1.0000
     1.0000   1.0000   1.0000   1.0000   1.0000   1.0000   1.0000   1.0000
     1.0000   1.0000   1.0000   1.0000   1.0000   1.0000   1.0000   1.0000
     1.0000   1.0000   1.0000   1.0000   1.0000   1.0000   1.0000   1.0000
     1.0000   1.0000   1.0000   1.0000   1.0000   1.0000   1.0000   1.0000
     1.0000   1.0000   1.0000   1.0000   1.0000   1.0000   1.0000   1.0000
     1.0000   1.0000   1.0000   1.0000   1.0000   1.0000   1.0000   1.0000
     1.0000   1.0000   1.0000   1.0000   1.0000   1.0000   1.0000   1.0000
     1.0000   1.0000   1.0000   1.0000   0.0000   0.0000   0.0000   0.0000
     0.0000   0.0000   0.0000   0.0000   0.0000   0.0000   0.0000   0.0000
     0.0000   0.0000   0.0000   0.0000   0.0000   0.0000   0.0000   0.0000
     0.0000   0.0000   0.0000   0.0000   0.0000   0.0000   0.0000   0.0000
     0.0000   0.0000   0.0000   0.0000   0.0000

          k = 0.2500 0.0000 0.2456 ( 48032 PWs)   bands (ev):

   -80.5945 -80.5944 -76.0186 -76.0186 -69.5446 -69.5446 -64.9584 -64.9584
   -46.7640 -46.7640 -46.6923 -46.6923 -46.6923 -46.6923 -42.0372 -42.0372
   -41.8801 -41.8801 -41.8801 -41.8801 -38.5976 -38.5976 -38.4146 -38.4146
   -38.4146 -38.4146 -33.7903 -33.7903 -33.5253 -33.5253 -33.5253 -33.5253
   -30.3216 -30.3162 -30.3161 -30.3108 -15.9699 -15.9182 -15.9179 -15.8750
   -10.7147 -10.7120 -10.6998 -10.6935 -10.6828 -10.5895 -10.5884 -10.5016
   -10.4587 -10.4494 -10.4453 -10.4439  -7.0246  -6.9522  -6.8314  -6.7989
    -6.6337  -6.5000  -6.4324  -6.2888  -6.2550  -6.2183  -6.1924  -6.1650
    -6.0765  -5.9752  -5.8923  -5.8889  -5.7863  -5.7709  -5.7560  -5.7220
    -1.5176  -1.3432  -1.1570  -1.1468  -1.1461  -1.1386  -1.1342  -1.1207
    -1.1001  -0.9235  -0.9146  -0.9072   3.3729   3.4593   3.4696   3.4878
     3.5000   3.5099   3.5314   3.5479   3.5590   3.5744   4.8864   5.0732
     5.4385   5.4778   5.8365   5.8424   5.8951   5.9248   6.0302   6.1460
     6.2002   6.3384   6.3926   6.4038   6.5609   6.6240   6.6787   6.7302
     6.8196   6.8921   6.9670   6.9969   7.0756   7.1943   7.2406   7.2487
     7.3654   7.3839   7.4303   7.4854   7.5345   7.6898   7.6986   7.7808
     7.8339   7.8827   8.0126   8.0759   8.1499   8.1638   8.2759   8.2845
     8.3999   8.4176   8.5482   8.5914   8.6615   8.6774   8.7323   8.7963
     8.8227   8.8824   9.0022   9.0488   9.0952   9.0978   9.1348   9.1772
     9.2200   9.2444   9.3169   9.3471   9.3842   9.4423   9.5155   9.5332
     9.8559   9.8645  10.4448  11.3725  12.3564  12.5826  12.6362  12.6414
    12.6460  12.6474  12.7080  12.8543  13.3388  13.5721  14.1193  14.3412
    14.6682  14.7435  15.1207  15.1211  15.1567  15.2782  15.3374  15.3376
    15.4465  15.5652  15.6269  15.6789  15.8043  15.8678  15.8895  15.9834
    16.0034  16.0720  16.1132  16.1609  16.1908

     occupation numbers 
     1.0000   1.0000   1.0000   1.0000   1.0000   1.0000   1.0000   1.0000
     1.0000   1.0000   1.0000   1.0000   1.0000   1.0000   1.0000   1.0000
     1.0000   1.0000   1.0000   1.0000   1.0000   1.0000   1.0000   1.0000
     1.0000   1.0000   1.0000   1.0000   1.0000   1.0000   1.0000   1.0000
     1.0000   1.0000   1.0000   1.0000   1.0000   1.0000   1.0000   1.0000
     1.0000   1.0000   1.0000   1.0000   1.0000   1.0000   1.0000   1.0000
     1.0000   1.0000   1.0000   1.0000   1.0000   1.0000   1.0000   1.0000
     1.0000   1.0000   1.0000   1.0000   1.0000   1.0000   1.0000   1.0000
     1.0000   1.0000   1.0000   1.0000   1.0000   1.0000   1.0000   1.0000
     1.0000   1.0000   1.0000   1.0000   1.0000   1.0000   1.0000   1.0000
     1.0000   1.0000   1.0000   1.0000   1.0000   1.0000   1.0000   1.0000
     1.0000   1.0000   1.0000   1.0000   1.0000   1.0000   1.0000   1.0000
     1.0000   1.0000   1.0000   1.0000   1.0000   1.0000   1.0000   1.0000
     1.0000   1.0000   1.0000   1.0000   1.0000   1.0000   1.0000   1.0000
     1.0000   1.0000   1.0000   1.0000   1.0000   1.0000   1.0000   1.0000
     1.0000   1.0000   1.0000   1.0000   1.0000   1.0000   1.0000   1.0000
     1.0000   1.0000   1.0000   1.0000   1.0000   1.0000   1.0000   1.0000
     1.0000   1.0000   1.0000   1.0000   1.0000   1.0000   1.0000   1.0000
     1.0000   1.0000   1.0000   1.0000   1.0000   1.0000   1.0000   1.0000
     1.0000   1.0000   1.0000   1.0000   1.0000   1.0000   1.0000   1.0000
     1.0000   1.0000   1.0000   1.0000   0.0000   0.0000   0.0000   0.0000
     0.0000   0.0000   0.0000   0.0000   0.0000   0.0000   0.0000   0.0000
     0.0000   0.0000   0.0000   0.0000   0.0000   0.0000   0.0000   0.0000
     0.0000   0.0000   0.0000   0.0000   0.0000   0.0000   0.0000   0.0000
     0.0000   0.0000   0.0000   0.0000   0.0000

          k = 0.2500-0.2500 0.0000 ( 47946 PWs)   bands (ev):

   -80.5944 -80.5944 -76.0186 -76.0186 -69.5446 -69.5446 -64.9584 -64.9584
   -46.7641 -46.7641 -46.6923 -46.6923 -46.6923 -46.6923 -42.0372 -42.0371
   -41.8801 -41.8801 -41.8801 -41.8801 -38.5976 -38.5976 -38.4146 -38.4146
   -38.4146 -38.4146 -33.7903 -33.7903 -33.5253 -33.5253 -33.5253 -33.5253
   -30.3200 -30.3200 -30.3124 -30.3124 -15.9534 -15.9534 -15.8862 -15.8862
   -10.7517 -10.7517 -10.6651 -10.6651 -10.5957 -10.5957 -10.5680 -10.5680
   -10.5263 -10.5263 -10.3924 -10.3924  -6.9842  -6.9842  -6.7872  -6.7872
    -6.5799  -6.5799  -6.2943  -6.2943  -6.2711  -6.2711  -6.1823  -6.1823
    -6.0481  -6.0481  -5.8706  -5.8706  -5.8224  -5.8224  -5.7337  -5.7337
    -1.3121  -1.3121  -1.2538  -1.2538  -1.1352  -1.1352  -1.1271  -1.1271
    -1.0146  -1.0146  -0.9299  -0.9299   3.4265   3.4265   3.4501   3.4501
     3.5235   3.5235   3.5387   3.5387   3.5620   3.5620   5.1015   5.1015
     5.5136   5.5136   5.8250   5.8251   5.9126   5.9126   5.9758   5.9758
     6.1541   6.1541   6.2551   6.2551   6.5627   6.5627   6.8018   6.8018
     6.9041   6.9041   7.0013   7.0013   7.0722   7.0722   7.2078   7.2078
     7.4112   7.4112   7.5563   7.5563   7.7144   7.7144   7.8969   7.8969
     8.0060   8.0060   8.0675   8.0675   8.1350   8.1350   8.3146   8.3146
     8.3986   8.3986   8.5094   8.5094   8.5326   8.5326   8.6647   8.6647
     8.7847   8.7847   8.9560   8.9560   9.0146   9.0146   9.0989   9.0989
     9.2246   9.2246   9.2919   9.2920   9.4175   9.4175   9.4546   9.4546
     9.8097   9.8097  10.9728  10.9728  12.6016  12.6016  12.6952  12.6952
    12.7429  12.7429  12.7925  12.7925  13.4307  13.4308  14.2803  14.2803
    14.6589  14.6589  14.8746  14.8746  15.1705  15.1705  15.2327  15.2328
    15.3801  15.3801  15.6016  15.6017  15.6709  15.6709  15.9194  15.9194
    16.0233  16.0234  16.3104  16.3109  16.4795

     occupation numbers 
     1.0000   1.0000   1.0000   1.0000   1.0000   1.0000   1.0000   1.0000
     1.0000   1.0000   1.0000   1.0000   1.0000   1.0000   1.0000   1.0000
     1.0000   1.0000   1.0000   1.0000   1.0000   1.0000   1.0000   1.0000
     1.0000   1.0000   1.0000   1.0000   1.0000   1.0000   1.0000   1.0000
     1.0000   1.0000   1.0000   1.0000   1.0000   1.0000   1.0000   1.0000
     1.0000   1.0000   1.0000   1.0000   1.0000   1.0000   1.0000   1.0000
     1.0000   1.0000   1.0000   1.0000   1.0000   1.0000   1.0000   1.0000
     1.0000   1.0000   1.0000   1.0000   1.0000   1.0000   1.0000   1.0000
     1.0000   1.0000   1.0000   1.0000   1.0000   1.0000   1.0000   1.0000
     1.0000   1.0000   1.0000   1.0000   1.0000   1.0000   1.0000   1.0000
     1.0000   1.0000   1.0000   1.0000   1.0000   1.0000   1.0000   1.0000
     1.0000   1.0000   1.0000   1.0000   1.0000   1.0000   1.0000   1.0000
     1.0000   1.0000   1.0000   1.0000   1.0000   1.0000   1.0000   1.0000
     1.0000   1.0000   1.0000   1.0000   1.0000   1.0000   1.0000   1.0000
     1.0000   1.0000   1.0000   1.0000   1.0000   1.0000   1.0000   1.0000
     1.0000   1.0000   1.0000   1.0000   1.0000   1.0000   1.0000   1.0000
     1.0000   1.0000   1.0000   1.0000   1.0000   1.0000   1.0000   1.0000
     1.0000   1.0000   1.0000   1.0000   1.0000   1.0000   1.0000   1.0000
     1.0000   1.0000   1.0000   1.0000   1.0000   1.0000   1.0000   1.0000
     1.0000   1.0000   1.0000   1.0000   1.0000   1.0000   1.0000   1.0000
     1.0000   1.0000   1.0000   1.0000   0.0000   0.0000   0.0000   0.0000
     0.0000   0.0000   0.0000   0.0000   0.0000   0.0000   0.0000   0.0000
     0.0000   0.0000   0.0000   0.0000   0.0000   0.0000   0.0000   0.0000
     0.0000   0.0000   0.0000   0.0000   0.0000   0.0000   0.0000   0.0000
     0.0000   0.0000   0.0000   0.0000   0.0000

          k = 0.2500-0.2500 0.2456 ( 48044 PWs)   bands (ev):

   -80.5945 -80.5945 -76.0186 -76.0186 -69.5446 -69.5446 -64.9584 -64.9584
   -46.7640 -46.7640 -46.6923 -46.6923 -46.6923 -46.6923 -42.0372 -42.0372
   -41.8801 -41.8801 -41.8801 -41.8801 -38.5976 -38.5976 -38.4146 -38.4146
   -38.4146 -38.4146 -33.7903 -33.7903 -33.5253 -33.5253 -33.5253 -33.5253
   -30.3200 -30.3200 -30.3124 -30.3124 -15.9539 -15.9538 -15.8867 -15.8866
   -10.7513 -10.7513 -10.6595 -10.6595 -10.5956 -10.5956 -10.5680 -10.5680
   -10.5229 -10.5229 -10.3924 -10.3924  -6.9741  -6.9741  -6.7837  -6.7836
    -6.6804  -6.6804  -6.2868  -6.2868  -6.2389  -6.2389  -6.1817  -6.1817
    -6.0229  -6.0229  -5.8645  -5.8645  -5.8208  -5.8208  -5.7285  -5.7285
    -1.3111  -1.3111  -1.2489  -1.2489  -1.1436  -1.1436  -1.1374  -1.1374
    -1.0106  -1.0106  -0.9304  -0.9304   3.4261   3.4261   3.4546   3.4546
     3.5253   3.5253   3.5373   3.5373   3.5616   3.5616   5.0024   5.0024
     5.4599   5.4599   5.8731   5.8731   5.9365   5.9365   6.1393   6.1393
     6.1630   6.1630   6.2936   6.2936   6.5587   6.5587   6.7551   6.7551
     6.9209   6.9209   7.0323   7.0323   7.1349   7.1349   7.2312   7.2312
     7.3586   7.3586   7.4742   7.4742   7.5487   7.5487   7.6727   7.6727
     7.9535   7.9535   8.0864   8.0864   8.1608   8.1608   8.3695   8.3695
     8.4513   8.4513   8.5771   8.5771   8.6632   8.6632   8.7337   8.7337
     8.8414   8.8414   8.9958   8.9958   9.0774   9.0774   9.1358   9.1358
     9.2279   9.2279   9.3002   9.3002   9.3965   9.3965   9.4894   9.4894
     9.7458   9.7458  10.9712  10.9712  12.4651  12.4651  12.5995  12.5995
    12.6905  12.6905  12.7955  12.7955  13.4276  13.4276  14.4076  14.4076
    14.7412  14.7412  14.9291  14.9291  15.1550  15.1550  15.3200  15.3200
    15.6124  15.6124  15.6608  15.6608  15.8183  15.8184  15.8679  15.8679
    15.9951  15.9951  16.3032  16.3035  16.3951

     occupation numbers 
     1.0000   1.0000   1.0000   1.0000   1.0000   1.0000   1.0000   1.0000
     1.0000   1.0000   1.0000   1.0000   1.0000   1.0000   1.0000   1.0000
     1.0000   1.0000   1.0000   1.0000   1.0000   1.0000   1.0000   1.0000
     1.0000   1.0000   1.0000   1.0000   1.0000   1.0000   1.0000   1.0000
     1.0000   1.0000   1.0000   1.0000   1.0000   1.0000   1.0000   1.0000
     1.0000   1.0000   1.0000   1.0000   1.0000   1.0000   1.0000   1.0000
     1.0000   1.0000   1.0000   1.0000   1.0000   1.0000   1.0000   1.0000
     1.0000   1.0000   1.0000   1.0000   1.0000   1.0000   1.0000   1.0000
     1.0000   1.0000   1.0000   1.0000   1.0000   1.0000   1.0000   1.0000
     1.0000   1.0000   1.0000   1.0000   1.0000   1.0000   1.0000   1.0000
     1.0000   1.0000   1.0000   1.0000   1.0000   1.0000   1.0000   1.0000
     1.0000   1.0000   1.0000   1.0000   1.0000   1.0000   1.0000   1.0000
     1.0000   1.0000   1.0000   1.0000   1.0000   1.0000   1.0000   1.0000
     1.0000   1.0000   1.0000   1.0000   1.0000   1.0000   1.0000   1.0000
     1.0000   1.0000   1.0000   1.0000   1.0000   1.0000   1.0000   1.0000
     1.0000   1.0000   1.0000   1.0000   1.0000   1.0000   1.0000   1.0000
     1.0000   1.0000   1.0000   1.0000   1.0000   1.0000   1.0000   1.0000
     1.0000   1.0000   1.0000   1.0000   1.0000   1.0000   1.0000   1.0000
     1.0000   1.0000   1.0000   1.0000   1.0000   1.0000   1.0000   1.0000
     1.0000   1.0000   1.0000   1.0000   1.0000   1.0000   1.0000   1.0000
     1.0000   1.0000   1.0000   1.0000   0.0000   0.0000   0.0000   0.0000
     0.0000   0.0000   0.0000   0.0000   0.0000   0.0000   0.0000   0.0000
     0.0000   0.0000   0.0000   0.0000   0.0000   0.0000   0.0000   0.0000
     0.0000   0.0000   0.0000   0.0000   0.0000   0.0000   0.0000   0.0000
     0.0000   0.0000   0.0000   0.0000   0.0000

          k =-0.5000 0.0000 0.0000 ( 48100 PWs)   bands (ev):

   -80.5945 -80.5944 -76.0186 -76.0186 -69.5446 -69.5446 -64.9584 -64.9584
   -46.7641 -46.7641 -46.6923 -46.6923 -46.6923 -46.6923 -42.0372 -42.0371
   -41.8801 -41.8801 -41.8801 -41.8801 -38.5976 -38.5976 -38.4146 -38.4146
   -38.4146 -38.4146 -33.7903 -33.7903 -33.5253 -33.5253 -33.5253 -33.5253
   -30.3163 -30.3161 -30.3161 -30.3161 -15.9203 -15.9198 -15.9152 -15.9152
   -10.7678 -10.7650 -10.6065 -10.6032 -10.5905 -10.5889 -10.5889 -10.5888
   -10.5685 -10.5635 -10.3877 -10.3866  -7.0699  -6.9671  -6.8372  -6.7454
    -6.4841  -6.4615  -6.3786  -6.3693  -6.3657  -6.3657  -6.1857  -6.1715
    -6.0844  -6.0155  -5.9321  -5.8285  -5.8012  -5.8012  -5.7902  -5.7414
    -1.3217  -1.3144  -1.1361  -1.1349  -1.1212  -1.1212  -1.0219  -0.9956
    -0.9499  -0.9370  -0.8466  -0.8461   3.3232   3.4277   3.4864   3.4864
     3.5029   3.5146   3.5218   3.5275   3.5716   3.5778   4.9825   5.3352
     5.5469   5.5505   5.7485   5.8044   5.8044   5.9002   6.1248   6.1603
     6.1826   6.2735   6.3273   6.3561   6.4404   6.5131   6.8067   6.9110
     6.9730   6.9730   6.9802   7.0966   7.1265   7.2357   7.2357   7.3037
     7.3725   7.5629   7.5629   7.6251   7.6785   7.6886   7.6975   7.6975
     7.7450   7.7856   7.8801   7.9083   7.9718   8.1195   8.1247   8.1247
     8.1433   8.2574   8.3349   8.4455   8.5502   8.5502   8.5771   8.6431
     8.6507   8.6507   8.7463   8.8189   8.8409   9.0081   9.0984   9.0996
     9.1278   9.2926   9.2981   9.3278   9.3278   9.3708   9.4575   9.4664
     9.5826   9.9844  10.3648  10.9019  12.5990  12.6292  12.6969  12.6969
    12.7324  12.7880  12.8747  12.8979  13.1971  13.5475  14.4635  15.0061
    15.1396  15.1396  15.1734  15.2480  15.2967  15.3740  15.4365  15.4365
    15.4481  15.4969  15.7028  15.7029  15.7473  15.7943  15.8511  15.8511
    15.9672  16.0547  16.1402  16.1402  16.1674

     occupation numbers 
     1.0000   1.0000   1.0000   1.0000   1.0000   1.0000   1.0000   1.0000
     1.0000   1.0000   1.0000   1.0000   1.0000   1.0000   1.0000   1.0000
     1.0000   1.0000   1.0000   1.0000   1.0000   1.0000   1.0000   1.0000
     1.0000   1.0000   1.0000   1.0000   1.0000   1.0000   1.0000   1.0000
     1.0000   1.0000   1.0000   1.0000   1.0000   1.0000   1.0000   1.0000
     1.0000   1.0000   1.0000   1.0000   1.0000   1.0000   1.0000   1.0000
     1.0000   1.0000   1.0000   1.0000   1.0000   1.0000   1.0000   1.0000
     1.0000   1.0000   1.0000   1.0000   1.0000   1.0000   1.0000   1.0000
     1.0000   1.0000   1.0000   1.0000   1.0000   1.0000   1.0000   1.0000
     1.0000   1.0000   1.0000   1.0000   1.0000   1.0000   1.0000   1.0000
     1.0000   1.0000   1.0000   1.0000   1.0000   1.0000   1.0000   1.0000
     1.0000   1.0000   1.0000   1.0000   1.0000   1.0000   1.0000   1.0000
     1.0000   1.0000   1.0000   1.0000   1.0000   1.0000   1.0000   1.0000
     1.0000   1.0000   1.0000   1.0000   1.0000   1.0000   1.0000   1.0000
     1.0000   1.0000   1.0000   1.0000   1.0000   1.0000   1.0000   1.0000
     1.0000   1.0000   1.0000   1.0000   1.0000   1.0000   1.0000   1.0000
     1.0000   1.0000   1.0000   1.0000   1.0000   1.0000   1.0000   1.0000
     1.0000   1.0000   1.0000   1.0000   1.0000   1.0000   1.0000   1.0000
     1.0000   1.0000   1.0000   1.0000   1.0000   1.0000   1.0000   1.0000
     1.0000   1.0000   1.0000   1.0000   1.0000   1.0000   1.0000   1.0000
     1.0000   1.0000   1.0000   1.0000   0.0000   0.0000   0.0000   0.0000
     0.0000   0.0000   0.0000   0.0000   0.0000   0.0000   0.0000   0.0000
     0.0000   0.0000   0.0000   0.0000   0.0000   0.0000   0.0000   0.0000
     0.0000   0.0000   0.0000   0.0000   0.0000   0.0000   0.0000   0.0000
     0.0000   0.0000   0.0000   0.0000   0.0000

          k =-0.5000 0.0000 0.2456 ( 48018 PWs)   bands (ev):

   -80.5945 -80.5944 -76.0186 -76.0186 -69.5446 -69.5446 -64.9584 -64.9584
   -46.7640 -46.7640 -46.6923 -46.6923 -46.6923 -46.6923 -42.0372 -42.0372
   -41.8801 -41.8801 -41.8801 -41.8801 -38.5976 -38.5976 -38.4146 -38.4146
   -38.4146 -38.4146 -33.7903 -33.7903 -33.5253 -33.5253 -33.5253 -33.5253
   -30.3162 -30.3161 -30.3161 -30.3161 -15.9207 -15.9203 -15.9156 -15.9156
   -10.7673 -10.7645 -10.6034 -10.5999 -10.5900 -10.5882 -10.5848 -10.5845
   -10.5678 -10.5627 -10.3878 -10.3867  -7.0865  -6.9598  -6.8670  -6.7281
    -6.5261  -6.4483  -6.4365  -6.4014  -6.3979  -6.3231  -6.1710  -6.1660
    -6.0542  -5.9929  -5.9583  -5.8371  -5.7856  -5.7730  -5.7657  -5.7368
    -1.3185  -1.3112  -1.1401  -1.1396  -1.1381  -1.1282  -1.0202  -0.9940
    -0.9444  -0.9317  -0.8472  -0.8467   3.3229   3.4273   3.4907   3.4916
     3.5019   3.5124   3.5202   3.5254   3.5713   3.5801   4.9502   5.2276
     5.4585   5.4871   5.7605   5.8824   5.9024   5.9056   6.1677   6.1924
     6.3003   6.3666   6.3878   6.4204   6.4802   6.5262   6.6823   6.8644
     6.9262   6.9299   7.0151   7.0262   7.1126   7.1586   7.2575   7.3220
     7.3816   7.4323   7.4466   7.5131   7.5684   7.6175   7.6699   7.7134
     7.7271   7.7918   7.8075   7.8597   8.0466   8.0789   8.1327   8.1470
     8.3188   8.4222   8.4457   8.4522   8.4662   8.4749   8.6614   8.7338
     8.7524   8.7795   8.8188   8.8868   9.0333   9.0970   9.0984   9.1478
     9.1888   9.2410   9.2768   9.3122   9.3232   9.3640   9.4586   9.4802
     9.5608   9.9945  10.3141  10.8943  12.4758  12.5947  12.6101  12.6892
    12.6915  12.6928  12.7840  12.8816  13.1802  13.5527  14.3964  14.9530
    15.1724  15.2056  15.2105  15.2268  15.2495  15.3508  15.4208  15.4689
    15.5799  15.7182  15.7332  15.7535  15.7731  15.8588  15.9691  16.0409
    16.0500  16.0552  16.0917  16.1321  16.2773

     occupation numbers 
     1.0000   1.0000   1.0000   1.0000   1.0000   1.0000   1.0000   1.0000
     1.0000   1.0000   1.0000   1.0000   1.0000   1.0000   1.0000   1.0000
     1.0000   1.0000   1.0000   1.0000   1.0000   1.0000   1.0000   1.0000
     1.0000   1.0000   1.0000   1.0000   1.0000   1.0000   1.0000   1.0000
     1.0000   1.0000   1.0000   1.0000   1.0000   1.0000   1.0000   1.0000
     1.0000   1.0000   1.0000   1.0000   1.0000   1.0000   1.0000   1.0000
     1.0000   1.0000   1.0000   1.0000   1.0000   1.0000   1.0000   1.0000
     1.0000   1.0000   1.0000   1.0000   1.0000   1.0000   1.0000   1.0000
     1.0000   1.0000   1.0000   1.0000   1.0000   1.0000   1.0000   1.0000
     1.0000   1.0000   1.0000   1.0000   1.0000   1.0000   1.0000   1.0000
     1.0000   1.0000   1.0000   1.0000   1.0000   1.0000   1.0000   1.0000
     1.0000   1.0000   1.0000   1.0000   1.0000   1.0000   1.0000   1.0000
     1.0000   1.0000   1.0000   1.0000   1.0000   1.0000   1.0000   1.0000
     1.0000   1.0000   1.0000   1.0000   1.0000   1.0000   1.0000   1.0000
     1.0000   1.0000   1.0000   1.0000   1.0000   1.0000   1.0000   1.0000
     1.0000   1.0000   1.0000   1.0000   1.0000   1.0000   1.0000   1.0000
     1.0000   1.0000   1.0000   1.0000   1.0000   1.0000   1.0000   1.0000
     1.0000   1.0000   1.0000   1.0000   1.0000   1.0000   1.0000   1.0000
     1.0000   1.0000   1.0000   1.0000   1.0000   1.0000   1.0000   1.0000
     1.0000   1.0000   1.0000   1.0000   1.0000   1.0000   1.0000   1.0000
     1.0000   1.0000   1.0000   1.0000   0.0000   0.0000   0.0000   0.0000
     0.0000   0.0000   0.0000   0.0000   0.0000   0.0000   0.0000   0.0000
     0.0000   0.0000   0.0000   0.0000   0.0000   0.0000   0.0000   0.0000
     0.0000   0.0000   0.0000   0.0000   0.0000   0.0000   0.0000   0.0000
     0.0000   0.0000   0.0000   0.0000   0.0000

          k =-0.5000-0.2500 0.0000 ( 47968 PWs)   bands (ev):

   -80.5944 -80.5944 -76.0186 -76.0186 -69.5446 -69.5446 -64.9584 -64.9584
   -46.7641 -46.7641 -46.6923 -46.6923 -46.6923 -46.6923 -42.0372 -42.0371
   -41.8801 -41.8801 -41.8801 -41.8801 -38.5976 -38.5976 -38.4146 -38.4146
   -38.4146 -38.4146 -33.7903 -33.7903 -33.5253 -33.5253 -33.5253 -33.5253
   -30.3162 -30.3162 -30.3161 -30.3161 -15.9178 -15.9178 -15.9175 -15.9175
   -10.7150 -10.7150 -10.7123 -10.7123 -10.5938 -10.5938 -10.5928 -10.5928
   -10.4452 -10.4452 -10.4439 -10.4439  -7.0188  -7.0188  -6.7899  -6.7899
    -6.4777  -6.4777  -6.3785  -6.3785  -6.3009  -6.3009  -6.2860  -6.2860
    -5.9778  -5.9778  -5.9104  -5.9104  -5.7980  -5.7980  -5.7622  -5.7622
    -1.1555  -1.1555  -1.1364  -1.1364  -1.1276  -1.1276  -1.1191  -1.1191
    -0.9263  -0.9263  -0.9173  -0.9173   3.3722   3.3722   3.4676   3.4676
     3.5091   3.5091   3.5498   3.5498   3.5744   3.5744   5.1275   5.1275
     5.5544   5.5544   5.8160   5.8160   5.8626   5.8626   6.1824   6.1824
     6.2561   6.2561   6.2990   6.2991   6.5905   6.5905   6.6385   6.6385
     7.0732   7.0732   7.1089   7.1089   7.2111   7.2111   7.2329   7.2329
     7.3705   7.3705   7.4626   7.4626   7.6868   7.6868   7.7833   7.7833
     7.8605   7.8605   7.9497   7.9497   7.9937   7.9937   8.1087   8.1087
     8.3034   8.3034   8.3855   8.3855   8.4030   8.4031   8.5312   8.5312
     8.6268   8.6268   8.7330   8.7330   9.0199   9.0199   9.1015   9.1015
     9.1375   9.1375   9.2715   9.2715   9.4412   9.4412   9.5373   9.5373
     9.9071   9.9071  10.4446  10.4446  12.6409  12.6409  12.6594  12.6594
    12.8180  12.8180  12.8505  12.8506  13.3517  13.3517  14.7358  14.7358
    15.1332  15.1332  15.2575  15.2575  15.3106  15.3107  15.3822  15.3822
    15.6305  15.6305  15.7004  15.7007  15.7875  15.7875  15.8372  15.8374
    16.0072  16.0076  16.1393  16.1426  16.2140

     occupation numbers 
     1.0000   1.0000   1.0000   1.0000   1.0000   1.0000   1.0000   1.0000
     1.0000   1.0000   1.0000   1.0000   1.0000   1.0000   1.0000   1.0000
     1.0000   1.0000   1.0000   1.0000   1.0000   1.0000   1.0000   1.0000
     1.0000   1.0000   1.0000   1.0000   1.0000   1.0000   1.0000   1.0000
     1.0000   1.0000   1.0000   1.0000   1.0000   1.0000   1.0000   1.0000
     1.0000   1.0000   1.0000   1.0000   1.0000   1.0000   1.0000   1.0000
     1.0000   1.0000   1.0000   1.0000   1.0000   1.0000   1.0000   1.0000
     1.0000   1.0000   1.0000   1.0000   1.0000   1.0000   1.0000   1.0000
     1.0000   1.0000   1.0000   1.0000   1.0000   1.0000   1.0000   1.0000
     1.0000   1.0000   1.0000   1.0000   1.0000   1.0000   1.0000   1.0000
     1.0000   1.0000   1.0000   1.0000   1.0000   1.0000   1.0000   1.0000
     1.0000   1.0000   1.0000   1.0000   1.0000   1.0000   1.0000   1.0000
     1.0000   1.0000   1.0000   1.0000   1.0000   1.0000   1.0000   1.0000
     1.0000   1.0000   1.0000   1.0000   1.0000   1.0000   1.0000   1.0000
     1.0000   1.0000   1.0000   1.0000   1.0000   1.0000   1.0000   1.0000
     1.0000   1.0000   1.0000   1.0000   1.0000   1.0000   1.0000   1.0000
     1.0000   1.0000   1.0000   1.0000   1.0000   1.0000   1.0000   1.0000
     1.0000   1.0000   1.0000   1.0000   1.0000   1.0000   1.0000   1.0000
     1.0000   1.0000   1.0000   1.0000   1.0000   1.0000   1.0000   1.0000
     1.0000   1.0000   1.0000   1.0000   1.0000   1.0000   1.0000   1.0000
     1.0000   1.0000   1.0000   1.0000   0.0000   0.0000   0.0000   0.0000
     0.0000   0.0000   0.0000   0.0000   0.0000   0.0000   0.0000   0.0000
     0.0000   0.0000   0.0000   0.0000   0.0000   0.0000   0.0000   0.0000
     0.0000   0.0000   0.0000   0.0000   0.0000   0.0000   0.0000   0.0000
     0.0000   0.0000   0.0000   0.0000   0.0000

          k =-0.5000-0.2500 0.2456 ( 48012 PWs)   bands (ev):

   -80.5945 -80.5945 -76.0186 -76.0186 -69.5446 -69.5446 -64.9584 -64.9584
   -46.7640 -46.7640 -46.6923 -46.6923 -46.6923 -46.6923 -42.0372 -42.0372
   -41.8801 -41.8801 -41.8801 -41.8801 -38.5976 -38.5976 -38.4146 -38.4146
   -38.4146 -38.4146 -33.7903 -33.7903 -33.5253 -33.5253 -33.5253 -33.5253
   -30.3162 -30.3162 -30.3161 -30.3161 -15.9182 -15.9182 -15.9179 -15.9179
   -10.7147 -10.7147 -10.7120 -10.7119 -10.5895 -10.5895 -10.5884 -10.5884
   -10.4453 -10.4453 -10.4439 -10.4439  -7.0246  -7.0246  -6.7989  -6.7989
    -6.5000  -6.5000  -6.4324  -6.4324  -6.2888  -6.2888  -6.2550  -6.2550
    -5.9753  -5.9752  -5.8923  -5.8923  -5.7863  -5.7863  -5.7560  -5.7560
    -1.1570  -1.1570  -1.1386  -1.1386  -1.1342  -1.1342  -1.1207  -1.1207
    -0.9235  -0.9235  -0.9146  -0.9146   3.3729   3.3729   3.4696   3.4696
     3.5099   3.5099   3.5479   3.5479   3.5744   3.5744   5.0732   5.0732
     5.4778   5.4778   5.8424   5.8424   5.8951   5.8951   6.2002   6.2002
     6.3384   6.3384   6.3926   6.3926   6.6240   6.6240   6.6787   6.6787
     6.9670   6.9670   7.0756   7.0756   7.1943   7.1943   7.2406   7.2406
     7.3654   7.3654   7.3839   7.3839   7.5345   7.5345   7.6986   7.6986
     7.7808   7.7808   7.8827   7.8827   8.0759   8.0759   8.1638   8.1638
     8.2845   8.2845   8.3999   8.3999   8.5914   8.5914   8.6615   8.6615
     8.7323   8.7323   8.7963   8.7963   9.0488   9.0488   9.0952   9.0952
     9.1772   9.1772   9.3169   9.3169   9.4423   9.4423   9.5155   9.5155
     9.8645   9.8645  10.4448  10.4448  12.5826  12.5826  12.6362  12.6362
    12.6474  12.6474  12.8543  12.8543  13.3388  13.3388  14.6682  14.6682
    15.1211  15.1211  15.2783  15.2783  15.3374  15.3374  15.4465  15.4465
    15.6269  15.6269  15.8042  15.8043  15.8894  15.8895  16.0032  16.0035
    16.1131  16.1132  16.1607  16.1610  16.2045

     occupation numbers 
     1.0000   1.0000   1.0000   1.0000   1.0000   1.0000   1.0000   1.0000
     1.0000   1.0000   1.0000   1.0000   1.0000   1.0000   1.0000   1.0000
     1.0000   1.0000   1.0000   1.0000   1.0000   1.0000   1.0000   1.0000
     1.0000   1.0000   1.0000   1.0000   1.0000   1.0000   1.0000   1.0000
     1.0000   1.0000   1.0000   1.0000   1.0000   1.0000   1.0000   1.0000
     1.0000   1.0000   1.0000   1.0000   1.0000   1.0000   1.0000   1.0000
     1.0000   1.0000   1.0000   1.0000   1.0000   1.0000   1.0000   1.0000
     1.0000   1.0000   1.0000   1.0000   1.0000   1.0000   1.0000   1.0000
     1.0000   1.0000   1.0000   1.0000   1.0000   1.0000   1.0000   1.0000
     1.0000   1.0000   1.0000   1.0000   1.0000   1.0000   1.0000   1.0000
     1.0000   1.0000   1.0000   1.0000   1.0000   1.0000   1.0000   1.0000
     1.0000   1.0000   1.0000   1.0000   1.0000   1.0000   1.0000   1.0000
     1.0000   1.0000   1.0000   1.0000   1.0000   1.0000   1.0000   1.0000
     1.0000   1.0000   1.0000   1.0000   1.0000   1.0000   1.0000   1.0000
     1.0000   1.0000   1.0000   1.0000   1.0000   1.0000   1.0000   1.0000
     1.0000   1.0000   1.0000   1.0000   1.0000   1.0000   1.0000   1.0000
     1.0000   1.0000   1.0000   1.0000   1.0000   1.0000   1.0000   1.0000
     1.0000   1.0000   1.0000   1.0000   1.0000   1.0000   1.0000   1.0000
     1.0000   1.0000   1.0000   1.0000   1.0000   1.0000   1.0000   1.0000
     1.0000   1.0000   1.0000   1.0000   1.0000   1.0000   1.0000   1.0000
     1.0000   1.0000   1.0000   1.0000   0.0000   0.0000   0.0000   0.0000
     0.0000   0.0000   0.0000   0.0000   0.0000   0.0000   0.0000   0.0000
     0.0000   0.0000   0.0000   0.0000   0.0000   0.0000   0.0000   0.0000
     0.0000   0.0000   0.0000   0.0000   0.0000   0.0000   0.0000   0.0000
     0.0000   0.0000   0.0000   0.0000   0.0000

     the Fermi energy is    11.9801 ev

!    total energy              =   -3088.77843383 Ry
     estimated scf accuracy    <       0.00000007 Ry
     smearing contrib. (-TS)   =      -0.00000000 Ry
     internal energy E=F+TS    =   -3088.77843383 Ry

     The total energy is F=E-TS. E is the sum of the following terms:
     one-electron contribution =   -1465.25664804 Ry
     hartree contribution      =     911.29597883 Ry
     xc contribution           =    -575.34135909 Ry
     ewald contribution        =   -1960.11463468 Ry
     Hubbard energy            =       0.63822916 Ry

     total magnetization       =     0.00 Bohr mag/cell
     absolute magnetization    =    38.98 Bohr mag/cell

     convergence has been achieved in  15 iterations

     Writing all to output data dir /tmp/scratch/single/single.save/ :
     XML data file, charge density, pseudopotentials, collected wavefunctions

     init_run     :     13.79s CPU     22.85s WALL (       1 calls)
     electrons    :    452.35s CPU    788.98s WALL (       1 calls)

     Called by init_run:
     wfcinit      :     11.64s CPU     19.45s WALL (       1 calls)
     wfcinit:atom :      0.06s CPU      0.11s WALL (       2 calls)
     wfcinit:wfcr :      9.47s CPU     15.99s WALL (       2 calls)
     potinit      :      0.97s CPU      1.72s WALL (       1 calls)
     hinit0       :      0.91s CPU      1.26s WALL (       1 calls)

     Called by electrons:
     c_bands      :    367.78s CPU    642.11s WALL (      15 calls)
     sum_band     :     67.64s CPU    118.85s WALL (      15 calls)
     v_of_rho     :      5.45s CPU      9.13s WALL (      16 calls)
     v_h          :      0.16s CPU      0.25s WALL (      16 calls)
     v_xc         :      5.28s CPU      8.87s WALL (      16 calls)
     mix_rho      :      6.70s CPU     11.24s WALL (      15 calls)

     Called by c_bands:
     init_us_2    :      3.23s CPU      5.40s WALL (      64 calls)
     cegterg      :    345.95s CPU    606.12s WALL (      30 calls)

     Called by sum_band:
     sum_band:wei :      0.02s CPU      0.04s WALL (      15 calls)
     sum_band:loo :     61.70s CPU    107.66s WALL (      15 calls)
     sum_band:buf :      0.50s CPU      0.67s WALL (      30 calls)
     sum_band:ini :      1.59s CPU      2.84s WALL (      30 calls)

     Called by *egterg:
     cdiaghg      :      5.67s CPU      8.83s WALL (     180 calls)
     cegterg:over :     19.68s CPU     33.14s WALL (     150 calls)
     cegterg:upda :     11.20s CPU     18.35s WALL (     150 calls)
     cegterg:last :     17.91s CPU     30.09s WALL (      58 calls)
     h_psi        :    290.42s CPU    513.50s WALL (     182 calls)
     g_psi        :      0.78s CPU      1.12s WALL (     150 calls)

     Called by h_psi:
     h_psi:calbec :     26.78s CPU     43.21s WALL (     182 calls)
     vloc_psi     :    232.32s CPU    417.95s WALL (     182 calls)
                                        0.00s GPU  (     182 calls)
     add_vuspsi   :     24.66s CPU     40.13s WALL (     182 calls)
     vhpsi        :      5.37s CPU      9.83s WALL (     182 calls)

     General routines
     calbec       :     31.02s CPU     50.88s WALL (     396 calls)
     fft          :      2.79s CPU      5.62s WALL (     302 calls)
     ffts         :      3.38s CPU      6.12s WALL (     506 calls)
     fftw         :    234.10s CPU    428.01s WALL (   34926 calls)

     Parallel routines

     Hubbard U routines
     new_ns       :      1.48s CPU      2.24s WALL (      15 calls)
     vhpsi        :      5.37s CPU      9.83s WALL (     182 calls)

     PWSCF        :   7m47.23s CPU  13m34.43s WALL


   This run was terminated on:   7:58:57   2Oct2026            

=------------------------------------------------------------------------------=
   JOB DONE.
=------------------------------------------------------------------------------=
